$*$$$$$$$$$$$$$$$$$$$$$$$$$$$$$$$$$$$$$$$$$$$$$$$$$$$$$$$$$$$
$*   
$*                 I-DEAS 12 NASTRAN TRANSLATOR
$*                    FOR NX NASTRAN VERSION 4.0  
$*   
$*           MODEL FILE: D:\Scratch\ideas\files\fork.mf1
$*           INPUT FILE: D:\Scratch\ideas\files\fork.dat
$*             EXPORTED: AT 08:32:32 ON 30-Jan-07
$*                 PART: Fork Assem Part
$*                  FEM: IdeasFEModel
$*   
$*                UNITS: MM-mm (milli-newton)
$*                      ... LENGTH : MM
$*                      ... TIME   : sec
$*                      ... MASS   : kilogram (kg)
$*                      ... FORCE  : milli-newton
$*                      ... TEMPERATURE : deg Celsius
$*   
$*     NASTRAN BASIC COORDINATE SYSTEM: PART
$*   
$*     SUBSET EXPORT: OFF
$*   
$*     REAL DATA FILTER: ON (   0.1000E-14 )
$*   
$*     MATERIAL ORIENTATION VECTOR EXPORT: ON
$*   
$*     ROUND-TRIPPING: OFF
$*   
$*     PERMANENT SINGLE POINT CONSTRAINT EXPORT: OFF
$*   
$*$$$$$$$$$$$$$$$$$$$$$$$$$$$$$$$$$$$$$$$$$$$$$$$$$$$$$$$$$$$
$*
$*$$$$$$$$$$$$$$$$$$$$$$$$$$$$$$$$$$$$$$
$*
$*  EXECUTIVE CONTROL   
$*
$*$$$$$$$$$$$$$$$$$$$$$$$$$$$$$$$$$$$$$$
$*
SOL 101
CEND
$*
$*$$$$$$$$$$$$$$$$$$$$$$$$$$$$$$$$$$$$$$
$*
$*  CASE CONTROL        
$*
$*$$$$$$$$$$$$$$$$$$$$$$$$$$$$$$$$$$$$$$
$*
TITLE    = NX  NASTRAN FILE TRANSLATOR  -- UNITS = MM
ECHO     = SORT  
$*
$* GLOBAL CASE
$*
SPC = 1 
LOAD = 1
DISPLACEMENT(PLOT) = ALL
STRESS(PLOT,CENTER,VONMISES) = ALL
SPCFORCES(PRINT) = ALL
$*
$*$$$$$$$$$$$$$$$$$$$$$$$$$$$$$$$$$$$$$$
$*
$*  BULK DATA           
$*
$*$$$$$$$$$$$$$$$$$$$$$$$$$$$$$$$$$$$$$$
$*
BEGIN BULK
$*
$*  PARAM CARDS
$*
PARAM   AUTOSPC YES 
PARAM   GRDPNT         0
PARAM   K6ROT   100.0000
PARAM   POST          -2
PARAM   POSTEXT YES 
$*
$*
$*  COORDINATE SYSTEM CARDS
$*
CORD2R        21       0     0.0     0.0     0.0     0.0     0.01.000000+ 
+       1.000000     0.0     0.0
CORD2C        22       0     0.0     0.0200.0000     0.0     0.0400.0000+ 
+       200.0000     0.0200.0000
CORD2R        23       0-259.382475.6981-1.06-13-488.365966.75291.769-13+ 
+       -259.382475.6981541.8191
$*
$*  GRID CARDS
$*
GRID           1       0-8.57601 39.0327 58.7002       0
GRID           2       0-7.73515 39.4248 63.6470       0
GRID           3       0 8.46866-21.7104 112.000       0
GRID           4       0-6.49016 117.504 77.3351       0
GRID           5       0 4.94804-14.1604 112.000       0
GRID           6       0-10.1854-30.4089 112.000       0
GRID           7       0-21.0285-13.4261 112.000       0
GRID           8       0-40.1719 50.3889 70.3363       0
GRID           9       0-23.7368-7.68247 112.000       0
GRID          10       0-32.7136 20.0535 112.000       0
GRID          11       0 5.66606 37.9502 112.000       0
GRID          12       0-40.5612 55.1726 68.9280       0
GRID          13       0 21.1429 13.2453 112.000       0
GRID          14       0 23.8018 7.47862 112.000       0
GRID          15       0 29.8417-11.7440 112.000       0
GRID          16       0 11.1876-20.4425 112.000       0
GRID          17       0 7.66696-12.8925 112.000       0
GRID          18       0 4.94804-14.1604 68.0000       0
GRID          19       0-84.1150 59.7480 77.5011       0
GRID          20       0 7.66696-12.8925 68.0000       0
GRID          21       0-13.2470 72.0255 73.1372       0
GRID          22       0 11.1876-20.4425 68.0000       0
GRID          23       0 14.5639-27.6831 104.419       0
GRID          24       0 14.8832-28.3679 90.0000       0
GRID          25       0 14.5639-27.6831 75.5813       0
GRID          26       0-10.9967 67.1995 73.1372       0
GRID          27       0 9.95295-17.7949 77.5000       0
GRID          28       0-87.5389 58.6925 73.0011       0
GRID          29       0 9.95295-17.7949 102.500       0
GRID          30       0 8.46866-21.7104 68.0000       0
GRID          31       0-86.6875 59.0642 77.5011       0
GRID          32       0 11.8450-28.9509 75.5813       0
GRID          33       0 12.1643-29.6358 90.0000       0
GRID          34       0 11.8450-28.9509 104.419       0
GRID          35       0-52.4183 59.0439 100.663       0
GRID          36       0 7.23403-19.0627 77.5000       0
GRID          37       0 7.23403-19.0627 102.500       0
GRID          38       0-16.7831-30.2621 102.500       0
GRID          39       0 33.9701-6.59548 102.500       0
GRID          40       0-6.36111-37.4406 104.419       0
GRID          41       0-128.081 100.454 75.0000       0
GRID          42       0 32.7700-19.1934 104.419       0
GRID          43       0-127.453 103.888 77.4994       0
GRID          44       0-16.7831-30.2621 77.5000       0
GRID          45       0-125.365 102.585 77.1238       0
GRID          46       0 33.9701-6.59548 77.5000       0
GRID          47       0-124.212 106.504 74.6232       0
GRID          48       0-10.1854-30.4089 68.0000       0
GRID          49       0-84.4034 58.2876 72.5011       0
GRID          50       0-6.36111-37.4406 75.5813       0
GRID          51       0 32.7700-19.1934 75.5813       0
GRID          52       0-83.0053 63.7091 75.5000       0
GRID          53       0 29.8417-11.7440 68.0000       0
GRID          54       0-84.7209 61.1184 75.0000       0
GRID          55       0-8.22760-39.1447 90.0000       0
GRID          56       0-87.8564 61.5234 75.5000       0
GRID          57       0-7.97615-38.2804 102.919       0
GRID          58       0-6.39031-37.5409 102.919       0
GRID          59       0-80.7537 60.9122 73.0023       0
GRID          60       0 32.8656-19.2356 102.919       0
GRID          61       0-82.6878 60.8783 73.0011       0
GRID          62       0 34.4515-18.4961 102.919       0
GRID          63       0 35.2752-18.8590 90.0000       0
GRID          64       0-82.1809 59.7818 77.5023       0
GRID          65       0-6.39031-37.5409 77.0813       0
GRID          66       0 31.3536-15.4898 107.459       0
GRID          67       0-7.97615-38.2804 77.0813       0
GRID          68       0 34.4515-18.4961 77.0813       0
GRID          69       0 32.8656-19.2356 77.0813       0
GRID          70       0 23.8018 7.47862 68.0000       0
GRID          71       0 21.1429 13.2453 68.0000       0
GRID          72       0 5.66606 37.9502 68.0000       0
GRID          73       0-32.7136 20.0535 68.0000       0
GRID          74       0 24.3323-18.9857 102.224       0
GRID          75       0-23.7368-7.68247 68.0000       0
GRID          76       0-21.0285-13.4261 68.0000       0
GRID          77       0-91.9201 98.8340 76.0000       0
GRID          78       0-74.7496 92.2052 81.5283       0
GRID          79       0-72.6275 85.2037 93.3333       0
GRID          80       0-36.8940 65.7678 65.6857       0
GRID          81       0-93.7804 95.2929 80.0000       0
GRID          82       0-32.5473 65.1140 65.1316       0
GRID          83       0-117.714 120.350 76.0000       0
GRID          84       0-34.6819 60.9408 65.6956       0
GRID          85       0-120.864 117.885 80.0000       0
GRID          86       0-137.514 105.088 76.0000       0
GRID          87       0 1.43373 74.4221 75.0000       0
GRID          88       0-134.328 107.507 80.0000       0
GRID          89       0-91.7393 44.7835 76.0000       0
GRID          90       0 2.59733 70.0057 75.0000       0
GRID          91       0-88.5532 47.2019 80.0000       0
GRID          92       0 5.88145 70.7490 75.0000       0
GRID          93       0-80.6485 39.8927 76.0000       0
GRID          94       0-81.0114 43.8762 80.0000       0
GRID          95       0 4.95319 68.6560 77.7051       0
GRID          96       0-69.8981 40.8721 76.0000       0
GRID          97       0-70.2611 44.8556 80.0000       0
GRID          98       0-52.5171 42.4557 85.4437       0
GRID          99       0-54.1928 57.3914 70.5000       0
GRID         100       0-53.8786 44.9965 93.3333       0
GRID         101       0-111.321 106.247 71.0000       0
GRID         102       0-117.275 105.538 71.0000       0
GRID         103       0-46.1722 63.3659 70.3079       0
GRID         104       0-113.985 103.263 75.0000       0
GRID         105       0-120.596 97.6863 75.0000       0
GRID         106       0-48.3666 68.1116 70.2976       0
GRID         107       0-122.284 101.313 71.0000       0
GRID         108       0-123.782 95.2679 71.0000       0
GRID         109       0-45.2064 69.5852 67.9235       0
GRID         110       0-58.0028 46.9766 71.0000       0
GRID         111       0-43.0120 64.8395 67.9337       0
GRID         112       0-54.7406 52.6506 71.0000       0
GRID         113       0-66.4016 58.7543 79.2415       0
GRID         114       0-58.3658 50.9601 75.0000       0
GRID         115       0-94.3195 63.0685 75.0000       0
GRID         116       0-97.5056 60.6501 71.0000       0
GRID         117       0-91.2803 60.4680 71.0000       0
GRID         118       0-69.3770 50.8089 71.0000       0
GRID         119       0-65.0442 46.3351 71.0000       0
GRID         120       0-65.4071 50.3186 75.0000       0
GRID         121       0-122.284 101.313 70.0000       0
GRID         122       0-123.782 95.2679 70.0000       0
GRID         123       0-133.540 110.154 72.4997       0
GRID         124       0-111.321 106.247 70.0000       0
GRID         125       0-117.275 105.538 70.0000       0
GRID         126       0-77.5946 57.8651 77.5008       0
GRID         127       0-73.1092 82.5775 75.0000       0
GRID         128       0 32.0994-15.2555 107.083       0
GRID         129       0-69.4840 84.2679 71.0000       0
GRID         130       0-72.2824 86.4911 71.0000       0
GRID         131       0-58.0028 46.9766 70.0000       0
GRID         132       0-54.7406 52.6506 70.0000       0
GRID         133       0-65.2903 53.5020 79.2415       0
GRID         134       0-69.4840 84.2679 70.0000       0
GRID         135       0 29.3805-10.5375 73.5022       0
GRID         136       0-72.2824 86.4911 70.0000       0
GRID         137       0 27.8252-7.45725 73.6977       0
GRID         138       0-97.5056 60.6501 70.0000       0
GRID         139       0-91.2803 60.4680 70.0000       0
GRID         140       0-65.0442 46.3351 70.0000       0
GRID         141       0 28.6488-10.8020 73.1264       0
GRID         142       0-69.3770 50.8089 70.0000       0
GRID         143       0-29.6686 122.081 71.2086       0
GRID         144       0-31.2154 122.263 70.6090       0
GRID         145       0-32.3270 121.745 69.5916       0
GRID         146       0-133.600 113.024 77.4997       0
GRID         147       0-29.9718 120.269 70.0000       0
GRID         148       0-26.6814 122.669 72.0000       0
GRID         149       0-25.8362 120.856 70.0000       0
GRID         150       0-135.889 112.173 75.4997       0
GRID         151       0-13.8394 128.657 72.0000       0
GRID         152       0-136.050 114.458 75.4993       0
GRID         153       0-12.9942 126.845 70.0000       0
GRID         154       0 .102968 117.229 72.0000       0
GRID         155       0-1.84028 117.702 70.0000       0
GRID         156       0 15.9512 83.2423 72.0000       0
GRID         157       0 24.0821-20.5356 76.5407       0
GRID         158       0 15.0645 81.4496 70.0000       0
GRID         159       0 15.7438 65.2157 72.0000       0
GRID         160       0-23.1760 93.1146 75.8660       0
GRID         161       0 14.8986 67.0284 70.0000       0
GRID         162       0-36.7576 47.0158 68.9280       0
GRID         163       0 2.90010 59.2266 72.0000       0
GRID         164       0-32.2276 46.0294 67.2929       0
GRID         165       0 2.05487 61.0392 70.0000       0
GRID         166       0 .531189 57.3172 71.2086       0
GRID         167       0-37.0117 51.8626 67.9621       0
GRID         168       0-1.05144 58.2494 70.0000       0
GRID         169       0-1.40186 53.9104 69.0909       0
GRID         170       0-39.9869 45.6243 108.323       0
GRID         171       0 5.76646 60.5632 78.2082       0
GRID         172       0 5.67122 57.2087 83.6364       0
GRID         173       0-109.285 91.1151 77.5000       0
GRID         174       0 5.43880 62.6172 80.1249       0
GRID         175       0 7.06041 61.1666 78.0000       0
GRID         176       0 6.21518 62.9792 80.0000       0
GRID         177       0-38.6518 43.2402 71.6989       0
GRID         178       0 15.7438 65.2157 78.0000       0
GRID         179       0-34.6789 42.2216 69.0167       0
GRID         180       0 14.8986 67.0284 80.0000       0
GRID         181       0 15.9512 83.2423 78.0000       0
GRID         182       0 15.0645 81.4496 80.0000       0
GRID         183       0 .102968 117.229 78.0000       0
GRID         184       0-43.5007 37.7550 82.5527       0
GRID         185       0-1.84028 117.702 80.0000       0
GRID         186       0-13.8394 128.657 78.0000       0
GRID         187       0-12.9942 126.845 80.0000       0
GRID         188       0-22.5229 124.608 78.0000       0
GRID         189       0-21.6776 122.796 80.0000       0
GRID         190       0-23.8168 124.005 78.2082       0
GRID         191       0-123.247 109.033 72.4997       0
GRID         192       0-22.4540 122.433 80.1249       0
GRID         193       0-46.6173 72.0408 111.947       0
GRID         194       0-26.0451 124.674 81.2416       0
GRID         195       0-25.8915 124.745 82.8260       0
GRID         196       0-43.0678 68.7307 112.913       0
GRID         197       0-32.9072 121.474 69.0909       0
GRID         198       0-42.3992 73.4273 113.819       0
GRID         199       0-25.8342 124.772 83.6364       0
GRID         200       0 14.2366 75.5467 80.0000       0
GRID         201       0 6.25583-28.8482 76.5407       0
GRID         202       0-6.89434 120.862 80.0000       0
GRID         203       0 14.2366 75.5467 70.0000       0
GRID         204       0-6.89434 120.862 70.0000       0
GRID         205       0 32.7967-10.7464 110.496       0
GRID         206       0 33.6168-18.7078 104.149       0
GRID         207       0 32.1298-5.14168 108.667       0
GRID         208       0 31.6861-2.15573 102.919       0
GRID         209       0-133.079 108.779 77.4997       0
GRID         210       0 31.8616-2.07388 102.919       0
GRID         211       0-39.4536 65.4558 113.627       0
GRID         212       0 38.6143-16.5549 102.919       0
GRID         213       0-35.5824 62.2957 114.233       0
GRID         214       0-12.8491-32.0314 110.496       0
GRID         215       0-39.1995 60.6090 112.661       0
GRID         216       0-16.7139-27.9179 108.667       0
GRID         217       0-7.27747-37.7771 104.149       0
GRID         218       0-12.1390-40.2216 102.919       0
GRID         219       0-24.0947 110.572 91.7921       0
GRID         220       0-18.8916-25.7405 102.919       0
GRID         221       0-18.7161-25.6587 102.919       0
GRID         222       0 31.7899-1.92011 99.6812       0
GRID         223       0-28.1046 26.4502 111.049       0
GRID         224       0-18.9633-25.5867 99.6812       0
GRID         225       0 33.1849-18.9324 104.438       0
GRID         226       0 31.3332-11.2753 111.247       0
GRID         227       0 25.7073 8.07731 110.105       0
GRID         228       0-30.2210 123.278 93.5188       0
GRID         229       0 29.6861-4.58589 110.105       0
GRID         230       0 22.8354 14.3056 110.105       0
GRID         231       0-22.7119-14.5009 110.105       0
GRID         232       0-25.6370-8.29748 110.105       0
GRID         233       0-15.5688-25.6886 110.105       0
GRID         234       0-11.5032-31.2503 111.247       0
GRID         235       0-6.82779-37.5906 104.438       0
GRID         236       0 28.9366-.944284 102.919       0
GRID         237       0-17.8767-22.7737 102.919       0
GRID         238       0 33.6168-18.7078 75.8507       0
GRID         239       0 38.6143-16.5549 77.0813       0
GRID         240       0 31.8616-2.07388 77.0813       0
GRID         241       0 31.6861-2.15573 77.0813       0
GRID         242       0-128.805 103.914 78.3333       0
GRID         243       0 32.1298-5.14168 71.3325       0
GRID         244       0 32.7967-10.7464 69.5044       0
GRID         245       0-16.7139-27.9179 71.3325       0
GRID         246       0-18.7161-25.6587 77.0813       0
GRID         247       0-18.8916-25.7405 77.0813       0
GRID         248       0-12.1390-40.2216 77.0813       0
GRID         249       0-29.4079 113.595 102.847       0
GRID         250       0-7.27747-37.7771 75.8507       0
GRID         251       0-12.8491-32.0314 69.5044       0
GRID         252       0 31.7899-1.92011 80.3188       0
GRID         253       0-25.1642 119.672 71.3561       0
GRID         254       0-18.9633-25.5867 80.3188       0
GRID         255       0 33.1849-18.9324 75.5622       0
GRID         256       0 31.3332-11.2753 68.7528       0
GRID         257       0 29.6861-4.58589 69.8953       0
GRID         258       0 25.7073 8.07731 69.8953       0
GRID         259       0 22.8354 14.3056 69.8953       0
GRID         260       0-25.6370-8.29748 69.8953       0
GRID         261       0-30.6124 119.540 72.8044       0
GRID         262       0-22.7119-14.5009 69.8953       0
GRID         263       0-15.5688-25.6886 69.8953       0
GRID         264       0-11.5032-31.2503 68.7528       0
GRID         265       0-6.82779-37.5906 75.5622       0
GRID         266       0 28.9366-.944284 77.0813       0
GRID         267       0-21.1577 110.864 79.6812       0
GRID         268       0-17.8767-22.7737 77.0813       0
GRID         269       0-22.6225 12.0594 107.514       0
GRID         270       0 23.7283 14.8650 90.0000       0
GRID         271       0 26.7125 8.39314 90.0000       0
GRID         272       0-23.6000-15.0679 90.0000       0
GRID         273       0-19.0268-8.26689 101.485       0
GRID         274       0-26.6395-8.62193 90.0000       0
GRID         275       0 29.3509-4.081-3 90.0000       0
GRID         276       0-20.5180-5.10453 101.485       0
GRID         277       0-18.8633-22.4867 90.0000       0
GRID         278       0 38.9004-17.1685 90.0000       0
GRID         279       0-11.8528-40.8352 90.0000       0
GRID         280       0 31.5394-1.38272 90.0000       0
GRID         281       0-19.2139-25.0493 90.0000       0
GRID         282       0 27.3057-13.1470 108.373       0
GRID         283       0-52.4047 112.382 55.0000       0
GRID         284       0-18.5952 39.8775 55.0000       0
GRID         285       0-18.5952 39.8775 60.0000       0
GRID         286       0-14.3690 30.8145 55.0000       0
GRID         287       0-56.6308 121.445 55.0000       0
GRID         288       0 7.62147 38.5910 110.105       0
GRID         289       0-.423209 42.8344 62.7978       0
GRID         290       0-34.4614 18.9674 110.105       0
GRID         291       0 7.62147 38.5910 69.8953       0
GRID         292       0-4.46123 40.9514 60.5825       0
GRID         293       0-34.4614 18.9674 69.8953       0
GRID         294       0 8.58370 39.0397 90.0000       0
GRID         295       0-35.4236 18.5187 90.0000       0
GRID         296       0-33.5589 21.8661 66.0000       0
GRID         297       0-37.2068 20.1650 69.7907       0
GRID         298       0 4.82082 39.7628 66.0000       0
GRID         299       0 8.46879 41.4639 69.7907       0
GRID         300       0-35.7560 115.732 71.3625       0
GRID         301       0 9.43603 41.9149 90.0000       0
GRID         302       0-33.5056 110.906 71.3625       0
GRID         303       0 8.46879 41.4639 110.209       0
GRID         304       0-39.0950 114.175 68.5890       0
GRID         305       0 4.82082 39.7628 114.000       0
GRID         306       0-33.5589 21.8661 114.000       0
GRID         307       0-37.2068 20.1650 110.209       0
GRID         308       0-16.0902-30.5018 107.083       0
GRID         309       0-38.1741 19.7140 90.0000       0
GRID         310       0-80.6485 39.8927 70.0000       0
GRID         311       0-91.7393 44.7835 70.0000       0
GRID         312       0-137.514 105.088 70.0000       0
GRID         313       0-117.714 120.350 70.0000       0
GRID         314       0-66.9159 90.5917 70.0000       0
GRID         315       0-34.0536 126.456 71.8503       0
GRID         316       0-44.7977 43.1591 70.0000       0
GRID         317       0-31.4684 127.662 77.1666       0
GRID         318       0-76.7827 52.3411 80.0000       0
GRID         319       0-26.8478 129.816 78.5054       0
GRID         320       0-122.557 112.646 80.0000       0
GRID         321       0-122.557 112.646 70.0000       0
GRID         322       0-29.4329 128.611 73.1891       0
GRID         323       0-76.7827 52.3411 70.0000       0
GRID         324       0-.469048 48.3299 90.0000       0
GRID         325       0-38.5047 129.898 90.0000       0
GRID         326       0 6.70835-17.9354 112.000       0
GRID         327       0-34.6094 126.197 71.3417       0
GRID         328       0-5.52190-28.2343 112.000       0
GRID         329       0-37.9019 125.213 75.1376       0
GRID         330       0-.858380-26.0597 112.000       0
GRID         331       0 3.80514-23.8850 112.000       0
GRID         332       0-16.7485-29.0900 105.584       0
GRID         333       0-18.3177-17.6718 112.000       0
GRID         334       0-15.6070-21.9175 112.000       0
GRID         335       0-12.8962-26.1632 112.000       0
GRID         336       0-46.6963 67.8327 110.540       0
GRID         337       0-22.3827-10.5543 112.000       0
GRID         338       0-43.7857 64.2087 111.422       0
GRID         339       0-31.2175 15.4308 112.000       0
GRID         340       0-29.7214 10.8082 112.000       0
GRID         341       0-28.2252 6.18550 112.000       0
GRID         342       0-26.7291 1.56284 112.000       0
GRID         343       0-25.2330-3.05982 112.000       0
GRID         344       0 .868599 35.7131 112.000       0
GRID         345       0-3.92886 33.4760 112.000       0
GRID         346       0-8.72632 31.2389 112.000       0
GRID         347       0-13.5238 29.0018 112.000       0
GRID         348       0-18.3212 26.7648 112.000       0
GRID         349       0-23.1187 24.5277 112.000       0
GRID         350       0-27.9162 22.2906 112.000       0
GRID         351       0-3.69712 41.3077 65.8622       0
GRID         352       0 18.5634 17.3628 112.000       0
GRID         353       0 15.9839 21.4803 112.000       0
GRID         354       0 15.8921-18.3558 108.749       0
GRID         355       0 13.4045 25.5977 112.000       0
GRID         356       0 10.8250 29.7152 112.000       0
GRID         357       0 8.24553 33.8327 112.000       0
GRID         358       0-53.6556 97.3301 113.660       0
GRID         359       0 22.4724 10.3619 112.000       0
GRID         360       0-57.5268 100.490 113.054       0
GRID         361       0 28.3317-6.93835 112.000       0
GRID         362       0 26.8218-2.13269 112.000       0
GRID         363       0 25.3118 2.67296 112.000       0
GRID         364       0 15.8511-18.2679 112.000       0
GRID         365       0-36.5757 70.8814 65.5967       0
GRID         366       0 20.5146-16.0933 112.000       0
GRID         367       0-40.7652 68.9278 66.2922       0
GRID         368       0 25.1781-13.9186 112.000       0
GRID         369       0 9.42727-16.6675 112.000       0
GRID         370       0 .174755-14.2191 112.000       0
GRID         371       0-49.8627 75.0986 111.066       0
GRID         372       0-4.59853-14.2777 112.000       0
GRID         373       0-40.6976 73.9245 65.6857       0
GRID         374       0-8.78130-10.9116 112.000       0
GRID         375       0-12.9641-7.54537 112.000       0
GRID         376       0-13.9275-2.86996 112.000       0
GRID         377       0-34.4543 75.0086 65.0425       0
GRID         378       0-14.8909 1.80545 112.000       0
GRID         379       0-38.5762 78.0517 65.1315       0
GRID         380       0-12.8381 6.11515 112.000       0
GRID         381       0-10.7853 10.4249 112.000       0
GRID         382       0-12.5326 37.1877 58.1470       0
GRID         383       0-5.91927 12.6939 112.000       0
GRID         384       0-1.05325 14.9630 112.000       0
GRID         385       0 3.56771 13.7653 112.000       0
GRID         386       0 8.18867 12.5676 112.000       0
GRID         387       0-31.0617 43.9083 67.4442       0
GRID         388       0 11.1510 8.82432 112.000       0
GRID         389       0 14.1132 5.08099 112.000       0
GRID         390       0 14.0032-.286941 112.000       0
GRID         391       0 13.8933-5.65487 112.000       0
GRID         392       0 10.7801-9.27371 112.000       0
GRID         393       0-48.8614 86.2219 66.3004       0
GRID         394       0 .231026-14.2369 68.0000       0
GRID         395       0-51.1543 82.3963 67.9092       0
GRID         396       0-4.48598-14.3135 68.0000       0
GRID         397       0-39.9543 108.801 112.634       0
GRID         398       0-8.69858-10.9745 68.0000       0
GRID         399       0-12.9112-7.63555 68.0000       0
GRID         400       0-13.8990-2.89798 68.0000       0
GRID         401       0-49.7591 57.9076 104.042       0
GRID         402       0-14.8868 1.83959 68.0000       0
GRID         403       0-12.9461 6.01584 68.0000       0
GRID         404       0-46.8371 53.4527 104.971       0
GRID         405       0-11.0055 10.1921 68.0000       0
GRID         406       0-6.20071 12.5635 68.0000       0
GRID         407       0-44.0294 54.7620 108.296       0
GRID         408       0-1.39591 14.9349 68.0000       0
GRID         409       0-46.9513 59.2169 107.367       0
GRID         410       0 3.41071 13.7419 68.0000       0
GRID         411       0-34.7495 55.9440 66.3022       0
GRID         412       0 8.21734 12.5489 68.0000       0
GRID         413       0 11.0768 9.04836 68.0000       0
GRID         414       0 13.9363 5.54781 68.0000       0
GRID         415       0 14.0216 .224517 68.0000       0
GRID         416       0-30.4096 55.2617 65.7397       0
GRID         417       0 14.1068-5.09877 68.0000       0
GRID         418       0 10.8869-8.99566 68.0000       0
GRID         419       0 4.94804-14.1604 73.5000       0
GRID         420       0-48.7937 91.2186 65.6938       0
GRID         421       0 4.94804-14.1604 79.0000       0
GRID         422       0 4.94804-14.1604 84.5000       0
GRID         423       0 4.94804-14.1604 90.0000       0
GRID         424       0 4.94804-14.1604 95.5000       0
GRID         425       0-44.6971 85.8778 65.7400       0
GRID         426       0 4.94804-14.1604 101.000       0
GRID         427       0-46.7579 81.7724 66.2930       0
GRID         428       0 4.94804-14.1604 106.500       0
GRID         429       0 7.66696-12.8925 106.500       0
GRID         430       0 7.66696-12.8925 101.000       0
GRID         431       0-133.786 106.702 74.6667       0
GRID         432       0 7.66696-12.8925 95.5000       0
GRID         433       0 7.66696-12.8925 90.0000       0
GRID         434       0-56.3087 77.1566 73.1071       0
GRID         435       0 7.66696-12.8925 84.5000       0
GRID         436       0 7.66696-12.8925 79.0000       0
GRID         437       0-55.7022 72.4742 75.0239       0
GRID         438       0 7.66696-12.8925 73.5000       0
GRID         439       0-52.8944 73.7835 71.6989       0
GRID         440       0 9.42727-16.6675 68.0000       0
GRID         441       0 12.8757-24.0628 108.209       0
GRID         442       0 14.6437-27.8543 100.814       0
GRID         443       0-124.601 98.8275 77.5000       0
GRID         444       0 14.7236-28.0255 97.2093       0
GRID         445       0 14.8034-28.1967 93.6047       0
GRID         446       0-52.5051 68.9998 73.1071       0
GRID         447       0 14.6437-27.8543 79.1860       0
GRID         448       0 14.7236-28.0255 82.7907       0
GRID         449       0 14.8034-28.1967 86.3953       0
GRID         450       0 12.8757-24.0628 71.7907       0
GRID         451       0-64.3167 102.414 109.727       0
GRID         452       0 10.6113-19.2066 76.0011       0
GRID         453       0 11.2696-20.6184 74.5022       0
GRID         454       0 11.8791-21.9255 76.0011       0
GRID         455       0 12.4887-23.2327 77.5000       0
GRID         456       0-45.1387 74.5820 67.3169       0
GRID         457       0 11.8791-21.9255 78.9989       0
GRID         458       0-48.7559 72.8953 68.8894       0
GRID         459       0 11.2696-20.6184 80.4978       0
GRID         460       0-46.5038 76.9257 67.2590       0
GRID         461       0 10.6113-19.2066 78.9989       0
GRID         462       0 10.6113-19.2066 103.999       0
GRID         463       0-50.9003 77.5495 68.8752       0
GRID         464       0 11.2696-20.6184 105.498       0
GRID         465       0 11.8791-21.9255 103.999       0
GRID         466       0-57.2728 95.6434 112.088       0
GRID         467       0 12.4887-23.2327 102.500       0
GRID         468       0 11.8791-21.9255 101.001       0
GRID         469       0-61.3039 98.4344 110.263       0
GRID         470       0 11.2696-20.6184 99.5022       0
GRID         471       0 10.6113-19.2066 101.001       0
GRID         472       0 6.70835-17.9354 68.0000       0
GRID         473       0 13.4711-14.8889 94.7511       0
GRID         474       0 10.1568-25.3307 71.7907       0
GRID         475       0 12.0845-29.4646 86.3953       0
GRID         476       0-50.5429 94.9384 65.6975       0
GRID         477       0 12.0046-29.2934 82.7907       0
GRID         478       0 11.9248-29.1221 79.1860       0
GRID         479       0 12.0845-29.4646 93.6047       0
GRID         480       0-57.2736 116.180 113.334       0
GRID         481       0 12.0046-29.2934 97.2093       0
GRID         482       0 11.9248-29.1221 100.814       0
GRID         483       0 10.1568-25.3307 108.209       0
GRID         484       0 7.89234-20.4745 78.9989       0
GRID         485       0-61.3757 96.2735 70.7330       0
GRID         486       0 8.55064-21.8862 80.4978       0
GRID         487       0-58.2177 100.116 67.3096       0
GRID         488       0 9.16019-23.1934 78.9989       0
GRID         489       0 9.76974-24.5006 77.5000       0
GRID         490       0-62.1077 99.7092 69.9158       0
GRID         491       0 9.16019-23.1934 76.0011       0
GRID         492       0 8.55064-21.8862 74.5022       0
GRID         493       0 7.89234-20.4745 76.0011       0
GRID         494       0 7.89234-20.4745 101.001       0
GRID         495       0-121.642 88.3128 70.5000       0
GRID         496       0 8.55064-21.8862 99.5022       0
GRID         497       0 9.16019-23.1934 101.001       0
GRID         498       0-61.5037 103.726 68.1382       0
GRID         499       0 9.76974-24.5006 102.500       0
GRID         500       0 9.16019-23.1934 103.999       0
GRID         501       0 8.55064-21.8862 105.498       0
GRID         502       0 7.89234-20.4745 103.999       0
GRID         503       0-20.6737 121.051 77.4090       0
GRID         504       0-16.1248-31.6739 103.999       0
GRID         505       0-54.4141 98.0984 66.3041       0
GRID         506       0-15.4665-33.0856 105.498       0
GRID         507       0-14.8570-34.3928 103.999       0
GRID         508       0-14.2474-35.7000 102.500       0
GRID         509       0-14.8570-34.3928 101.001       0
GRID         510       0-53.5187 107.362 65.2063       0
GRID         511       0-15.4665-33.0856 99.5022       0
GRID         512       0-16.1248-31.6739 101.001       0
GRID         513       0-53.5863 102.365 65.8129       0
GRID         514       0 34.6284-8.00723 101.001       0
GRID         515       0 35.2867-9.41898 99.5022       0
GRID         516       0 35.8963-10.7262 101.001       0
GRID         517       0 36.5058-12.0333 102.500       0
GRID         518       0 35.8963-10.7262 103.999       0
GRID         519       0 35.2867-9.41898 105.498       0
GRID         520       0 34.6284-8.00723 103.999       0
GRID         521       0-20.3144 112.597 75.0000       0
GRID         522       0 7.29345-31.0733 104.419       0
GRID         523       0-19.3375 110.429 77.8630       0
GRID         524       0 2.74193-33.1957 104.419       0
GRID         525       0-18.2267 112.683 75.0000       0
GRID         526       0-1.80959-35.3182 104.419       0
GRID         527       0-8.27326-33.9247 108.209       0
GRID         528       0 31.3058-15.4687 108.209       0
GRID         529       0-120.810 104.148 72.6238       0
GRID         530       0 28.2185-21.3158 104.419       0
GRID         531       0 23.6669-23.4383 104.419       0
GRID         532       0 19.1154-25.5607 104.419       0
GRID         533       0-16.1248-31.6739 78.9989       0
GRID         534       0-15.4665-33.0856 80.4978       0
GRID         535       0-14.8570-34.3928 78.9989       0
GRID         536       0 27.8792-1.53849 72.5407       0
GRID         537       0-14.2474-35.7000 77.5000       0
GRID         538       0-14.8570-34.3928 76.0011       0
GRID         539       0-121.988 105.109 72.1238       0
GRID         540       0-15.4665-33.0856 74.5022       0
GRID         541       0-120.630 105.831 72.1238       0
GRID         542       0-16.1248-31.6739 76.0011       0
GRID         543       0 34.6284-8.00723 76.0011       0
GRID         544       0 35.2867-9.41898 74.5022       0
GRID         545       0-122.068 103.165 70.5000       0
GRID         546       0 35.8963-10.7262 76.0011       0
GRID         547       0 36.5058-12.0333 77.5000       0
GRID         548       0-82.5449 89.8999 76.0961       0
GRID         549       0 35.8963-10.7262 78.9989       0
GRID         550       0-86.8778 91.5481 76.0961       0
GRID         551       0 35.2867-9.41898 80.4978       0
GRID         552       0-87.7839 89.1606 78.0898       0
GRID         553       0 34.6284-8.00723 78.9989       0
GRID         554       0-5.52190-28.2343 68.0000       0
GRID         555       0-49.1069 119.989 67.1078       0
GRID         556       0-.858380-26.0597 68.0000       0
GRID         557       0-47.5457 115.200 65.7561       0
GRID         558       0 3.80514-23.8850 68.0000       0
GRID         559       0-8.27326-33.9247 71.7907       0
GRID         560       0-51.7410 118.209 65.1995       0
GRID         561       0 7.29345-31.0733 75.5813       0
GRID         562       0 2.74193-33.1957 75.5813       0
GRID         563       0-1.80959-35.3182 75.5813       0
GRID         564       0 28.2185-21.3158 75.5813       0
GRID         565       0-55.2722 116.562 61.9092       0
GRID         566       0 23.6669-23.4383 75.5813       0
GRID         567       0-52.0593 113.095 65.2885       0
GRID         568       0 19.1154-25.5607 75.5813       0
GRID         569       0 31.3058-15.4687 71.7907       0
GRID         570       0 15.8511-18.2679 68.0000       0
GRID         571       0 20.5146-16.0933 68.0000       0
GRID         572       0 28.8253-6.24217 77.2907       0
GRID         573       0 25.1781-13.9186 68.0000       0
GRID         574       0 29.0471-7.73515 74.4163       0
GRID         575       0-3.12962-36.7675 90.0000       0
GRID         576       0 1.96836-34.3902 90.0000       0
GRID         577       0 7.06634-32.0130 90.0000       0
GRID         578       0-8.10188-38.7125 96.4593       0
GRID         579       0-7.18323-37.9107 102.919       0
GRID         580       0-39.5596 123.889 71.3625       0
GRID         581       0-6.37571-37.4907 103.669       0
GRID         582       0 32.8178-19.2145 103.669       0
GRID         583       0 33.6585-18.8658 102.919       0
GRID         584       0-42.8985 122.332 68.5890       0
GRID         585       0 34.8633-18.6775 96.4593       0
GRID         586       0 19.9812-25.9907 90.0000       0
GRID         587       0 33.3834-8.67094 73.5022       0
GRID         588       0 25.0792-23.6135 90.0000       0
GRID         589       0 30.1772-21.2362 90.0000       0
GRID         590       0-6.37571-37.4907 76.3313       0
GRID         591       0-7.18323-37.9107 77.0813       0
GRID         592       0-8.10188-38.7125 83.5407       0
GRID         593       0 34.8633-18.6775 83.5407       0
GRID         594       0 33.6585-18.8658 77.0813       0
GRID         595       0-80.3860 104.851 85.9790       0
GRID         596       0 32.8178-19.2145 76.3313       0
GRID         597       0 28.3317-6.93835 68.0000       0
GRID         598       0-115.496 80.2165 70.5000       0
GRID         599       0 26.8218-2.13269 68.0000       0
GRID         600       0 25.3118 2.67296 68.0000       0
GRID         601       0 22.4724 10.3619 68.0000       0
GRID         602       0 18.5634 17.3628 68.0000       0
GRID         603       0 15.9839 21.4803 68.0000       0
GRID         604       0 13.4045 25.5977 68.0000       0
GRID         605       0 10.8250 29.7152 68.0000       0
GRID         606       0 8.24553 33.8327 68.0000       0
GRID         607       0 .868599 35.7131 68.0000       0
GRID         608       0-41.7378 83.3227 114.838       0
GRID         609       0-3.92886 33.4760 68.0000       0
GRID         610       0-37.6566 80.4111 114.804       0
GRID         611       0-8.72632 31.2389 68.0000       0
GRID         612       0-100.344 60.2549 73.5000       0
GRID         613       0-13.5238 29.0018 68.0000       0
GRID         614       0-18.3212 26.7648 68.0000       0
GRID         615       0-100.344 60.2549 70.5000       0
GRID         616       0-23.1187 24.5277 68.0000       0
GRID         617       0-7.12933 124.795 79.0000       0
GRID         618       0-27.9162 22.2906 68.0000       0
GRID         619       0-109.774 72.6784 70.5000       0
GRID         620       0-31.2175 15.4308 68.0000       0
GRID         621       0-29.7214 10.8082 68.0000       0
GRID         622       0-28.2252 6.18550 68.0000       0
GRID         623       0-26.7291 1.56284 68.0000       0
GRID         624       0-25.2330-3.05982 68.0000       0
GRID         625       0-15.6226 123.963 76.0000       0
GRID         626       0-22.3827-10.5543 68.0000       0
GRID         627       0-18.3177-17.6718 68.0000       0
GRID         628       0-15.6070-21.9175 68.0000       0
GRID         629       0-3.39568 119.045 79.0000       0
GRID         630       0-12.8962-26.1632 68.0000       0
GRID         631       0-87.5141 96.8490 76.5961       0
GRID         632       0-83.1081 94.8641 77.1922       0
GRID         633       0-78.9289 93.5347 79.3602       0
GRID         634       0-74.7011 90.7488 84.6748       0
GRID         635       0-74.6529 89.2940 87.8209       0
GRID         636       0-73.6402 87.2488 90.5771       0
GRID         637       0-74.7657 85.9077 89.4278       0
GRID         638       0-76.9040 86.6116 85.5222       0
GRID         639       0 16.4476-22.6674 84.2538       0
GRID         640       0-80.9122 88.3503 83.3509       0
GRID         641       0-84.9204 90.0890 81.1796       0
GRID         642       0 33.0500-5.86858 105.584       0
GRID         643       0-89.3504 92.6910 80.5898       0
GRID         644       0-92.8502 97.0634 78.0000       0
GRID         645       0-113.943 116.174 76.0000       0
GRID         646       0-110.173 111.998 76.0000       0
GRID         647       0-105.831 108.377 76.0000       0
GRID         648       0-101.489 104.755 76.0000       0
GRID         649       0-96.7044 101.794 76.0000       0
GRID         650       0-84.7484 65.5451 77.5000       0
GRID         651       0-97.5856 97.5555 80.0000       0
GRID         652       0-101.391 99.8182 80.0000       0
GRID         653       0-104.956 102.485 80.0000       0
GRID         654       0-40.1516 24.3087 111.220       0
GRID         655       0-108.521 105.151 80.0000       0
GRID         656       0-111.784 108.180 80.0000       0
GRID         657       0-115.047 111.209 80.0000       0
GRID         658       0-117.955 114.547 80.0000       0
GRID         659       0-119.289 119.117 78.0000       0
GRID         660       0-112.310 82.6350 77.5000       0
GRID         661       0-138.731 109.692 76.0000       0
GRID         662       0-113.903 81.4257 75.5000       0
GRID         663       0-139.948 114.297 76.0000       0
GRID         664       0-137.568 118.421 76.0000       0
GRID         665       0-109.449 78.8659 77.5000       0
GRID         666       0-135.188 122.546 76.0000       0
GRID         667       0-130.593 123.797 76.0000       0
GRID         668       0-125.999 125.048 76.0000       0
GRID         669       0-121.856 122.699 76.0000       0
GRID         670       0-75.4551 107.150 106.146       0
GRID         671       0-124.837 119.469 80.0000       0
GRID         672       0-72.8867 108.348 110.208       0
GRID         673       0-128.810 121.053 80.0000       0
GRID         674       0-132.089 118.526 80.0000       0
GRID         675       0-77.3867 106.250 110.482       0
GRID         676       0-135.368 115.998 80.0000       0
GRID         677       0-134.848 111.753 80.0000       0
GRID         678       0-135.921 106.298 78.0000       0
GRID         679       0-94.6002 48.5526 76.0000       0
GRID         680       0-97.4611 52.3216 76.0000       0
GRID         681       0-100.322 56.0907 76.0000       0
GRID         682       0-67.5333 111.396 109.143       0
GRID         683       0-103.183 59.8597 76.0000       0
GRID         684       0-85.8916 47.3786 78.3333       0
GRID         685       0-106.044 63.6288 76.0000       0
GRID         686       0-108.905 67.3979 76.0000       0
GRID         687       0-81.9393 43.7239 76.3333       0
GRID         688       0-111.766 71.1669 76.0000       0
GRID         689       0-82.1208 45.7157 78.3333       0
GRID         690       0-114.627 74.9360 76.0000       0
GRID         691       0-117.488 78.7050 76.0000       0
GRID         692       0-120.348 82.4741 76.0000       0
GRID         693       0-69.3047 110.018 113.676       0
GRID         694       0-123.209 86.2431 76.0000       0
GRID         695       0-126.070 90.0122 76.0000       0
GRID         696       0-128.931 93.7812 76.0000       0
GRID         697       0-115.496 80.2165 73.5000       0
GRID         698       0-131.792 97.5503 76.0000       0
GRID         699       0-134.653 101.319 76.0000       0
GRID         700       0-131.467 103.738 80.0000       0
GRID         701       0-128.606 99.9687 80.0000       0
GRID         702       0-45.6091 86.4827 114.232       0
GRID         703       0-125.745 96.1997 80.0000       0
GRID         704       0-49.7244 89.3300 113.840       0
GRID         705       0-122.884 92.4306 80.0000       0
GRID         706       0-49.9830 84.4027 113.070       0
GRID         707       0-120.023 88.6615 80.0000       0
GRID         708       0-44.1105 116.802 113.158       0
GRID         709       0-117.162 84.8925 80.0000       0
GRID         710       0-40.0764 113.717 111.935       0
GRID         711       0-114.301 81.1234 80.0000       0
GRID         712       0-111.441 77.3544 80.0000       0
GRID         713       0-40.0805 118.681 110.180       0
GRID         714       0-108.580 73.5853 80.0000       0
GRID         715       0-36.0464 115.597 108.957       0
GRID         716       0-105.719 69.8163 80.0000       0
GRID         717       0-102.858 66.0472 80.0000       0
GRID         718       0-99.9968 62.2782 80.0000       0
GRID         719       0-40.8836 93.5162 114.877       0
GRID         720       0-97.1359 58.5091 80.0000       0
GRID         721       0-94.2750 54.7401 80.0000       0
GRID         722       0-91.4141 50.9710 80.0000       0
GRID         723       0-38.4732 75.4114 114.807       0
GRID         724       0-90.1462 45.9927 78.0000       0
GRID         725       0-30.1404 128.281 99.9967       0
GRID         726       0-86.1939 42.3381 76.0000       0
GRID         727       0-33.7972 127.128 95.7218       0
GRID         728       0-84.7823 45.5390 80.0000       0
GRID         729       0-28.9139 128.853 95.0460       0
GRID         730       0-80.8300 41.8844 78.0000       0
GRID         731       0-75.2733 40.3824 76.0000       0
GRID         732       0-75.6363 44.3659 80.0000       0
GRID         733       0-70.0796 42.8639 78.0000       0
GRID         734       0-53.0466 77.7338 109.786       0
GRID         735       0-56.2507 42.1156 81.9565       0
GRID         736       0-67.8341 47.5871 77.5000       0
GRID         737       0-59.9843 41.7754 78.4693       0
GRID         738       0-64.9412 41.3238 77.2346       0
GRID         739       0-64.8488 44.9022 81.8435       0
GRID         740       0-59.4364 44.9487 83.6870       0
GRID         741       0-118.781 84.5437 73.5000       0
GRID         742       0-56.6575 44.9726 88.5102       0
GRID         743       0-30.4692 123.163 84.7209       0
GRID         744       0-53.1971 43.7258 89.3886       0
GRID         745       0-114.298 105.892 71.0000       0
GRID         746       0-30.4979 123.149 84.3157       0
GRID         747       0-115.630 104.400 73.0000       0
GRID         748       0-112.653 104.755 73.0000       0
GRID         749       0-121.440 99.4996 73.0000       0
GRID         750       0-123.033 98.2904 71.0000       0
GRID         751       0-122.189 96.4771 73.0000       0
GRID         752       0-56.3717 49.8136 71.0000       0
GRID         753       0-56.5532 51.8054 73.0000       0
GRID         754       0-58.1843 48.9684 73.0000       0
GRID         755       0-95.9126 61.8593 73.0000       0
GRID         756       0-56.4608 81.1069 108.378       0
GRID         757       0-94.3929 60.5590 71.0000       0
GRID         758       0-53.3006 82.5806 110.752       0
GRID         759       0-92.7999 61.7683 73.0000       0
GRID         760       0-67.2106 48.5720 71.0000       0
GRID         761       0-65.2257 48.3268 73.0000       0
GRID         762       0-67.3920 50.5637 73.0000       0
GRID         763       0-35.6666 110.765 110.375       0
GRID         764       0-122.284 101.313 70.5000       0
GRID         765       0-123.033 98.2904 70.0000       0
GRID         766       0-123.782 95.2679 70.5000       0
GRID         767       0-111.321 106.247 70.5000       0
GRID         768       0-114.298 105.892 70.0000       0
GRID         769       0-74.4974 57.7514 78.0267       0
GRID         770       0-117.275 105.538 70.5000       0
GRID         771       0-117.291 100.475 75.0000       0
GRID         772       0-120.889 102.203 71.0000       0
GRID         773       0-119.495 103.094 71.0000       0
GRID         774       0-118.385 104.316 71.0000       0
GRID         775       0-32.7306 127.073 105.091       0
GRID         776       0-71.2966 83.4227 73.0000       0
GRID         777       0-70.8832 85.3795 71.0000       0
GRID         778       0-27.8819 129.334 103.875       0
GRID         779       0-72.6958 84.5343 73.0000       0
GRID         780       0-77.5455 83.7566 75.0000       0
GRID         781       0-81.9818 84.9357 75.0000       0
GRID         782       0-86.3146 86.5839 75.0000       0
GRID         783       0-90.6475 88.2322 75.0000       0
GRID         784       0-94.8033 90.3325 75.0000       0
GRID         785       0-98.9592 92.4328 75.0000       0
GRID         786       0-102.869 94.9532 75.0000       0
GRID         787       0-106.779 97.4735 75.0000       0
GRID         788       0-110.382 100.368 75.0000       0
GRID         789       0-106.972 102.845 71.0000       0
GRID         790       0-42.4845 33.2636 84.9105       0
GRID         791       0-102.623 99.4433 71.0000       0
GRID         792       0-92.0237 66.1144 77.5000       0
GRID         793       0-97.8374 96.6181 71.0000       0
GRID         794       0-93.0524 93.7928 71.0000       0
GRID         795       0-33.7361 105.833 70.1395       0
GRID         796       0-87.9509 91.6200 71.0000       0
GRID         797       0-82.8494 89.4472 71.0000       0
GRID         798       0-77.5659 87.9691 71.0000       0
GRID         799       0-58.0028 46.9766 70.5000       0
GRID         800       0-56.3717 49.8136 70.0000       0
GRID         801       0-54.7406 52.6506 70.5000       0
GRID         802       0-60.2087 54.9123 75.0000       0
GRID         803       0-62.0516 58.8645 75.0000       0
GRID         804       0-35.6500 57.2990 113.627       0
GRID         805       0-63.8946 62.8166 75.0000       0
GRID         806       0 20.5785 4.74622 78.7594       0
GRID         807       0-65.7375 66.7688 75.0000       0
GRID         808       0-67.5804 70.7210 75.0000       0
GRID         809       0-69.4233 74.6731 75.0000       0
GRID         810       0-71.2663 78.6253 75.0000       0
GRID         811       0-67.6410 80.3158 71.0000       0
GRID         812       0-65.7981 76.3636 71.0000       0
GRID         813       0-63.9552 72.4114 71.0000       0
GRID         814       0-15.1995 112.833 75.0000       0
GRID         815       0-62.1123 68.4593 71.0000       0
GRID         816       0-17.7479 115.156 75.0000       0
GRID         817       0-60.2693 64.5071 71.0000       0
GRID         818       0-58.4264 60.5549 71.0000       0
GRID         819       0-56.5835 56.6028 71.0000       0
GRID         820       0 3.37393 44.6050 111.839       0
GRID         821       0-69.4840 84.2679 70.5000       0
GRID         822       0-70.8832 85.3795 70.0000       0
GRID         823       0-72.2824 86.4911 70.5000       0
GRID         824       0-97.5056 60.6501 70.5000       0
GRID         825       0-94.3929 60.5590 70.0000       0
GRID         826       0-91.2803 60.4680 70.5000       0
GRID         827       0-100.790 64.9773 71.0000       0
GRID         828       0-104.075 69.3046 71.0000       0
GRID         829       0 4.02494 44.9086 114.447       0
GRID         830       0-107.359 73.6318 71.0000       0
GRID         831       0-5.70325 70.5780 86.8182       0
GRID         832       0-110.644 77.9590 71.0000       0
GRID         833       0-113.929 82.2862 71.0000       0
GRID         834       0-117.213 86.6134 71.0000       0
GRID         835       0-4.33309 65.3416 82.5192       0
GRID         836       0-120.498 90.9406 71.0000       0
GRID         837       0-117.312 93.3591 75.0000       0
GRID         838       0-114.027 89.0318 75.0000       0
GRID         839       0-110.742 84.7046 75.0000       0
GRID         840       0-29.2747 118.754 82.1140       0
GRID         841       0-107.458 80.3774 75.0000       0
GRID         842       0-104.173 76.0502 75.0000       0
GRID         843       0-100.889 71.7230 75.0000       0
GRID         844       0-97.6041 67.3958 75.0000       0
GRID         845       0-65.0442 46.3351 70.5000       0
GRID         846       0-21.9321 100.279 72.2742       0
GRID         847       0-69.3770 50.8089 70.5000       0
GRID         848       0-67.2106 48.5720 70.0000       0
GRID         849       0-61.8865 50.6394 75.0000       0
GRID         850       0-61.5235 46.6559 71.0000       0
GRID         851       0-71.0346 55.8649 71.0000       0
GRID         852       0-72.6922 60.9208 71.0000       0
GRID         853       0 28.3994-17.0756 99.4600       0
GRID         854       0-77.1351 62.8801 71.0000       0
GRID         855       0-81.5781 64.8394 71.0000       0
GRID         856       0-86.4292 62.6537 71.0000       0
GRID         857       0-21.0963 121.957 76.4090       0
GRID         858       0-89.6919 65.7900 75.0000       0
GRID         859       0-85.0643 68.5115 75.0000       0
GRID         860       0-80.0947 67.9749 75.0000       0
GRID         861       0-75.1250 67.4383 75.0000       0
GRID         862       0 22.3038-1.52717 107.255       0
GRID         863       0-71.3774 64.1307 75.0000       0
GRID         864       0-67.6298 60.8231 75.0000       0
GRID         865       0-66.5184 55.5708 75.0000       0
GRID         866       0-70.2839 80.1778 93.3333       0
GRID         867       0-67.9403 75.1519 93.3333       0
GRID         868       0-36.1260 102.140 67.3433       0
GRID         869       0-65.5967 70.1260 93.3333       0
GRID         870       0-63.2531 65.1001 93.3333       0
GRID         871       0-60.9094 60.0742 93.3333       0
GRID         872       0-12.5209 73.0135 73.5917       0
GRID         873       0-58.5658 55.0483 93.3333       0
GRID         874       0-8.92244 75.4531 78.5917       0
GRID         875       0-56.2222 50.0224 93.3333       0
GRID         876       0-72.2210 49.0587 80.0000       0
GRID         877       0-11.9609 78.5005 80.4099       0
GRID         878       0-74.1810 53.2618 80.0000       0
GRID         879       0-8.39111 80.6774 76.8182       0
GRID         880       0-76.1409 57.4649 80.0000       0
GRID         881       0 13.0487 80.0946 79.0000       0
GRID         882       0-78.1008 61.6681 80.0000       0
GRID         883       0-80.0608 65.8712 80.0000       0
GRID         884       0-82.0207 70.0743 80.0000       0
GRID         885       0-.755984 53.3455 102.069       0
GRID         886       0-83.9807 74.2774 80.0000       0
GRID         887       0-85.9406 78.4805 80.0000       0
GRID         888       0-87.9005 82.6836 80.0000       0
GRID         889       0 9.26562 47.3524 107.607       0
GRID         890       0-89.8605 86.8867 80.0000       0
GRID         891       0-55.8816 44.6596 70.5000       0
GRID         892       0-91.8204 91.0898 80.0000       0
GRID         893       0-61.5235 46.6559 70.0000       0
GRID         894       0-54.2505 47.4965 70.5000       0
GRID         895       0-56.5835 56.6028 70.0000       0
GRID         896       0-58.4264 60.5549 70.0000       0
GRID         897       0-60.2693 64.5071 70.0000       0
GRID         898       0-2.85380 23.8239 81.1611       0
GRID         899       0-62.1123 68.4593 70.0000       0
GRID         900       0-57.9636 95.2696 68.2755       0
GRID         901       0-63.9552 72.4114 70.0000       0
GRID         902       0-65.7981 76.3636 70.0000       0
GRID         903       0-67.6410 80.3158 70.0000       0
GRID         904       0-77.5719 87.9712 70.0000       0
GRID         905       0-82.8613 89.4514 70.0000       0
GRID         906       0-83.9612 81.7081 77.5000       0
GRID         907       0-87.9644 91.6259 70.0000       0
GRID         908       0-93.0675 93.8005 70.0000       0
GRID         909       0-97.8503 96.6255 70.0000       0
GRID         910       0-102.633 99.4505 70.0000       0
GRID         911       0-106.977 102.849 70.0000       0
GRID         912       0-77.1738 90.4415 73.1549       0
GRID         913       0-118.385 104.316 70.0000       0
GRID         914       0-119.495 103.094 70.0000       0
GRID         915       0-4.17397 117.029 79.0000       0
GRID         916       0-120.889 102.203 70.0000       0
GRID         917       0-120.498 90.9406 70.0000       0
GRID         918       0-117.213 86.6134 70.0000       0
GRID         919       0-22.5560 4.35045 97.1117       0
GRID         920       0-113.929 82.2862 70.0000       0
GRID         921       0-110.644 77.9590 70.0000       0
GRID         922       0-107.359 73.6318 70.0000       0
GRID         923       0-104.075 69.3046 70.0000       0
GRID         924       0-100.790 64.9773 70.0000       0
GRID         925       0-86.4292 62.6537 70.0000       0
GRID         926       0-81.5781 64.8394 70.0000       0
GRID         927       0-77.1351 62.8801 70.0000       0
GRID         928       0-72.6922 60.9208 70.0000       0
GRID         929       0-71.0346 55.8649 70.0000       0
GRID         930       0-67.1056 80.6951 76.5442       0
GRID         931       0-30.4420 122.172 70.9088       0
GRID         932       0-68.9485 84.6473 76.5442       0
GRID         933       0-31.7713 122.004 70.1005       0
GRID         934       0-26.2201 57.2153 65.0441       0
GRID         935       0-31.1494 121.007 69.7958       0
GRID         936       0-29.8202 121.175 70.6043       0
GRID         937       0-30.3420 60.2585 65.1331       0
GRID         938       0-28.1759 122.374 71.6043       0
GRID         939       0-27.9049 120.562 70.0000       0
GRID         940       0-26.2588 121.763 71.0000       0
GRID         941       0-17.0499 127.160 72.0000       0
GRID         942       0-24.1287 61.4189 65.3880       0
GRID         943       0-20.2604 125.663 72.0000       0
GRID         944       0-23.4709 124.166 72.0000       0
GRID         945       0-28.2506 64.4620 65.4770       0
GRID         946       0-22.6257 122.353 70.0000       0
GRID         947       0-19.4152 123.851 70.0000       0
GRID         948       0-23.7370 66.5667 65.9446       0
GRID         949       0-16.2047 125.348 70.0000       0
GRID         950       0-13.4168 127.751 71.0000       0
GRID         951       0-1.58547 122.278 72.0000       0
GRID         952       0-3.27390 127.328 72.0000       0
GRID         953       0-8.55667 127.993 72.0000       0
GRID         954       0-64.6780 87.3350 81.0681       0
GRID         955       0-8.76799 126.313 70.0000       0
GRID         956       0-67.4653 91.0004 83.4260       0
GRID         957       0-4.54177 125.781 70.0000       0
GRID         958       0-65.8797 86.7746 86.0442       0
GRID         959       0-3.19103 121.742 70.0000       0
GRID         960       0-.868655 117.465 71.0000       0
GRID         961       0-40.5112 64.0811 67.2582       0
GRID         962       0 11.9778 86.0980 72.0000       0
GRID         963       0 8.00445 88.9536 72.0000       0
GRID         964       0-38.2991 59.2541 67.2681       0
GRID         965       0 5.03343 93.2039 72.0000       0
GRID         966       0 2.06242 97.4542 72.0000       0
GRID         967       0 .716228 102.462 72.0000       0
GRID         968       0-70.5852 93.1341 86.2922       0
GRID         969       0-.629960 107.470 72.0000       0
GRID         970       0-.263496 112.350 72.0000       0
GRID         971       0-2.23117 112.497 70.0000       0
GRID         972       0-2.62207 107.293 70.0000       0
GRID         973       0-1.18613 101.951 70.0000       0
GRID         974       0 .249800 96.6090 70.0000       0
GRID         975       0 3.41888 92.0753 70.0000       0
GRID         976       0 34.6857-15.6345 77.2907       0
GRID         977       0 6.58797 87.5417 70.0000       0
GRID         978       0-67.9935 100.699 73.8730       0
GRID         979       0 10.8262 84.4956 70.0000       0
GRID         980       0 15.5078 82.3460 71.0000       0
GRID         981       0-68.3828 105.483 72.4648       0
GRID         982       0 18.6304 69.6898 72.0000       0
GRID         983       0 21.5170 74.1638 72.0000       0
GRID         984       0 18.7341 78.7031 72.0000       0
GRID         985       0-65.2679 98.2356 72.2900       0
GRID         986       0 17.2908 77.8182 70.0000       0
GRID         987       0 19.5171 74.1868 70.0000       0
GRID         988       0-65.6572 103.019 70.8818       0
GRID         989       0 17.2079 70.6076 70.0000       0
GRID         990       0-68.9996 88.9083 88.9105       0
GRID         991       0 15.3212 66.1221 71.0000       0
GRID         992       0-67.9869 86.8631 91.6667       0
GRID         993       0 6.11104 60.7239 72.0000       0
GRID         994       0 9.32197 62.2212 72.0000       0
GRID         995       0 12.5329 63.7185 72.0000       0
GRID         996       0 11.6877 65.5311 70.0000       0
GRID         997       0-69.0261 110.148 66.8669       0
GRID         998       0 8.47673 64.0338 70.0000       0
GRID         999       0-72.3558 108.596 70.2276       0
GRID        1000       0 5.26580 62.5365 70.0000       0
GRID        1001       0-66.9074 111.688 71.1606       0
GRID        1002       0 2.47748 60.1329 71.0000       0
GRID        1003       0-65.0532 107.036 69.1042       0
GRID        1004       0 1.71565 58.2719 71.6043       0
GRID        1005       0 .501711 59.6443 70.0000       0
GRID        1006       0-.260128 57.7833 70.6043       0
GRID        1007       0-69.5725 91.0889 94.2849       0
GRID        1008       0-.435337 55.6138 70.1498       0
GRID        1009       0-1.22665 56.0799 69.5455       0
GRID        1010       0 5.71884 58.8859 80.9223       0
GRID        1011       0 5.55501 59.9129 81.8806       0
GRID        1012       0-65.6433 81.8372 91.6667       0
GRID        1013       0 5.60263 61.5902 79.1665       0
GRID        1014       0-118.205 107.224 70.5000       0
GRID        1015       0 6.41344 60.8649 78.1041       0
GRID        1016       0 5.82699 62.7982 80.0625       0
GRID        1017       0-120.630 107.056 72.1238       0
GRID        1018       0 6.63780 62.0729 79.0000       0
GRID        1019       0-113.679 107.499 70.5000       0
GRID        1020       0 11.4021 63.1912 78.0000       0
GRID        1021       0 10.5569 65.0038 80.0000       0
GRID        1022       0 15.3212 66.1221 79.0000       0
GRID        1023       0-87.3047 48.4737 77.5006       0
GRID        1024       0 18.7341 78.7031 78.0000       0
GRID        1025       0 21.5170 74.1638 78.0000       0
GRID        1026       0-88.8978 47.2645 75.5006       0
GRID        1027       0 18.6304 69.6898 78.0000       0
GRID        1028       0 17.2079 70.6076 80.0000       0
GRID        1029       0-87.4847 46.1693 76.3333       0
GRID        1030       0 19.5171 74.1868 80.0000       0
GRID        1031       0 17.2908 77.8182 80.0000       0
GRID        1032       0 15.5078 82.3460 79.0000       0
GRID        1033       0-.263496 112.350 78.0000       0
GRID        1034       0-.629960 107.470 78.0000       0
GRID        1035       0 .716228 102.462 78.0000       0
GRID        1036       0 2.06242 97.4542 78.0000       0
GRID        1037       0-88.0110 46.3972 71.6667       0
GRID        1038       0 5.03343 93.2039 78.0000       0
GRID        1039       0 8.00445 88.9536 78.0000       0
GRID        1040       0 11.9778 86.0980 78.0000       0
GRID        1041       0 10.8262 84.4956 80.0000       0
GRID        1042       0 6.58797 87.5417 80.0000       0
GRID        1043       0 3.41888 92.0753 80.0000       0
GRID        1044       0 .249800 96.6090 80.0000       0
GRID        1045       0-1.18613 101.951 80.0000       0
GRID        1046       0-2.62207 107.293 80.0000       0
GRID        1047       0-2.23117 112.497 80.0000       0
GRID        1048       0-.868655 117.465 79.0000       0
GRID        1049       0-22.1134 63.1358 114.051       0
GRID        1050       0-8.55667 127.993 78.0000       0
GRID        1051       0-17.4159 65.1594 111.928       0
GRID        1052       0-3.27390 127.328 78.0000       0
GRID        1053       0-1.58547 122.278 78.0000       0
GRID        1054       0-26.4143 109.857 100.920       0
GRID        1055       0-3.19103 121.742 80.0000       0
GRID        1056       0-4.54177 125.781 80.0000       0
GRID        1057       0-8.76799 126.313 80.0000       0
GRID        1058       0-13.4168 127.751 79.0000       0
GRID        1059       0-18.1812 126.633 78.0000       0
GRID        1060       0-17.3359 124.820 80.0000       0
GRID        1061       0-22.1002 123.702 79.0000       0
GRID        1062       0-23.1693 124.307 78.1039       0
GRID        1063       0-13.7365 99.9323 72.8427       0
GRID        1064       0-22.0655 122.615 80.0624       0
GRID        1065       0-14.9965 96.9933 72.8427       0
GRID        1066       0-23.1354 123.219 79.1665       0
GRID        1067       0-70.2087 67.1566 78.0390       0
GRID        1068       0-24.9309 124.339 79.7249       0
GRID        1069       0-24.1727 123.589 81.4755       0
GRID        1070       0-30.6788 64.1641 114.847       0
GRID        1071       0-25.9685 124.710 82.0338       0
GRID        1072       0 .828670 54.9506 72.4536       0
GRID        1073       0-26.1652 66.2689 114.379       0
GRID        1074       0 3.05920 55.9907 75.8163       0
GRID        1075       0-26.5569 61.1210 114.936       0
GRID        1076       0 4.36521 56.5997 79.7263       0
GRID        1077       0 4.33328 59.8949 75.1041       0
GRID        1078       0-32.6171 121.609 69.3413       0
GRID        1079       0-30.6569 116.648 69.0909       0
GRID        1080       0-28.4065 111.822 69.0909       0
GRID        1081       0-43.5317 59.3620 110.456       0
GRID        1082       0-26.1561 106.996 69.0909       0
GRID        1083       0-23.9057 102.170 69.0909       0
GRID        1084       0-21.6553 97.3441 69.0909       0
GRID        1085       0-19.4049 92.5182 69.0909       0
GRID        1086       0-8.58059 76.8762 89.2972       0
GRID        1087       0-17.1546 87.6922 69.0909       0
GRID        1088       0-7.80660 74.5624 84.7209       0
GRID        1089       0-14.9042 82.8662 69.0909       0
GRID        1090       0-12.6538 78.0403 69.0909       0
GRID        1091       0-10.4034 73.2143 69.0909       0
GRID        1092       0-8.15302 68.3883 69.0909       0
GRID        1093       0-5.90263 63.5624 69.0909       0
GRID        1094       0-3.65225 58.7364 69.0909       0
GRID        1095       0-3.09895 62.6403 70.0000       0
GRID        1096       0-70.6423 109.395 117.177       0
GRID        1097       0-5.14645 67.0312 70.0000       0
GRID        1098       0-11.6107 96.3291 72.8427       0
GRID        1099       0-7.04879 71.1107 70.0000       0
GRID        1100       0-8.95112 75.1903 70.0000       0
GRID        1101       0-12.5303 92.3464 72.8427       0
GRID        1102       0-10.6207 78.7707 70.0000       0
GRID        1103       0-14.1922 94.5894 72.8427       0
GRID        1104       0-12.2902 82.3511 70.0000       0
GRID        1105       0-13.7077 85.3908 70.0000       0
GRID        1106       0-15.1251 88.4305 70.0000       0
GRID        1107       0-16.3144 90.9810 70.0000       0
GRID        1108       0-12.6167 96.7285 77.8427       0
GRID        1109       0-17.5037 93.5314 70.0000       0
GRID        1110       0-8.71761 96.7605 75.0000       0
GRID        1111       0-18.5046 95.6779 70.0000       0
GRID        1112       0-19.5055 97.8243 70.0000       0
GRID        1113       0-20.3579 99.6521 70.0000       0
GRID        1114       0-81.5826 65.0898 77.5000       0
GRID        1115       0-21.2102 101.480 70.0000       0
GRID        1116       0-21.9478 103.062 70.0000       0
GRID        1117       0-30.3605 69.2778 114.936       0
GRID        1118       0-22.6854 104.644 70.0000       0
GRID        1119       0-23.3355 106.038 70.0000       0
GRID        1120       0-23.9856 107.432 70.0000       0
GRID        1121       0-24.5694 108.684 70.0000       0
GRID        1122       0-83.5425 69.2929 77.5000       0
GRID        1123       0-25.1532 109.936 70.0000       0
GRID        1124       0-25.6874 111.081 70.0000       0
GRID        1125       0-26.2215 112.227 70.0000       0
GRID        1126       0-26.7194 113.294 70.0000       0
GRID        1127       0-49.7151 99.2051 65.2063       0
GRID        1128       0-27.2172 114.362 70.0000       0
GRID        1129       0-27.6897 115.375 70.0000       0
GRID        1130       0-28.1621 116.388 70.0000       0
GRID        1131       0-46.9473 95.3056 65.1421       0
GRID        1132       0-28.6185 117.367 70.0000       0
GRID        1133       0-29.0748 118.346 70.0000       0
GRID        1134       0-29.5233 119.307 70.0000       0
GRID        1135       0 3.42084 62.0346 83.6364       0
GRID        1136       0-33.6087 96.9155 67.3825       0
GRID        1137       0 1.17045 66.8606 83.6364       0
GRID        1138       0-29.5746 93.8315 68.6055       0
GRID        1139       0-1.07993 71.6866 83.6364       0
GRID        1140       0-3.33032 76.5125 83.6364       0
GRID        1141       0-5.58070 81.3385 83.6364       0
GRID        1142       0-7.83109 86.1645 83.6364       0
GRID        1143       0-10.0815 90.9904 83.6364       0
GRID        1144       0-41.4195 88.4364 114.927       0
GRID        1145       0-12.3319 95.8164 83.6364       0
GRID        1146       0-14.5822 100.642 83.6364       0
GRID        1147       0-16.8326 105.468 83.6364       0
GRID        1148       0-19.0830 110.294 83.6364       0
GRID        1149       0-21.3334 115.120 83.6364       0
GRID        1150       0-36.5459 82.2622 65.4780       0
GRID        1151       0-23.5838 119.946 83.6364       0
GRID        1152       0-25.8628 124.759 83.2312       0
GRID        1153       0-40.8259 82.7178 65.1334       0
GRID        1154       0-19.6853 118.523 80.0000       0
GRID        1155       0-17.6929 114.250 80.0000       0
GRID        1156       0-15.7006 109.978 80.0000       0
GRID        1157       0-13.7083 105.705 80.0000       0
GRID        1158       0 3.61247 82.4307 75.0000       0
GRID        1159       0-11.7159 101.433 80.0000       0
GRID        1160       0-9.72357 97.1600 80.0000       0
GRID        1161       0-7.73122 92.8874 80.0000       0
GRID        1162       0-5.73888 88.6148 80.0000       0
GRID        1163       0-3.74654 84.3422 80.0000       0
GRID        1164       0-1.75419 80.0696 80.0000       0
GRID        1165       0 .238149 75.7970 80.0000       0
GRID        1166       0 2.23049 71.5244 80.0000       0
GRID        1167       0 4.22284 67.2518 80.0000       0
GRID        1168       0-25.2497 123.337 75.1045       0
GRID        1169       0 17.0985 72.8385 71.0000       0
GRID        1170       0-28.6302 123.468 75.9253       0
GRID        1171       0 12.1914 76.2468 80.0000       0
GRID        1172       0 10.5784 67.7735 75.0000       0
GRID        1173       0 10.1462 76.9470 80.0000       0
GRID        1174       0 9.47245 74.9790 80.0000       0
GRID        1175       0 8.79873 73.0110 80.0000       0
GRID        1176       0 13.7893 69.2708 75.0000       0
GRID        1177       0 10.7394 72.2621 80.0000       0
GRID        1178       0 12.6800 71.5131 80.0000       0
GRID        1179       0 13.4583 73.5299 80.0000       0
GRID        1180       0 25.9173-18.3104 73.8485       0
GRID        1181       0-8.93954 121.562 80.0000       0
GRID        1182       0-10.9847 122.262 80.0000       0
GRID        1183       0-11.6585 120.294 80.0000       0
GRID        1184       0-12.3322 118.326 80.0000       0
GRID        1185       0-10.3915 117.577 80.0000       0
GRID        1186       0-8.45092 116.829 80.0000       0
GRID        1187       0-10.6243 92.4559 77.8427       0
GRID        1188       0-7.67263 118.845 80.0000       0
GRID        1189       0 13.4583 73.5299 70.0000       0
GRID        1190       0 12.6800 71.5131 70.0000       0
GRID        1191       0 17.0709-24.0041 79.9833       0
GRID        1192       0 10.7394 72.2621 70.0000       0
GRID        1193       0 18.0778-23.3355 76.5407       0
GRID        1194       0 8.79873 73.0110 70.0000       0
GRID        1195       0 9.47245 74.9790 70.0000       0
GRID        1196       0 10.1462 76.9470 70.0000       0
GRID        1197       0 12.1914 76.2468 70.0000       0
GRID        1198       0-16.5067 94.9143 72.8427       0
GRID        1199       0-7.67263 118.845 70.0000       0
GRID        1200       0-8.45092 116.829 70.0000       0
GRID        1201       0-10.3915 117.577 70.0000       0
GRID        1202       0-12.3322 118.326 70.0000       0
GRID        1203       0-11.6585 120.294 70.0000       0
GRID        1204       0-10.9847 122.262 70.0000       0
GRID        1205       0-8.93954 121.562 70.0000       0
GRID        1206       0-14.6090 101.001 77.8427       0
GRID        1207       0 15.7438 65.2157 75.0000       0
GRID        1208       0-13.8394 128.657 75.0000       0
GRID        1209       0 15.9512 83.2423 75.0000       0
GRID        1210       0-17.8111 96.5435 86.8182       0
GRID        1211       0 .102968 117.229 75.0000       0
GRID        1212       0-20.0615 101.369 86.8182       0
GRID        1213       0 33.2067-14.7271 107.322       0
GRID        1214       0-18.4587 98.7155 90.5552       0
GRID        1215       0 32.4633-7.94404 109.582       0
GRID        1216       0 31.9080-3.64871 105.793       0
GRID        1217       0 31.7739-2.11480 102.919       0
GRID        1218       0 32.7471-3.97269 106.230       0
GRID        1219       0 17.8768 74.8553 79.0000       0
GRID        1220       0 33.6325-5.87150 109.541       0
GRID        1221       0 17.0985 72.8385 79.0000       0
GRID        1222       0 35.2380-9.31441 109.541       0
GRID        1223       0 36.8434-12.7573 109.541       0
GRID        1224       0 37.7288-14.6561 106.230       0
GRID        1225       0 36.5329-17.5255 102.919       0
GRID        1226       0 33.2412-18.9717 103.534       0
GRID        1227       0-14.7815-29.9746 109.582       0
GRID        1228       0-1.75265 61.5796 84.7209       0
GRID        1229       0-10.0633-34.9042 107.322       0
GRID        1230       0-6.83389-37.6590 103.534       0
GRID        1231       0 .381528 59.4579 82.9652       0
GRID        1232       0-10.0576-39.2510 102.919       0
GRID        1233       0-13.0244-38.3227 106.230       0
GRID        1234       0-13.9098-36.4239 109.541       0
GRID        1235       0-45.5414 91.4795 114.838       0
GRID        1236       0-15.5153-32.9810 109.541       0
GRID        1237       0-17.1207-29.5381 109.541       0
GRID        1238       0-18.0062-27.6393 106.230       0
GRID        1239       0-18.8038-25.6996 102.919       0
GRID        1240       0-60.5463 78.0627 101.301       0
GRID        1241       0-17.7150-26.7883 105.793       0
GRID        1242       0-61.2456 75.5654 98.2047       0
GRID        1243       0 31.8258-1.99699 101.300       0
GRID        1244       0 31.7380-2.03792 101.300       0
GRID        1245       0-63.3518 80.3678 98.4966       0
GRID        1246       0-18.9274-25.6636 101.300       0
GRID        1247       0-18.8397-25.6227 101.300       0
GRID        1248       0 32.9774-19.0629 104.428       0
GRID        1249       0 33.0252-19.0840 103.678       0
GRID        1250       0 30.5874-11.5097 111.624       0
GRID        1251       0 33.2385-18.3794 105.823       0
GRID        1252       0 33.2921-17.8264 107.209       0
GRID        1253       0 32.3127-14.5509 109.228       0
GRID        1254       0 24.7546 7.77796 111.052       0
GRID        1255       0-94.5616 53.3735 73.0000       0
GRID        1256       0 27.6967 1.74571 110.105       0
GRID        1257       0 30.5097-7.93062 110.676       0
GRID        1258       0 21.9891 13.7754 111.052       0
GRID        1259       0-91.7007 49.6044 73.0000       0
GRID        1260       0 24.2713 11.1915 110.105       0
GRID        1261       0-21.8702-13.9635 111.052       0
GRID        1262       0-24.1745-11.3992 110.105       0
GRID        1263       0-24.6869-7.98998 111.052       0
GRID        1264       0-19.1404-20.0948 110.105       0
GRID        1265       0-10.8443-30.8296 111.624       0
GRID        1266       0-13.5360-28.4695 110.676       0
GRID        1267       0-84.5872 46.5949 71.6667       0
GRID        1268       0-6.59445-37.5156 104.428       0
GRID        1269       0-82.4656 43.9518 74.6667       0
GRID        1270       0-9.62346-34.1061 109.228       0
GRID        1271       0-7.74372-36.9619 107.209       0
GRID        1272       0-7.28576-37.2763 105.823       0
GRID        1273       0-6.60905-37.5658 103.678       0
GRID        1274       0 33.4008-18.8201 104.294       0
GRID        1275       0-94.5839 57.5377 70.5000       0
GRID        1276       0 32.0650-11.0109 110.871       0
GRID        1277       0-97.4834 56.4859 70.5000       0
GRID        1278       0 30.9080-4.86379 109.386       0
GRID        1279       0-97.4834 56.4859 73.5000       0
GRID        1280       0 29.3114-2.76509 106.512       0
GRID        1281       0 2.20096 44.0581 116.342       0
GRID        1282       0 30.3114-1.55001 102.919       0
GRID        1283       0-16.7228-24.2312 106.512       0
GRID        1284       0-16.1414-26.8033 109.386       0
GRID        1285       0-18.2964-24.2162 102.919       0
GRID        1286       0-12.1761-31.6408 110.871       0
GRID        1287       0 14.6960-21.9516 72.3496       0
GRID        1288       0-7.05263-37.6838 104.294       0
GRID        1289       0 33.2412-18.9717 76.4660       0
GRID        1290       0 36.5329-17.5255 77.0813       0
GRID        1291       0-90.1656 52.2428 77.5006       0
GRID        1292       0 37.7288-14.6561 73.7704       0
GRID        1293       0 36.8434-12.7573 70.4595       0
GRID        1294       0 35.2380-9.31441 70.4595       0
GRID        1295       0 33.6325-5.87150 70.4595       0
GRID        1296       0 32.7471-3.97269 73.7704       0
GRID        1297       0 31.7739-2.11480 77.0813       0
GRID        1298       0 31.9080-3.64871 74.2069       0
GRID        1299       0 32.4633-7.94404 70.4185       0
GRID        1300       0 33.2067-14.7271 72.6776       0
GRID        1301       0-17.7150-26.7883 74.2069       0
GRID        1302       0-18.8038-25.6996 77.0813       0
GRID        1303       0-18.0062-27.6393 73.7704       0
GRID        1304       0-17.1207-29.5381 70.4595       0
GRID        1305       0-15.5153-32.9810 70.4595       0
GRID        1306       0-13.9098-36.4239 70.4595       0
GRID        1307       0 17.8768 74.8553 71.0000       0
GRID        1308       0-13.0244-38.3227 73.7704       0
GRID        1309       0-10.0576-39.2510 77.0813       0
GRID        1310       0-6.83389-37.6590 76.4660       0
GRID        1311       0-22.7190 1.69616 101.485       0
GRID        1312       0-10.0633-34.9042 72.6776       0
GRID        1313       0-14.7815-29.9746 70.4185       0
GRID        1314       0 31.7380-2.03792 78.7001       0
GRID        1315       0 31.8258-1.99699 78.7001       0
GRID        1316       0-18.8397-25.6227 78.7001       0
GRID        1317       0-18.9274-25.6636 78.7001       0
GRID        1318       0 33.0252-19.0840 76.3218       0
GRID        1319       0 32.9774-19.0629 75.5718       0
GRID        1320       0-26.5126 11.2524 68.9477       0
GRID        1321       0 33.2385-18.3794 74.1768       0
GRID        1322       0 33.2921-17.8264 72.7914       0
GRID        1323       0 33.2238-17.1189 73.1647       0
GRID        1324       0 32.3127-14.5509 70.7721       0
GRID        1325       0 30.5874-11.5097 68.3764       0
GRID        1326       0 30.5097-7.93062 69.3240       0
GRID        1327       0 27.6967 1.74571 69.8953       0
GRID        1328       0-4.89361-32.5250 79.2366       0
GRID        1329       0 24.7546 7.77796 68.9477       0
GRID        1330       0 24.2713 11.1915 69.8953       0
GRID        1331       0 21.9891 13.7754 68.9477       0
GRID        1332       0-24.6869-7.98998 68.9477       0
GRID        1333       0-24.1745-11.3992 69.8953       0
GRID        1334       0-21.8702-13.9635 68.9477       0
GRID        1335       0 35.8905-15.4462 83.7500       0
GRID        1336       0-13.5360-28.4695 69.3240       0
GRID        1337       0-10.8443-30.8296 68.3764       0
GRID        1338       0 17.8768 74.8553 76.0000       0
GRID        1339       0-19.1404-20.0948 69.8953       0
GRID        1340       0-9.62346-34.1061 70.7721       0
GRID        1341       0-7.74372-36.9619 72.7914       0
GRID        1342       0-7.28576-37.2763 74.1768       0
GRID        1343       0-6.59445-37.5156 75.5718       0
GRID        1344       0 15.0939 79.3945 79.0000       0
GRID        1345       0-6.60905-37.5658 76.3218       0
GRID        1346       0 33.4008-18.8201 75.7065       0
GRID        1347       0 32.0650-11.0109 69.1286       0
GRID        1348       0 30.9080-4.86379 70.6139       0
GRID        1349       0 30.3114-1.55001 77.0813       0
GRID        1350       0 26.3931-6.23065 72.7500       0
GRID        1351       0 29.3114-2.76509 73.4883       0
GRID        1352       0 11.1205 82.2501 76.0000       0
GRID        1353       0-18.2964-24.2162 77.0813       0
GRID        1354       0-16.1414-26.8033 70.6139       0
GRID        1355       0-16.7228-24.2312 73.4883       0
GRID        1356       0-12.1761-31.6408 69.1286       0
GRID        1357       0-7.05263-37.6838 75.7065       0
GRID        1358       0 23.0586 14.4454 105.079       0
GRID        1359       0-55.2191 72.8551 105.608       0
GRID        1360       0 23.2819 14.5853 100.052       0
GRID        1361       0 23.5051 14.7251 95.0262       0
GRID        1362       0 25.2204 11.6291 90.0000       0
GRID        1363       0-57.3067 90.5099 110.919       0
GRID        1364       0 25.9586 8.15627 105.079       0
GRID        1365       0 26.2099 8.23523 100.052       0
GRID        1366       0 26.4612 8.31418 95.0262       0
GRID        1367       0-22.9339-14.6427 105.079       0
GRID        1368       0-23.1559-14.7844 100.052       0
GRID        1369       0-16.8930 8.55124 107.560       0
GRID        1370       0-23.3779-14.9262 95.0262       0
GRID        1371       0-25.1197-11.8449 90.0000       0
GRID        1372       0-25.8877-8.37859 105.079       0
GRID        1373       0-17.6709 69.9066 110.466       0
GRID        1374       0-26.1383-8.45970 100.052       0
GRID        1375       0-26.3889-8.54081 95.0262       0
GRID        1376       0 28.0317 4.19453 90.0000       0
GRID        1377       0 1.84341 35.3507 69.8248       0
GRID        1378       0 29.1438-.474183 96.4593       0
GRID        1379       0-18.3700-22.6302 96.4593       0
GRID        1380       0-21.2316-18.7773 90.0000       0
GRID        1381       0 38.7573-16.8617 96.4593       0
GRID        1382       0 37.0878-18.0138 90.0000       0
GRID        1383       0-10.0402-39.9899 90.0000       0
GRID        1384       0-11.9959-40.5284 96.4593       0
GRID        1385       0 30.4451-.693402 90.0000       0
GRID        1386       0 2.60109 52.7693 86.8182       0
GRID        1387       0 31.6646-1.65141 94.8406       0
GRID        1388       0-19.0386-23.7680 90.0000       0
GRID        1389       0-19.0886-25.3180 94.8406       0
GRID        1390       0 25.9586 8.15627 74.9215       0
GRID        1391       0-99.3174 70.9297 77.5000       0
GRID        1392       0 26.2099 8.23523 79.9477       0
GRID        1393       0-100.443 67.0006 77.5000       0
GRID        1394       0 26.4612 8.31418 84.9738       0
GRID        1395       0 23.0586 14.4454 74.9215       0
GRID        1396       0-32.2290 70.2276 65.0426       0
GRID        1397       0 23.2819 14.5853 79.9477       0
GRID        1398       0 23.5051 14.7251 84.9738       0
GRID        1399       0-27.9323 69.5756 65.3880       0
GRID        1400       0-25.8877-8.37859 74.9215       0
GRID        1401       0-36.1833 37.4675 108.323       0
GRID        1402       0-26.1383-8.45970 79.9477       0
GRID        1403       0-26.3889-8.54081 84.9738       0
GRID        1404       0-22.9339-14.6427 74.9215       0
GRID        1405       0-42.8866 78.6124 65.6864       0
GRID        1406       0-23.1559-14.7844 79.9477       0
GRID        1407       0-23.3779-14.9262 84.9738       0
GRID        1408       0-63.4254 77.9063 94.2849       0
GRID        1409       0 29.1438-.474183 83.5407       0
GRID        1410       0-16.3916 49.5891 65.8402       0
GRID        1411       0-18.3700-22.6302 83.5407       0
GRID        1412       0-17.8401 53.6127 65.9166       0
GRID        1413       0 38.7573-16.8617 83.5407       0
GRID        1414       0-11.9959-40.5284 83.5407       0
GRID        1415       0-20.5870 52.5980 65.2836       0
GRID        1416       0 31.6646-1.65141 85.1594       0
GRID        1417       0-22.0354 56.6216 65.3600       0
GRID        1418       0-19.0886-25.3180 85.1594       0
GRID        1419       0-56.3613 110.537 55.5533       0
GRID        1420       0-15.1618 62.8632 68.5919       0
GRID        1421       0-60.3179 108.692 56.1066       0
GRID        1422       0-19.1959 65.9472 67.3689       0
GRID        1423       0-64.4326 106.773 57.9888       0
GRID        1424       0-68.5474 104.855 59.8711       0
GRID        1425       0-72.2654 103.121 63.2292       0
GRID        1426       0-75.9833 101.387 66.5872       0
GRID        1427       0-15.3155 67.7567 70.3666       0
GRID        1428       0-78.6842 100.128 71.1782       0
GRID        1429       0-81.3851 98.8684 75.7692       0
GRID        1430       0-19.5877 60.7994 66.8123       0
GRID        1431       0-82.6599 98.2739 80.9684       0
GRID        1432       0-5.17676 102.315 79.0000       0
GRID        1433       0-83.9347 97.6795 86.1675       0
GRID        1434       0-83.7721 97.7553 91.2270       0
GRID        1435       0-17.6096 58.6854 67.1396       0
GRID        1436       0-83.6096 97.8311 96.2864       0
GRID        1437       0-82.3359 98.4250 100.646       0
GRID        1438       0-81.0623 99.0189 105.005       0
GRID        1439       0-25.7198 76.4743 67.1759       0
GRID        1440       0-78.9841 99.9880 108.618       0
GRID        1441       0-25.9503 71.4016 65.9529       0
GRID        1442       0-76.9058 100.957 112.230       0
GRID        1443       0-73.7434 102.432 115.457       0
GRID        1444       0-34.0626 80.1565 65.5991       0
GRID        1445       0-70.5810 103.906 118.684       0
GRID        1446       0-66.3667 105.872 120.995       0
GRID        1447       0-62.1524 107.837 123.306       0
GRID        1448       0-57.2786 110.109 124.153       0
GRID        1449       0-52.4047 112.382 125.000       0
GRID        1450       0-47.5308 114.655 124.153       0
GRID        1451       0-24.0202 52.3855 65.0456       0
GRID        1452       0-42.6569 116.928 123.306       0
GRID        1453       0-64.6489 112.189 64.1524       0
GRID        1454       0-38.4426 118.893 120.995       0
GRID        1455       0-34.2284 120.858 118.684       0
GRID        1456       0-30.1456 74.4105 65.3963       0
GRID        1457       0-31.0659 122.333 115.457       0
GRID        1458       0-27.9035 123.807 112.230       0
GRID        1459       0-25.8253 124.776 108.618       0
GRID        1460       0-23.7470 125.745 105.005       0
GRID        1461       0-22.4734 126.339 100.646       0
GRID        1462       0-57.7589 74.3972 103.659       0
GRID        1463       0-21.1997 126.933 96.2864       0
GRID        1464       0-58.3655 79.0796 105.575       0
GRID        1465       0-21.0372 127.009 91.2270       0
GRID        1466       0-20.8746 127.085 86.1675       0
GRID        1467       0-22.1495 126.490 80.9684       0
GRID        1468       0-23.4243 125.896 75.7692       0
GRID        1469       0-45.4276 100.257 65.3871       0
GRID        1470       0-26.1251 124.637 71.1782       0
GRID        1471       0-28.8260 123.377 66.5872       0
GRID        1472       0-32.5440 121.643 63.2292       0
GRID        1473       0-36.2619 119.910 59.8711       0
GRID        1474       0-40.3767 117.991 57.9888       0
GRID        1475       0-35.8955 107.213 68.5663       0
GRID        1476       0-44.4915 116.072 56.1066       0
GRID        1477       0-40.6834 107.435 67.0777       0
GRID        1478       0-48.4481 114.227 55.5533       0
GRID        1479       0-25.5860 124.888 88.2397       0
GRID        1480       0 4.24168 45.0097 84.9477       0
GRID        1481       0-25.3378 125.004 92.8430       0
GRID        1482       0 2.84853 49.8769 82.3978       0
GRID        1483       0-26.5642 124.432 97.7936       0
GRID        1484       0-64.5359 94.7999 73.1071       0
GRID        1485       0-27.7907 123.860 102.744       0
GRID        1486       0-61.1216 91.4268 71.6989       0
GRID        1487       0-30.6394 122.531 107.147       0
GRID        1488       0-33.4882 121.203 111.549       0
GRID        1489       0 12.1103 64.6248 76.0000       0
GRID        1490       0-37.5181 119.324 114.527       0
GRID        1491       0-41.5480 117.445 117.505       0
GRID        1492       0-45.9269 115.403 118.708       0
GRID        1493       0-50.3058 113.361 119.910       0
GRID        1494       0-54.3538 111.473 119.586       0
GRID        1495       0-58.4018 109.586 119.261       0
GRID        1496       0-58.5205 81.8998 73.1071       0
GRID        1497       0-62.4396 107.703 117.465       0
GRID        1498       0-61.7175 85.3742 75.0239       0
GRID        1499       0-66.4774 105.820 115.669       0
GRID        1500       0-70.0594 104.150 112.201       0
GRID        1501       0-73.6414 102.479 108.733       0
GRID        1502       0-58.9098 86.6835 71.6989       0
GRID        1503       0-75.9676 101.395 103.950       0
GRID        1504       0-.808273 56.1447 80.8109       0
GRID        1505       0-78.2938 100.310 99.1658       0
GRID        1506       0 .545354 58.4310 82.0068       0
GRID        1507       0-78.9319 100.012 93.9551       0
GRID        1508       0-1.78405 60.2999 80.6078       0
GRID        1509       0-79.5701 99.7147 88.7445       0
GRID        1510       0-54.3146 80.9226 70.2834       0
GRID        1511       0-78.6937 100.123 84.0392       0
GRID        1512       0-77.8174 100.532 79.3339       0
GRID        1513       0-75.8243 101.461 75.4328       0
GRID        1514       0-73.8312 102.391 71.5317       0
GRID        1515       0-70.5015 103.943 68.1711       0
GRID        1516       0 11.2690 48.2865 79.5814       0
GRID        1517       0-67.1719 105.496 64.8105       0
GRID        1518       0-62.6948 107.584 62.7521       0
GRID        1519       0-62.3245 71.1819 75.2252       0
GRID        1520       0-58.2178 109.671 60.6937       0
GRID        1521       0-59.5669 74.8467 75.5239       0
GRID        1522       0-53.3181 111.956 60.5089       0
GRID        1523       0-62.3543 78.5121 77.8818       0
GRID        1524       0-48.4185 114.241 60.3242       0
GRID        1525       0-61.9334 73.9911 70.5000       0
GRID        1526       0-44.0018 116.300 61.9340       0
GRID        1527       0-39.5852 118.360 63.5439       0
GRID        1528       0-64.1452 78.7344 70.5000       0
GRID        1529       0-36.2462 119.917 66.3174       0
GRID        1530       0-60.1735 79.5291 73.6071       0
GRID        1531       0-14.6386 41.7225 55.5533       0
GRID        1532       0-10.6820 43.5675 56.1066       0
GRID        1533       0-6.56723 45.4863 57.9888       0
GRID        1534       0-2.45245 47.4050 59.8711       0
GRID        1535       0 1.26549 49.1387 63.2292       0
GRID        1536       0 4.98344 50.8724 66.5872       0
GRID        1537       0 1.72086 52.3588 82.5192       0
GRID        1538       0 7.68431 52.1319 71.1782       0
GRID        1539       0 10.3852 53.3913 75.7692       0
GRID        1540       0 11.6600 53.9858 80.9684       0
GRID        1541       0 12.9348 54.5802 86.1675       0
GRID        1542       0-122.858 106.224 72.1238       0
GRID        1543       0 12.7723 54.5044 91.2270       0
GRID        1544       0 12.6097 54.4286 96.2864       0
GRID        1545       0 11.3361 53.8347 100.646       0
GRID        1546       0 10.0624 53.2408 105.005       0
GRID        1547       0-114.102 112.117 73.0000       0
GRID        1548       0 7.98420 52.2717 108.618       0
GRID        1549       0 5.90595 51.3026 112.230       0
GRID        1550       0 2.74352 49.8280 115.457       0
GRID        1551       0-.418906 48.3533 118.684       0
GRID        1552       0-63.9294 90.1175 75.0239       0
GRID        1553       0-4.63317 46.3881 120.995       0
GRID        1554       0-8.84743 44.4230 123.306       0
GRID        1555       0-13.7213 42.1503 124.153       0
GRID        1556       0-66.2206 90.5396 77.6788       0
GRID        1557       0-18.5952 39.8775 125.000       0
GRID        1558       0-23.4691 37.6048 124.153       0
GRID        1559       0-36.8898 25.8298 82.3294       0
GRID        1560       0-28.3430 35.3321 123.306       0
GRID        1561       0-32.5572 33.3669 120.995       0
GRID        1562       0 34.0506-16.0630 79.5798       0
GRID        1563       0-36.7715 31.4018 118.684       0
GRID        1564       0-39.9339 29.9271 115.457       0
GRID        1565       0-48.9010 49.6559 98.7651       0
GRID        1566       0-43.0964 28.4525 112.230       0
GRID        1567       0-45.1746 27.4834 108.618       0
GRID        1568       0-47.2529 26.5143 105.005       0
GRID        1569       0-48.5265 25.9204 100.646       0
GRID        1570       0-49.8001 25.3265 96.2864       0
GRID        1571       0-49.9627 25.2506 91.2270       0
GRID        1572       0-32.1338 127.352 68.5981       0
GRID        1573       0-50.1252 25.1748 86.1675       0
GRID        1574       0-48.8504 25.7693 80.9684       0
GRID        1575       0-47.5756 26.3638 75.7692       0
GRID        1576       0-44.8747 27.6232 71.1782       0
GRID        1577       0-42.1739 28.8826 66.5872       0
GRID        1578       0-38.4559 30.6163 63.2292       0
GRID        1579       0-34.7380 32.3501 59.8711       0
GRID        1580       0-30.6232 34.2688 57.9888       0
GRID        1581       0 7.82208 70.0001 75.0000       0
GRID        1582       0-26.5084 36.1876 56.1066       0
GRID        1583       0-22.5518 38.0326 55.5533       0
GRID        1584       0-14.6457 41.7192 60.6470       0
GRID        1585       0-10.6962 43.5609 61.2939       0
GRID        1586       0-25.3819 130.500 94.5647       0
GRID        1587       0-6.65817 45.4439 63.5092       0
GRID        1588       0-2.62015 47.3268 65.7244       0
GRID        1589       0 .731170 48.8896 69.5873       0
GRID        1590       0 4.08249 50.4523 73.4502       0
GRID        1591       0 6.00452 51.3486 78.4218       0
GRID        1592       0 .028105 61.2752 72.7051       0
GRID        1593       0 7.92656 52.2448 83.3935       0
GRID        1594       0 1.58126 62.6701 72.7051       0
GRID        1595       0 8.15997 52.3537 88.5157       0
GRID        1596       0 8.39339 52.4625 93.6379       0
GRID        1597       0 7.25589 51.9321 98.0726       0
GRID        1598       0 6.11839 51.4017 102.507       0
GRID        1599       0-26.6112 115.581 72.5271       0
GRID        1600       0 4.02271 50.4245 106.093       0
GRID        1601       0 1.92703 49.4472 109.679       0
GRID        1602       0-5.39819 46.0314 69.6793       0
GRID        1603       0-1.41576 47.8884 112.752       0
GRID        1604       0-6.47517 40.0123 69.8171       0
GRID        1605       0-4.75856 46.3297 115.825       0
GRID        1606       0-1.96217 38.1859 68.8248       0
GRID        1607       0-9.21872 44.2499 117.665       0
GRID        1608       0-.885192 44.2049 68.6870       0
GRID        1609       0-13.6789 42.1701 119.505       0
GRID        1610       0-18.5952 39.8775 119.505       0
GRID        1611       0-23.5115 37.5850 119.505       0
GRID        1612       0-27.9717 35.5052 117.665       0
GRID        1613       0-32.4318 33.4254 115.825       0
GRID        1614       0-30.6234 117.044 72.0977       0
GRID        1615       0-35.7746 31.8666 112.752       0
GRID        1616       0-28.3749 25.2291 70.2459       0
GRID        1617       0-39.1174 30.3079 109.679       0
GRID        1618       0-41.2131 29.3306 106.093       0
GRID        1619       0-43.3088 28.3534 102.507       0
GRID        1620       0-44.4463 27.8230 98.0726       0
GRID        1621       0-6.37197 50.5740 109.495       0
GRID        1622       0-45.5838 27.2926 93.6379       0
GRID        1623       0-45.3504 27.4014 88.5157       0
GRID        1624       0-14.9616 46.5371 114.159       0
GRID        1625       0-45.1170 27.5102 83.3935       0
GRID        1626       0-10.5015 48.6169 112.318       0
GRID        1627       0-43.1949 28.4065 78.4218       0
GRID        1628       0-41.2729 29.3028 73.4502       0
GRID        1629       0-37.9216 30.8655 69.5873       0
GRID        1630       0-34.5703 32.4283 65.7244       0
GRID        1631       0-30.5322 34.3112 63.5092       0
GRID        1632       0-12.8850 57.5397 68.4939       0
GRID        1633       0-26.4942 36.1942 61.2939       0
GRID        1634       0-22.5447 38.0359 60.6470       0
GRID        1635       0-10.4124 32.6595 55.5533       0
GRID        1636       0-6.45583 34.5044 56.1066       0
GRID        1637       0-2.34105 36.4232 57.9888       0
GRID        1638       0 2.46612 45.7677 72.5499       0
GRID        1639       0 1.77373 38.3420 59.8711       0
GRID        1640       0 5.49168 40.0757 63.2292       0
GRID        1641       0 9.20963 41.8094 66.5872       0
GRID        1642       0 11.9105 43.0688 71.1782       0
GRID        1643       0 14.6114 44.3282 75.7692       0
GRID        1644       0 15.8862 44.9227 80.9684       0
GRID        1645       0 17.1610 45.5172 86.1675       0
GRID        1646       0 16.9985 45.4414 91.2270       0
GRID        1647       0 1.10034 43.5448 65.8622       0
GRID        1648       0 16.8359 45.3656 96.2864       0
GRID        1649       0 15.5623 44.7717 100.646       0
GRID        1650       0 14.2886 44.1777 105.005       0
GRID        1651       0 12.2104 43.2086 108.618       0
GRID        1652       0 10.1321 42.2395 112.230       0
GRID        1653       0-118.781 84.5437 70.5000       0
GRID        1654       0 6.96971 40.7649 115.457       0
GRID        1655       0 3.80728 39.2902 118.684       0
GRID        1656       0-67.9825 64.2157 80.1029       0
GRID        1657       0-.406986 37.3251 120.995       0
GRID        1658       0-4.62125 35.3599 123.306       0
GRID        1659       0-9.49513 33.0872 124.153       0
GRID        1660       0-14.3690 30.8145 125.000       0
GRID        1661       0-19.2429 28.5417 124.153       0
GRID        1662       0-24.1168 26.2690 123.306       0
GRID        1663       0-100.175 96.1255 77.5000       0
GRID        1664       0-28.3311 24.3039 120.995       0
GRID        1665       0-32.5453 22.3387 118.684       0
GRID        1666       0-101.751 92.8156 77.5000       0
GRID        1667       0-35.7077 20.8641 115.457       0
GRID        1668       0-38.8702 19.3894 112.230       0
GRID        1669       0-40.9484 18.4203 108.618       0
GRID        1670       0 16.5160-11.4323 99.0150       0
GRID        1671       0-43.0267 17.4512 105.005       0
GRID        1672       0-111.253 104.207 77.5000       0
GRID        1673       0-44.3003 16.8573 100.646       0
GRID        1674       0-107.650 101.312 77.5000       0
GRID        1675       0-45.5739 16.2634 96.2864       0
GRID        1676       0-45.7365 16.1876 91.2270       0
GRID        1677       0-45.8991 16.1118 86.1675       0
GRID        1678       0-44.6242 16.7062 80.9684       0
GRID        1679       0-43.3494 17.3007 75.7692       0
GRID        1680       0-40.6485 18.5601 71.1782       0
GRID        1681       0-37.9477 19.8196 66.5872       0
GRID        1682       0-34.2297 21.5533 63.2292       0
GRID        1683       0-30.5118 23.2870 59.8711       0
GRID        1684       0-26.3970 25.2057 57.9888       0
GRID        1685       0-22.2822 27.1245 56.1066       0
GRID        1686       0 18.1606-22.0864 88.0205       0
GRID        1687       0-18.3256 28.9695 55.5533       0
GRID        1688       0-52.6743 123.290 55.5533       0
GRID        1689       0-48.7177 125.135 56.1066       0
GRID        1690       0-23.3230 52.6953 114.960       0
GRID        1691       0-44.6029 127.054 57.9888       0
GRID        1692       0-40.4881 128.973 59.8711       0
GRID        1693       0-36.7701 130.706 63.2292       0
GRID        1694       0-33.0522 132.440 66.5872       0
GRID        1695       0-30.3513 133.700 71.1782       0
GRID        1696       0-77.0203 106.421 69.0594       0
GRID        1697       0-27.6505 134.959 75.7692       0
GRID        1698       0-26.3756 135.553 80.9684       0
GRID        1699       0-25.1008 136.148 86.1675       0
GRID        1700       0-97.5020 74.9182 77.5000       0
GRID        1701       0-25.2634 136.072 91.2270       0
GRID        1702       0-95.2605 79.3625 77.5000       0
GRID        1703       0-25.4259 135.996 96.2864       0
GRID        1704       0-99.5247 79.2235 77.5000       0
GRID        1705       0-26.6996 135.402 100.646       0
GRID        1706       0-27.9732 134.809 105.005       0
GRID        1707       0-101.766 74.7793 77.5000       0
GRID        1708       0-30.0514 133.839 108.618       0
GRID        1709       0-32.1297 132.870 112.230       0
GRID        1710       0-35.2921 131.396 115.457       0
GRID        1711       0-38.4545 129.921 118.684       0
GRID        1712       0-42.6688 127.956 120.995       0
GRID        1713       0-46.8831 125.991 123.306       0
GRID        1714       0-51.7570 123.718 124.153       0
GRID        1715       0-105.051 79.1065 77.5000       0
GRID        1716       0-56.6308 121.445 125.000       0
GRID        1717       0-103.150 83.2468 77.5000       0
GRID        1718       0-61.5047 119.173 124.153       0
GRID        1719       0-75.7369 52.2886 72.5007       0
GRID        1720       0-66.3786 116.900 123.306       0
GRID        1721       0-70.5929 114.935 120.995       0
GRID        1722       0-74.8071 112.969 118.684       0
GRID        1723       0-77.9696 111.495 115.457       0
GRID        1724       0-81.1320 110.020 112.230       0
GRID        1725       0-97.6241 83.3638 77.5000       0
GRID        1726       0-83.2102 109.051 108.618       0
GRID        1727       0-85.2885 108.082 105.005       0
GRID        1728       0-86.5621 107.488 100.646       0
GRID        1729       0 32.8281-4.37560 102.709       0
GRID        1730       0-87.8358 106.894 96.2864       0
GRID        1731       0-87.9983 106.818 91.2270       0
GRID        1732       0-88.1609 106.743 86.1675       0
GRID        1733       0-86.8861 107.337 80.9684       0
GRID        1734       0-85.6112 107.931 75.7692       0
GRID        1735       0-95.3025 71.3058 77.5000       0
GRID        1736       0-82.9104 109.191 71.1782       0
GRID        1737       0-80.2095 110.450 66.5872       0
GRID        1738       0-76.4915 112.184 63.2292       0
GRID        1739       0-69.5992 88.5414 70.5000       0
GRID        1740       0-72.7736 113.918 59.8711       0
GRID        1741       0-68.6588 115.837 57.9888       0
GRID        1742       0-74.5592 89.6331 70.5000       0
GRID        1743       0-64.5440 117.755 56.1066       0
GRID        1744       0-60.5874 119.600 55.5533       0
GRID        1745       0 10.1571 34.5434 110.105       0
GRID        1746       0 12.6928 30.4958 110.105       0
GRID        1747       0 15.2284 26.4483 110.105       0
GRID        1748       0 17.7641 22.4007 110.105       0
GRID        1749       0 20.2998 18.3532 110.105       0
GRID        1750       0 6.64377 38.2706 111.052       0
GRID        1751       0 15.0939 79.3945 76.0000       0
GRID        1752       0-27.1078-3.75333 110.105       0
GRID        1753       0-28.5785 .790815 110.105       0
GRID        1754       0-30.0492 5.33496 110.105       0
GRID        1755       0-31.5199 9.87911 110.105       0
GRID        1756       0-32.9907 14.4233 110.105       0
GRID        1757       0-33.5875 19.5104 111.052       0
GRID        1758       0 6.64377 38.2706 68.9477       0
GRID        1759       0 10.1571 34.5434 69.8953       0
GRID        1760       0 12.6928 30.4958 69.8953       0
GRID        1761       0 15.2284 26.4483 69.8953       0
GRID        1762       0 17.7641 22.4007 69.8953       0
GRID        1763       0 20.2998 18.3532 69.8953       0
GRID        1764       0-33.5875 19.5104 68.9477       0
GRID        1765       0-27.1078-3.75333 69.8953       0
GRID        1766       0-28.5785 .790815 69.8953       0
GRID        1767       0-30.0492 5.33496 69.8953       0
GRID        1768       0-31.5199 9.87911 69.8953       0
GRID        1769       0-32.9907 14.4233 69.8953       0
GRID        1770       0 21.2042 18.8941 90.0000       0
GRID        1771       0 18.6801 22.9232 90.0000       0
GRID        1772       0-27.4799 83.8629 67.4032       0
GRID        1773       0 16.1560 26.9523 90.0000       0
GRID        1774       0 13.6319 30.9814 90.0000       0
GRID        1775       0-29.7538 79.5584 65.9529       0
GRID        1776       0 11.1078 35.0105 90.0000       0
GRID        1777       0-32.0323 84.3670 65.9456       0
GRID        1778       0 8.34314 38.9275 95.0262       0
GRID        1779       0 8.10259 38.8153 100.052       0
GRID        1780       0 7.86203 38.7031 105.079       0
GRID        1781       0-33.9596 13.9953 90.0000       0
GRID        1782       0-32.4956 9.47183 90.0000       0
GRID        1783       0-5.44404 61.0360 75.7010       0
GRID        1784       0-31.0316 4.94839 90.0000       0
GRID        1785       0-29.5675 .424955 90.0000       0
GRID        1786       0-28.1035-4.09849 90.0000       0
GRID        1787       0-34.7019 18.8552 105.079       0
GRID        1788       0-34.9425 18.7431 100.052       0
GRID        1789       0 11.4771 48.3836 99.3968       0
GRID        1790       0-35.1831 18.6309 95.0262       0
GRID        1791       0 8.34314 38.9275 84.9738       0
GRID        1792       0 2.03591 66.3940 72.7051       0
GRID        1793       0 8.10259 38.8153 79.9477       0
GRID        1794       0 7.86203 38.7031 74.9215       0
GRID        1795       0-34.7019 18.8552 74.9215       0
GRID        1796       0-34.9425 18.7431 79.9477       0
GRID        1797       0 5.21481 63.2611 73.7051       0
GRID        1798       0-35.1831 18.6309 84.9738       0
GRID        1799       0 4.79219 64.1674 72.7051       0
GRID        1800       0-35.3828 21.0156 67.8953       0
GRID        1801       0-7.86963 63.6925 75.2465       0
GRID        1802       0 .023363 37.5257 66.0000       0
GRID        1803       0-4.77410 35.2887 66.0000       0
GRID        1804       0-9.57156 33.0516 66.0000       0
GRID        1805       0-14.3690 30.8145 66.0000       0
GRID        1806       0-19.1665 28.5774 66.0000       0
GRID        1807       0-23.9639 26.3403 66.0000       0
GRID        1808       0-28.7614 24.1032 66.0000       0
GRID        1809       0-3.45032 73.5504 75.0000       0
GRID        1810       0 6.64481 40.6134 67.8953       0
GRID        1811       0 9.19422 41.8022 84.9477       0
GRID        1812       0 8.95241 41.6894 79.8953       0
GRID        1813       0 11.0010 66.8672 76.0000       0
GRID        1814       0 8.71060 41.5767 74.8430       0
GRID        1815       0 6.89383 67.9071 77.7051       0
GRID        1816       0 8.71060 41.5767 105.157       0
GRID        1817       0 8.00313 65.6647 77.7051       0
GRID        1818       0 8.95241 41.6894 100.105       0
GRID        1819       0 9.19422 41.8022 95.0523       0
GRID        1820       0 6.64481 40.6134 112.105       0
GRID        1821       0-28.7614 24.1032 114.000       0
GRID        1822       0-10.8430 62.3060 71.3625       0
GRID        1823       0-23.9639 26.3403 114.000       0
GRID        1824       0-19.1665 28.5774 114.000       0
GRID        1825       0-14.3690 30.8145 114.000       0
GRID        1826       0-9.57156 33.0516 114.000       0
GRID        1827       0-4.77410 35.2887 114.000       0
GRID        1828       0 .023363 37.5257 114.000       0
GRID        1829       0-35.3828 21.0156 112.105       0
GRID        1830       0 4.08403 62.7338 76.7051       0
GRID        1831       0-37.9323 19.8267 95.0523       0
GRID        1832       0-37.6905 19.9395 100.105       0
GRID        1833       0-37.4486 20.0523 105.157       0
GRID        1834       0-68.3650 43.5222 70.5000       0
GRID        1835       0-37.4486 20.0523 74.8430       0
GRID        1836       0-37.6905 19.9395 79.8953       0
GRID        1837       0-37.9323 19.8267 84.9477       0
GRID        1838       0-35.8341 19.5662 110.157       0
GRID        1839       0-36.7988 19.1164 90.0000       0
GRID        1840       0-33.1362 20.9598 113.000       0
GRID        1841       0 5.24344 38.8565 113.000       0
GRID        1842       0 8.04513 40.0274 110.157       0
GRID        1843       0 33.4411-14.7558 81.0787       0
GRID        1844       0 9.00987 40.4773 90.0000       0
GRID        1845       0 32.7906-13.3609 84.6428       0
GRID        1846       0 8.04513 40.0274 69.8430       0
GRID        1847       0 5.24344 38.8565 67.0000       0
GRID        1848       0 19.2366-15.0775 72.7500       0
GRID        1849       0-33.1362 20.9598 67.0000       0
GRID        1850       0-35.8341 19.5662 69.8430       0
GRID        1851       0-80.6485 39.8927 73.0000       0
GRID        1852       0-86.1939 42.3381 70.0000       0
GRID        1853       0 17.3004 11.8051 106.921       0
GRID        1854       0-91.7393 44.7835 73.0000       0
GRID        1855       0-134.653 101.319 70.0000       0
GRID        1856       0-131.792 97.5503 70.0000       0
GRID        1857       0-128.931 93.7812 70.0000       0
GRID        1858       0-126.070 90.0122 70.0000       0
GRID        1859       0-123.209 86.2431 70.0000       0
GRID        1860       0-120.348 82.4741 70.0000       0
GRID        1861       0-98.7512 61.4641 75.5000       0
GRID        1862       0-117.488 78.7050 70.0000       0
GRID        1863       0-114.627 74.9360 70.0000       0
GRID        1864       0-111.766 71.1669 70.0000       0
GRID        1865       0-108.905 67.3979 70.0000       0
GRID        1866       0-106.044 63.6288 70.0000       0
GRID        1867       0-103.183 59.8597 70.0000       0
GRID        1868       0-100.322 56.0907 70.0000       0
GRID        1869       0-19.8880 33.7578 111.267       0
GRID        1870       0-97.4611 52.3216 70.0000       0
GRID        1871       0-19.1277 49.6864 114.404       0
GRID        1872       0-94.6002 48.5526 70.0000       0
GRID        1873       0-137.514 105.088 73.0000       0
GRID        1874       0-121.856 122.699 70.0000       0
GRID        1875       0-125.999 125.048 70.0000       0
GRID        1876       0-130.593 123.797 70.0000       0
GRID        1877       0-135.188 122.546 70.0000       0
GRID        1878       0-137.568 118.421 70.0000       0
GRID        1879       0-139.948 114.297 70.0000       0
GRID        1880       0-138.731 109.692 70.0000       0
GRID        1881       0-117.714 120.350 73.0000       0
GRID        1882       0-72.3590 57.4426 75.0008       0
GRID        1883       0-69.2071 91.0138 72.6549       0
GRID        1884       0-71.4983 91.4358 75.3098       0
GRID        1885       0-73.1239 91.8203 78.4191       0
GRID        1886       0 16.4614-22.6969 81.4822       0
GRID        1887       0-47.0095 47.9023 70.0000       0
GRID        1888       0-49.2213 52.6456 70.0000       0
GRID        1889       0-51.4331 57.3889 70.0000       0
GRID        1890       0-53.6450 62.1321 70.0000       0
GRID        1891       0-55.8568 66.8754 70.0000       0
GRID        1892       0-92.9686 54.5827 75.0000       0
GRID        1893       0-58.0686 71.6186 70.0000       0
GRID        1894       0-60.2804 76.3619 70.0000       0
GRID        1895       0-10.9010 37.9485 111.963       0
GRID        1896       0-62.4922 81.1052 70.0000       0
GRID        1897       0-15.6985 35.7114 111.963       0
GRID        1898       0-64.7041 85.8484 70.0000       0
GRID        1899       0-14.9094 12.9242 107.560       0
GRID        1900       0-51.1661 42.5788 81.2913       0
GRID        1901       0-49.8162 42.7018 77.1386       0
GRID        1902       0-47.3069 42.9305 73.5693       0
GRID        1903       0-76.1672 40.3010 70.0000       0
GRID        1904       0-71.6858 40.7093 70.0000       0
GRID        1905       0-67.2044 41.1176 70.0000       0
GRID        1906       0-62.7231 41.5259 70.0000       0
GRID        1907       0-58.2417 41.9342 70.0000       0
GRID        1908       0-53.7604 42.3425 70.0000       0
GRID        1909       0-13.3373-27.2009 85.2489       0
GRID        1910       0-49.2790 42.7508 70.0000       0
GRID        1911       0-11.6593-26.1086 90.1309       0
GRID        1912       0-71.8759 91.6834 70.0000       0
GRID        1913       0-76.8360 92.7751 70.0000       0
GRID        1914       0-81.6461 94.4988 70.0000       0
GRID        1915       0-86.4562 96.2225 70.0000       0
GRID        1916       0-90.9981 98.5398 70.0000       0
GRID        1917       0-95.5401 100.857 70.0000       0
GRID        1918       0-99.7095 103.702 70.0000       0
GRID        1919       0-103.879 106.546 70.0000       0
GRID        1920       0-107.593 109.829 70.0000       0
GRID        1921       0-111.308 113.112 70.0000       0
GRID        1922       0-114.511 116.731 70.0000       0
GRID        1923       0-77.4715 50.6179 80.0000       0
GRID        1924       0-21.7381-.479273 106.512       0
GRID        1925       0-78.1603 48.8947 80.0000       0
GRID        1926       0-80.0676 48.1197 80.0000       0
GRID        1927       0-81.9750 47.3448 80.0000       0
GRID        1928       0-83.5894 48.0197 80.0000       0
GRID        1929       0-85.2038 48.6947 80.0000       0
GRID        1930       0-85.9932 50.5179 80.0000       0
GRID        1931       0-86.7827 52.3411 80.0000       0
GRID        1932       0-79.2653 58.3531 72.5023       0
GRID        1933       0-85.9932 54.1643 80.0000       0
GRID        1934       0-76.3107 58.9529 73.0023       0
GRID        1935       0-85.2038 55.9875 80.0000       0
GRID        1936       0-83.5894 56.6625 80.0000       0
GRID        1937       0-81.9750 57.3374 80.0000       0
GRID        1938       0-80.0676 56.5625 80.0000       0
GRID        1939       0-78.1603 55.7875 80.0000       0
GRID        1940       0-77.4715 54.0643 80.0000       0
GRID        1941       0-123.246 110.923 80.0000       0
GRID        1942       0-123.935 109.200 80.0000       0
GRID        1943       0-17.7253 4.14499 107.459       0
GRID        1944       0-125.842 108.425 80.0000       0
GRID        1945       0-127.750 107.650 80.0000       0
GRID        1946       0 17.8424-19.0378 72.7500       0
GRID        1947       0-129.364 108.325 80.0000       0
GRID        1948       0 14.5731-17.2521 72.7500       0
GRID        1949       0-130.978 109.000 80.0000       0
GRID        1950       0-131.768 110.823 80.0000       0
GRID        1951       0-132.557 112.646 80.0000       0
GRID        1952       0-131.768 114.469 80.0000       0
GRID        1953       0-130.978 116.292 80.0000       0
GRID        1954       0-129.364 116.967 80.0000       0
GRID        1955       0-16.7418-22.3456 107.459       0
GRID        1956       0-127.750 117.642 80.0000       0
GRID        1957       0-125.842 116.867 80.0000       0
GRID        1958       0-123.935 116.092 80.0000       0
GRID        1959       0-123.246 114.369 80.0000       0
GRID        1960       0-123.246 114.369 70.0000       0
GRID        1961       0-123.935 116.092 70.0000       0
GRID        1962       0-125.842 116.867 70.0000       0
GRID        1963       0-127.750 117.642 70.0000       0
GRID        1964       0-13.1156 52.4671 67.2709       0
GRID        1965       0-129.364 116.967 70.0000       0
GRID        1966       0-13.4703 47.2325 66.2410       0
GRID        1967       0-130.978 116.292 70.0000       0
GRID        1968       0-131.768 114.469 70.0000       0
GRID        1969       0-13.2120-27.4696 99.5917       0
GRID        1970       0-132.557 112.646 70.0000       0
GRID        1971       0-16.7834 44.4412 65.2836       0
GRID        1972       0-131.768 110.823 70.0000       0
GRID        1973       0-13.8620 42.0846 65.6844       0
GRID        1974       0-130.978 109.000 70.0000       0
GRID        1975       0-129.364 108.325 70.0000       0
GRID        1976       0-127.750 107.650 70.0000       0
GRID        1977       0-125.842 108.425 70.0000       0
GRID        1978       0-123.935 109.200 70.0000       0
GRID        1979       0-123.246 110.923 70.0000       0
GRID        1980       0-77.4715 54.0643 70.0000       0
GRID        1981       0-78.1603 55.7875 70.0000       0
GRID        1982       0-80.0676 56.5625 70.0000       0
GRID        1983       0-81.9750 57.3374 70.0000       0
GRID        1984       0-83.5894 56.6625 70.0000       0
GRID        1985       0-85.2038 55.9875 70.0000       0
GRID        1986       0-85.9932 54.1643 70.0000       0
GRID        1987       0-86.7827 52.3411 70.0000       0
GRID        1988       0-85.9932 50.5179 70.0000       0
GRID        1989       0-85.2038 48.6947 70.0000       0
GRID        1990       0-83.5894 48.0197 70.0000       0
GRID        1991       0-81.9750 47.3448 70.0000       0
GRID        1992       0-80.0676 48.1197 70.0000       0
GRID        1993       0-78.1603 48.8947 70.0000       0
GRID        1994       0-49.3968 104.319 65.1174       0
GRID        1995       0-77.4715 50.6179 70.0000       0
GRID        1996       0-1.34927 47.9195 85.7010       0
GRID        1997       0-2.22950 47.5090 81.4020       0
GRID        1998       0-5.20287 46.1225 77.5181       0
GRID        1999       0-8.17623 44.7360 73.6342       0
GRID        2000       0-12.6021 42.6722 71.8545       0
GRID        2001       0-17.0279 40.6084 70.0749       0
GRID        2002       0-21.2174 38.6548 70.7704       0
GRID        2003       0-25.4069 36.7012 71.4660       0
GRID        2004       0-29.7583 128.459 82.4613       0
GRID        2005       0-28.5672 35.2275 73.8401       0
GRID        2006       0-29.7870 128.446 82.0562       0
GRID        2007       0-31.7274 33.7539 76.2143       0
GRID        2008       0-33.9082 32.7370 80.4889       0
GRID        2009       0-25.4675 130.460 84.9020       0
GRID        2010       0-36.0891 31.7200 84.7636       0
GRID        2011       0-31.9212 127.451 91.4215       0
GRID        2012       0-36.0891 31.7200 90.0000       0
GRID        2013       0-36.0891 31.7200 95.2364       0
GRID        2014       0-33.9082 32.7370 99.5111       0
GRID        2015       0 1.13905 65.5808 79.5232       0
GRID        2016       0-31.7274 33.7539 103.786       0
GRID        2017       0-28.5672 35.2275 106.160       0
GRID        2018       0-25.4069 36.7012 108.534       0
GRID        2019       0-21.2174 38.6548 109.230       0
GRID        2020       0-32.6896 127.092 68.0894       0
GRID        2021       0-17.0279 40.6084 109.925       0
GRID        2022       0-12.6021 42.6722 108.145       0
GRID        2023       0-19.3010 85.0082 73.1372       0
GRID        2024       0-8.17623 44.7360 106.366       0
GRID        2025       0-23.5994 85.6724 70.4009       0
GRID        2026       0-5.20287 46.1225 102.482       0
GRID        2027       0-2.22950 47.5090 98.5980       0
GRID        2028       0-1.34927 47.9195 94.2990       0
GRID        2029       0-39.3849 129.487 94.2990       0
GRID        2030       0-40.2651 129.077 98.5980       0
GRID        2031       0-1.23874 92.3457 75.0000       0
GRID        2032       0-43.2385 127.690 102.482       0
GRID        2033       0-6.22543 92.6212 75.0000       0
GRID        2034       0-46.2119 126.304 106.366       0
GRID        2035       0-50.6377 124.240 108.145       0
GRID        2036       0-10.6673-25.1298 104.208       0
GRID        2037       0-55.0635 122.176 109.925       0
GRID        2038       0-59.2531 120.222 109.230       0
GRID        2039       0-115.542 109.981 75.0000       0
GRID        2040       0-63.4426 118.269 108.534       0
GRID        2041       0-66.6028 116.795 106.160       0
GRID        2042       0-69.7631 115.322 103.786       0
GRID        2043       0-71.9439 114.305 99.5111       0
GRID        2044       0-74.1247 113.288 95.2364       0
GRID        2045       0-74.1247 113.288 90.0000       0
GRID        2046       0-74.1247 113.288 84.7636       0
GRID        2047       0-71.9439 114.305 80.4889       0
GRID        2048       0-69.7631 115.322 76.2143       0
GRID        2049       0 4.65928 41.2735 70.7201       0
GRID        2050       0-66.6028 116.795 73.8401       0
GRID        2051       0-63.4426 118.269 71.4660       0
GRID        2052       0-59.2531 120.222 70.7704       0
GRID        2053       0-27.8781 120.507 71.0000       0
GRID        2054       0-55.0635 122.176 70.0749       0
GRID        2055       0-50.6377 124.240 71.8545       0
GRID        2056       0-46.2119 126.304 73.6342       0
GRID        2057       0-43.2385 127.690 77.5181       0
GRID        2058       0-40.2651 129.077 81.4020       0
GRID        2059       0-7.19310 59.0427 73.1372       0
GRID        2060       0-39.3849 129.487 85.7010       0
GRID        2061       0-4.94271 54.2168 73.1372       0
GRID        2062       0 13.5263-25.4579 76.5407       0
GRID        2063       0-9.23515 54.2765 70.2686       0
GRID        2064       0 13.5263-25.4579 103.459       0
GRID        2065       0 10.8074-26.7257 76.5407       0
GRID        2066       0-21.9334 43.2861 65.1264       0
GRID        2067       0 10.8074-26.7257 103.459       0
GRID        2068       0-98.9008 89.2745 77.5000       0
GRID        2069       0-11.4637-31.2190 99.5022       0
GRID        2070       0-10.9010 37.9485 68.0375       0
GRID        2071       0-7.46079-29.3525 99.5022       0
GRID        2072       0-9.43621 44.1484 67.4640       0
GRID        2073       0-3.45793-27.4859 99.5022       0
GRID        2074       0 .544926-25.6193 99.5022       0
GRID        2075       0 4.54778-23.7528 99.5022       0
GRID        2076       0 31.2839-11.2855 99.5022       0
GRID        2077       0 27.2810-13.1521 99.5022       0
GRID        2078       0 6.58797 87.5417 75.0000       0
GRID        2079       0 23.2781-15.0187 99.5022       0
GRID        2080       0 19.2753-16.8852 99.5022       0
GRID        2081       0 15.2724-18.7518 99.5022       0
GRID        2082       0-88.0110 46.3972 74.6667       0
GRID        2083       0-61.4810 83.8606 79.1513       0
GRID        2084       0-65.4527 83.0659 76.0442       0
GRID        2085       0-80.3704 73.0869 77.5000       0
GRID        2086       0-11.4637-31.2190 80.4978       0
GRID        2087       0-65.9881 82.6865 70.5000       0
GRID        2088       0-7.46079-29.3525 80.4978       0
GRID        2089       0-3.45793-27.4859 80.4978       0
GRID        2090       0 .544926-25.6193 80.4978       0
GRID        2091       0 4.54778-23.7528 80.4978       0
GRID        2092       0-93.4871 75.2943 77.5000       0
GRID        2093       0-25.2013 93.0974 71.3625       0
GRID        2094       0 29.9672-8.46205 77.5000       0
GRID        2095       0 25.9644-10.3286 77.5000       0
GRID        2096       0 21.9615-12.1952 77.5000       0
GRID        2097       0 17.9587-14.0617 77.5000       0
GRID        2098       0 13.9558-15.9283 77.5000       0
GRID        2099       0-29.8051 88.7588 67.3825       0
GRID        2100       0-107.600 106.397 70.5000       0
GRID        2101       0-111.314 109.680 70.5000       0
GRID        2102       0-11.9895 124.554 80.0000       0
GRID        2103       0 13.7893 69.2708 80.0000       0
GRID        2104       0-15.8737 121.088 70.0000       0
GRID        2105       0 8.63773 68.5224 70.0000       0
GRID        2106       0-13.8605 87.5451 84.7209       0
GRID        2107       0-11.7572 83.5607 86.8182       0
GRID        2108       0 10.1462 76.9470 75.0000       0
GRID        2109       0-12.6374 83.1503 82.5192       0
GRID        2110       0-10.9847 122.262 75.0000       0
GRID        2111       0-32.3813 112.209 106.731       0
GRID        2112       0-17.8732-27.9244 101.091       0
GRID        2113       0-4.76750 56.3862 73.5917       0
GRID        2114       0-17.8732-27.9244 78.9094       0
GRID        2115       0 32.8800-4.25779 101.091       0
GRID        2116       0 32.8800-4.25779 78.9094       0
GRID        2117       0-23.2688 125.968 94.5647       0
GRID        2118       0-16.7585 94.5431 92.6525       0
GRID        2119       0-2.58873 47.3415 117.254       0
GRID        2120       0-24.3953 31.6560 56.1066       0
GRID        2121       0 27.2531-19.1755 78.5912       0
GRID        2122       0-19.0955 98.2924 94.7329       0
GRID        2123       0-62.4309 113.224 56.1066       0
GRID        2124       0-33.5381 37.8747 69.5611       0
GRID        2125       0 13.1360 43.6402 93.1432       0
GRID        2126       0-42.0661 46.6133 73.1071       0
GRID        2127       0 7.39588 55.0527 88.6411       0
GRID        2128       0-16.1109 92.3711 84.7209       0
GRID        2129       0-77.1599 95.9600 85.1364       0
GRID        2130       0-89.7394 55.3638 80.0000       0
GRID        2131       0-14.8305 90.0883 89.9878       0
GRID        2132       0-130.524 108.621 71.6667       0
GRID        2133       0-31.1294 38.9116 68.0508       0
GRID        2134       0-130.057 108.316 73.3333       0
GRID        2135       0-129.559 108.064 75.0000       0
GRID        2136       0-129.005 107.860 76.6667       0
GRID        2137       0-128.398 107.717 78.3333       0
GRID        2138       0-136.382 107.673 73.0000       0
GRID        2139       0-134.672 107.569 75.4997       0
GRID        2140       0-134.672 107.569 72.4997       0
GRID        2141       0-84.7495 48.3164 71.6667       0
GRID        2142       0-84.2827 48.0110 73.3333       0
GRID        2143       0-131.666 107.683 78.3333       0
GRID        2144       0-83.7848 47.7594 75.0000       0
GRID        2145       0-83.2301 47.5552 76.6667       0
GRID        2146       0-82.6237 47.4123 78.3333       0
GRID        2147       0-133.259 106.474 76.3333       0
GRID        2148       0 12.6146 48.9140 94.9621       0
GRID        2149       0-64.1452 78.7344 70.0000       0
GRID        2150       0-75.4262 58.3542 70.0000       0
GRID        2151       0-133.083 119.419 70.0000       0
GRID        2152       0-70.4911 87.8519 73.1549       0
GRID        2153       0-29.0271 39.9783 72.3531       0
GRID        2154       0-32.5060 43.3212 73.3979       0
GRID        2155       0-35.9515 46.6798 74.6788       0
GRID        2156       0-39.3345 50.0674 76.2143       0
GRID        2157       0-13.2071 108.560 75.0000       0
GRID        2158       0-42.6099 53.5053 78.0071       0
GRID        2159       0-45.7286 57.0162 80.0479       0
GRID        2160       0-11.4781 87.2975 76.8182       0
GRID        2161       0-48.6415 60.6231 82.3129       0
GRID        2162       0-11.6704 91.2308 79.6609       0
GRID        2163       0-51.3033 64.3471 84.7636       0
GRID        2164       0-53.6772 68.2053 87.3471       0
GRID        2165       0-55.7392 72.2090 90.0000       0
GRID        2166       0-57.4808 76.3621 92.6529       0
GRID        2167       0-58.9104 80.6606 95.2364       0
GRID        2168       0-60.0522 85.0934 97.6871       0
GRID        2169       0-60.9428 89.6433 99.9521       0
GRID        2170       0-61.6277 94.2892 101.993       0
GRID        2171       0-62.1559 99.0081 103.786       0
GRID        2172       0-62.5765 103.777 105.321       0
GRID        2173       0-62.9345 108.575 106.602       0
GRID        2174       0-22.3944 106.400 89.6948       0
GRID        2175       0-63.2592 113.389 107.647       0
GRID        2176       0-20.8183-4.16459 87.5462       0
GRID        2177       0-70.5852 93.1341 91.5287       0
GRID        2178       0-10.0607 84.2578 76.8182       0
GRID        2179       0-121.574 106.327 72.1238       0
GRID        2180       0-50.1293 124.477 59.5670       0
GRID        2181       0-51.5409 123.819 63.0275       0
GRID        2182       0-48.8764 125.061 68.3308       0
GRID        2183       0 4.09345 24.5761 112.000       0
GRID        2184       0-127.989 122.715 73.0000       0
GRID        2185       0-20.5530 10.0393 112.000       0
GRID        2186       0-6.97108 21.8717 112.000       0
GRID        2187       0-16.5857 18.7853 112.000       0
GRID        2188       0-24.5385 16.8428 112.000       0
GRID        2189       0 2.04483-20.1100 112.000       0
GRID        2190       0-2.72845-20.1687 112.000       0
GRID        2191       0-10.1027-18.0976 112.000       0
GRID        2192       0-7.39197-22.3433 112.000       0
GRID        2193       0-18.3505-7.61392 112.000       0
GRID        2194       0-16.9963-10.4857 112.000       0
GRID        2195       0-32.1694 127.335 86.8182       0
GRID        2196       0-14.2855-14.7314 112.000       0
GRID        2197       0-20.8100 1.68414 112.000       0
GRID        2198       0-137.599 112.277 73.0000       0
GRID        2199       0-19.3139-2.93851 112.000       0
GRID        2200       0-133.700 112.438 72.4993       0
GRID        2201       0-27.1299 13.8255 112.000       0
GRID        2202       0-28.6261 18.4481 112.000       0
GRID        2203       0-23.8286 20.6852 112.000       0
GRID        2204       0 .082295 29.0261 112.000       0
GRID        2205       0 4.87976 31.2632 112.000       0
GRID        2206       0 7.45922 27.1457 112.000       0
GRID        2207       0 18.9575 6.27980 112.000       0
GRID        2208       0 17.6280 9.16313 112.000       0
GRID        2209       0 12.0863 17.0239 112.000       0
GRID        2210       0 14.6658 12.9065 112.000       0
GRID        2211       0-132.584 121.464 73.0000       0
GRID        2212       0 20.4675 1.47415 112.000       0
GRID        2213       0 17.2039-10.8741 112.000       0
GRID        2214       0 21.8675-8.69944 112.000       0
GRID        2215       0 14.0908-14.4929 112.000       0
GRID        2216       0-35.0637 121.020 73.8962       0
GRID        2217       0-25.1372 10.4238 112.000       0
GRID        2218       0-31.3858 119.631 72.5046       0
GRID        2219       0-23.6410 5.80109 112.000       0
GRID        2220       0-22.5457 13.4411 112.000       0
GRID        2221       0-17.7220 5.92240 112.000       0
GRID        2222       0-5.44997 27.6739 112.000       0
GRID        2223       0-10.2474 25.4368 112.000       0
GRID        2224       0-1.43881 23.2239 112.000       0
GRID        2225       0-15.0548 23.8936 112.000       0
GRID        2226       0-19.8522 21.6565 112.000       0
GRID        2227       0-11.7784 20.3285 112.000       0
GRID        2228       0-20.5621 17.8140 112.000       0
GRID        2229       0 10.0387 23.0282 112.000       0
GRID        2230       0-93.1331 83.7491 77.5000       0
GRID        2231       0 6.14106 18.5719 112.000       0
GRID        2232       0-94.7450 87.1742 77.5000       0
GRID        2233       0 20.3575-3.89378 112.000       0
GRID        2234       0-15.6691 10.2321 112.000       0
GRID        2235       0-32.7870 127.047 109.834       0
GRID        2236       0-4.01216 18.4174 112.000       0
GRID        2237       0-8.87818 16.1483 112.000       0
GRID        2238       0-13.6855 14.6051 112.000       0
GRID        2239       0-35.9714 125.562 115.117       0
GRID        2240       0-18.5694 14.4123 112.000       0
GRID        2241       0 1.52010 19.7695 112.000       0
GRID        2242       0 14.9472 1.25722 77.5712       0
GRID        2243       0 13.0486 7.39829 86.4658       0
GRID        2244       0 9.29434 11.7735 94.9262       0
GRID        2245       0 4.76238 14.2239 103.380       0
GRID        2246       0 11.7653 9.30468 103.738       0
GRID        2247       0 14.9216 1.53155 104.406       0
GRID        2248       0-110.747 109.123 73.5000       0
GRID        2249       0 14.4344 4.08009 95.9537       0
GRID        2250       0 12.1447-8.80372 78.3807       0
GRID        2251       0 14.6491-3.22541 87.8074       0
GRID        2252       0 13.7567-5.97942 98.5278       0
GRID        2253       0-7.49474 12.9934 76.7887       0
GRID        2254       0-10.0570 79.3884 84.7209       0
GRID        2255       0-3.37482 14.6154 85.6604       0
GRID        2256       0 .847155 14.9761 94.5724       0
GRID        2257       0-106.405 105.501 73.5000       0
GRID        2258       0 2.89608 14.7178 76.8947       0
GRID        2259       0 6.44157 13.5464 85.9328       0
GRID        2260       0 10.7565 10.4545 77.1441       0
GRID        2261       0-12.1663 8.77383 85.5102       0
GRID        2262       0-14.5716 3.55922 94.1711       0
GRID        2263       0-14.8976-1.74936 102.918       0
GRID        2264       0-13.2330 7.06314 103.119       0
GRID        2265       0-5.40803 13.9912 103.245       0
GRID        2266       0-79.7212 105.161 73.6505       0
GRID        2267       0-9.23546 11.8197 94.3797       0
GRID        2268       0-14.6639-3.15774 76.3054       0
GRID        2269       0-31.6125 58.9592 114.719       0
GRID        2270       0-14.9971 .292736 85.0924       0
GRID        2271       0-14.0126 5.35240 76.6161       0
GRID        2272       0-13.9850-5.42398 93.5254       0
GRID        2273       0-10.3482-10.8588 102.397       0
GRID        2274       0-10.6755-10.5372 75.6071       0
GRID        2275       0-49.6957 119.714 113.314       0
GRID        2276       0-12.3167-8.56144 84.0571       0
GRID        2277       0-.897379-14.9731 101.613       0
GRID        2278       0-95.4396 95.6334 75.5000       0
GRID        2279       0-6.80470-13.3677 92.1874       0
GRID        2280       0-4.17487-14.4073 81.4753       0
GRID        2281       0-97.2496 96.6450 72.5000       0
GRID        2282       0 2.02533-14.5668 106.807       0
GRID        2283       0-98.4655 100.338 75.0000       0
GRID        2284       0-2.74795-14.6254 106.807       0
GRID        2285       0 2.02533-14.5668 101.307       0
GRID        2286       0 10.7801-9.27371 106.500       0
GRID        2287       0 .231026-14.2369 73.5000       0
GRID        2288       0-103.304 70.7696 77.5000       0
GRID        2289       0 9.90585-10.8481 73.1904       0
GRID        2290       0-106.588 75.0968 77.5000       0
GRID        2291       0 13.1258-6.95125 73.1904       0
GRID        2292       0 9.90585-10.8481 78.6904       0
GRID        2293       0-11.6562-9.20210 107.199       0
GRID        2294       0-7.47338-12.5683 107.199       0
GRID        2295       0-5.62281-12.9160 102.005       0
GRID        2296       0-14.8943 .028042 107.459       0
GRID        2297       0-13.9309-4.64737 107.459       0
GRID        2298       0-102.036 65.7914 75.5000       0
GRID        2299       0-12.6229-6.30409 102.658       0
GRID        2300       0-12.0091 8.74400 107.560       0
GRID        2301       0-49.7290 79.5560 112.104       0
GRID        2302       0-14.0620 4.43429 107.560       0
GRID        2303       0-14.0653 2.65689 103.019       0
GRID        2304       0-3.23064 14.4771 107.622       0
GRID        2305       0-8.09666 12.2080 107.622       0
GRID        2306       0-9.32051 10.5272 103.182       0
GRID        2307       0 6.47552 13.3958 107.690       0
GRID        2308       0 1.85457 14.5934 107.690       0
GRID        2309       0-16.7585 94.5431 88.4579       0
GRID        2310       0-.322823 14.1075 103.313       0
GRID        2311       0 12.9393 7.19283 107.869       0
GRID        2312       0-20.9053 47.4844 65.3725       0
GRID        2313       0 9.97700 10.9362 107.869       0
GRID        2314       0 8.26386 11.7643 103.559       0
GRID        2315       0 14.4074-2.06166 108.203       0
GRID        2316       0 14.5174 3.30627 108.203       0
GRID        2317       0 13.3435 5.41811 104.072       0
GRID        2318       0 10.7118-9.43598 99.7639       0
GRID        2319       0 13.8250-5.81715 105.264       0
GRID        2320       0 14.3391-2.22393 101.467       0
GRID        2321       0-11.7933-9.08639 71.8035       0
GRID        2322       0-7.58075-12.4254 71.8035       0
GRID        2323       0 .386581-14.2839 80.2376       0
GRID        2324       0-4.33043-14.3604 74.7376       0
GRID        2325       0-7.42519-12.4723 78.5412       0
GRID        2326       0-13.7875-5.39664 72.1527       0
GRID        2327       0-68.2879 105.527 107.668       0
GRID        2328       0-14.7753-.659071 72.1527       0
GRID        2329       0-67.8987 100.744 106.259       0
GRID        2330       0-12.6697-6.84749 75.9563       0
GRID        2331       0-71.0957 104.218 104.343       0
GRID        2332       0-14.4497 3.59600 72.3081       0
GRID        2333       0-12.5090 7.77224 72.3081       0
GRID        2334       0-14.3382 1.09733 76.4608       0
GRID        2335       0-71.7022 108.900 106.259       0
GRID        2336       0-9.25013 11.5928 72.3944       0
GRID        2337       0-4.44533 13.9642 72.3944       0
GRID        2338       0-10.7537 9.17291 76.7024       0
GRID        2339       0-43.1290 117.259 67.3660       0
GRID        2340       0 .750082 14.8263 72.4473       0
GRID        2341       0 5.55671 13.6333 72.4473       0
GRID        2342       0-2.29933 13.8556 76.8417       0
GRID        2343       0 9.48693 11.5017 72.5720       0
GRID        2344       0 12.3464 8.00117 72.5720       0
GRID        2345       0-53.7572 87.1998 111.885       0
GRID        2346       0 6.82630 12.5862 77.0194       0
GRID        2347       0 14.4418 3.40251 72.7856       0
GRID        2348       0-130.398 102.705 76.3333       0
GRID        2349       0 14.5270-1.92078 72.7856       0
GRID        2350       0 12.8519 5.85588 77.3576       0
GRID        2351       0 13.5460-3.77325 77.9760       0
GRID        2352       0 .386581-14.2839 85.7376       0
GRID        2353       0 2.02533-14.5668 95.8065       0
GRID        2354       0-103.251 102.995 70.5000       0
GRID        2355       0-.928333-13.7641 91.0937       0
GRID        2356       0-102.056 102.099 73.5000       0
GRID        2357       0-3.85104-14.1704 96.9002       0
GRID        2358       0-99.0813 100.150 70.5000       0
GRID        2359       0-5.48979-13.8875 86.8313       0
GRID        2360       0 10.7118-9.43598 94.2639       0
GRID        2361       0 9.90585-10.8481 84.1904       0
GRID        2362       0 11.1580-8.05898 88.9037       0
GRID        2363       0 13.3969-6.01456 83.0941       0
GRID        2364       0 14.2029-4.60241 93.1676       0
GRID        2365       0 14.7982-.984094 82.6893       0
GRID        2366       0 13.9979 4.32775 82.0185       0
GRID        2367       0 13.8488 2.08644 87.1366       0
GRID        2368       0 11.9025 8.92641 81.8050       0
GRID        2369       0 11.1715 9.58589 90.6960       0
GRID        2370       0 11.8644 7.92680 95.4399       0
GRID        2371       0 13.7415 5.73919 91.2098       0
GRID        2372       0-104.134 101.114 75.5000       0
GRID        2373       0 9.74507 10.4724 86.1993       0
GRID        2374       0 7.86795 12.6600 90.4295       0
GRID        2375       0 14.5418 .427341 91.8805       0
GRID        2376       0 27.3134-16.6258 84.7889       0
GRID        2377       0 8.59904 12.0005 81.5384       0
GRID        2378       0 7.02836 12.9987 99.1533       0
GRID        2379       0-109.921 105.699 75.5000       0
GRID        2380       0 10.5298 10.5391 99.3322       0
GRID        2381       0 5.07075 13.3748 94.7493       0
GRID        2382       0 2.80477 14.6000 98.9765       0
GRID        2383       0 13.0999 6.69239 99.8460       0
GRID        2384       0 3.64436 14.2613 90.2526       0
GRID        2385       0-2.28044 14.4836 98.9087       0
GRID        2386       0 14.6780 2.80582 100.180       0
GRID        2387       0 14.0956-.949663 97.2407       0
GRID        2388       0-.239373 14.6666 81.2775       0
GRID        2389       0-5.43478 13.8044 81.2245       0
GRID        2390       0-9.83054 10.8836 81.1495       0
GRID        2391       0-9.08148 49.3830 68.4939       0
GRID        2392       0-7.77058 11.6946 85.5853       0
GRID        2393       0-13.0894 7.06312 81.0632       0
GRID        2394       0 1.53337 14.0809 85.7966       0
GRID        2395       0 18.4832 9.34488 78.5459       0
GRID        2396       0-1.26383 14.7957 90.1164       0
GRID        2397       0-6.30514 13.2176 90.0200       0
GRID        2398       0-4.19415 13.3979 94.4761       0
GRID        2399       0 4.66882 14.1321 81.4137       0
GRID        2400       0-10.7009 10.2968 89.9450       0
GRID        2401       0-7.32174 12.9055 98.8123       0
GRID        2402       0-13.3690 6.16653 89.8406       0
GRID        2403       0-11.9035 7.68948 94.2754       0
GRID        2404       0-13.5817 4.53329 85.3013       0
GRID        2405       0-14.7844 1.92598 89.6317       0
GRID        2406       0-102.007 99.6307 75.5000       0
GRID        2407       0-14.5049 2.82257 80.8543       0
GRID        2408       0-14.7346 .904929 98.5447       0
GRID        2409       0-13.9023 5.31118 98.6451       0
GRID        2410       0-14.2783-.932379 93.8482       0
GRID        2411       0-94.2962 97.3250 70.5000       0
GRID        2412       0-14.4413-3.58667 98.2219       0
GRID        2413       0-11.2342 9.44144 98.7495       0
GRID        2414       0-14.4911-2.56562 89.3089       0
GRID        2415       0-12.1666-8.14140 97.9613       0
GRID        2416       0-14.8305-1.43250 80.6989       0
GRID        2417       0-13.4903-5.85959 80.1812       0
GRID        2418       0-13.6569-4.13435 84.5747       0
GRID        2419       0-11.4961-9.54934 79.8321       0
GRID        2420       0-13.1509-6.99271 88.7912       0
GRID        2421       0-8.57647-12.1133 97.2923       0
GRID        2422       0-10.3949-9.39585 92.8564       0
GRID        2423       0-9.56071-10.9646 88.1222       0
GRID        2424       0-8.24580-11.4844 82.7662       0
GRID        2425       0 11.2421-20.5594 86.0410       0
GRID        2426       0-90.8658 78.2872 77.5000       0
GRID        2427       0 11.2421-20.5594 93.9588       0
GRID        2428       0 9.46826-16.7555 108.749       0
GRID        2429       0 11.2286-20.5305 108.749       0
GRID        2430       0 12.9167-24.1507 104.958       0
GRID        2431       0 8.80995-15.3437 101.750       0
GRID        2432       0 8.80995-15.3437 107.250       0
GRID        2433       0 11.2286-20.5305 71.2511       0
GRID        2434       0 9.46826-16.7555 71.2511       0
GRID        2435       0 8.80995-15.3437 78.2500       0
GRID        2436       0 8.80995-15.3437 72.7500       0
GRID        2437       0 12.9167-24.1507 75.0418       0
GRID        2438       0 13.6061-25.6291 99.8547       0
GRID        2439       0 12.9828-24.2924 95.5840       0
GRID        2440       0 13.0627-24.4636 91.9794       0
GRID        2441       0 12.9828-24.2924 84.4158       0
GRID        2442       0-52.6847 117.768 114.918       0
GRID        2443       0 13.0627-24.4637 88.0205       0
GRID        2444       0 11.2421-20.5594 89.9999       0
GRID        2445       0 13.6061-25.6291 80.1453       0
GRID        2446       0 9.46826-16.7555 79.7489       0
GRID        2447       0 9.46826-16.7555 100.251       0
GRID        2448       0 9.45451-16.7260 97.4794       0
GRID        2449       0 9.45451-16.7260 91.9794       0
GRID        2450       0 11.2558-20.5889 96.7305       0
GRID        2451       0 9.45451-16.7260 82.5205       0
GRID        2452       0 9.45451-16.7260 88.0205       0
GRID        2453       0 11.2558-20.5889 83.2694       0
GRID        2454       0 12.9966-24.3219 98.3558       0
GRID        2455       0 12.9966-24.3219 81.6442       0
GRID        2456       0 8.52314-21.8272 86.0410       0
GRID        2457       0 8.52314-21.8272 93.9588       0
GRID        2458       0 6.74934-18.0233 108.749       0
GRID        2459       0 8.50965-21.7983 108.749       0
GRID        2460       0 10.1978-25.4186 104.958       0
GRID        2461       0 6.09103-16.6116 101.750       0
GRID        2462       0 6.09103-16.6116 107.250       0
GRID        2463       0-14.1905 76.5938 73.5917       0
GRID        2464       0 8.50965-21.7983 71.2511       0
GRID        2465       0 6.74934-18.0233 71.2511       0
GRID        2466       0-14.8670 81.2436 75.7010       0
GRID        2467       0 6.09103-16.6116 78.2500       0
GRID        2468       0-17.8404 79.8571 71.8171       0
GRID        2469       0 6.09103-16.6116 72.7500       0
GRID        2470       0 10.1978-25.4186 75.0418       0
GRID        2471       0 10.8872-26.8970 80.1453       0
GRID        2472       0 10.2639-25.5603 84.4158       0
GRID        2473       0 10.3437-25.7315 88.0205       0
GRID        2474       0 10.2639-25.5603 95.5840       0
GRID        2475       0-17.9940 84.7506 73.5917       0
GRID        2476       0 10.3437-25.7315 91.9794       0
GRID        2477       0 8.52314-21.8272 89.9999       0
GRID        2478       0 10.8872-26.8970 99.8547       0
GRID        2479       0 6.74934-18.0233 79.7489       0
GRID        2480       0 6.74934-18.0233 100.251       0
GRID        2481       0-38.2913 125.032 105.127       0
GRID        2482       0 6.73559-17.9938 82.5205       0
GRID        2483       0 6.73559-17.9938 88.0205       0
GRID        2484       0-23.4458 80.7788 68.6262       0
GRID        2485       0 8.53689-21.8567 83.2694       0
GRID        2486       0 6.73559-17.9938 97.4794       0
GRID        2487       0 6.73559-17.9938 91.9794       0
GRID        2488       0 8.53689-21.8567 96.7305       0
GRID        2489       0 10.2776-25.5898 81.6442       0
GRID        2490       0 10.2776-25.5898 98.3558       0
GRID        2491       0-34.0279 126.468 100.671       0
GRID        2492       0-3.45793-27.4859 105.498       0
GRID        2493       0-1.45650-26.5526 102.500       0
GRID        2494       0 1.88805-23.2743 103.999       0
GRID        2495       0 3.88948-22.3410 101.001       0
GRID        2496       0-9.46222-30.2858 105.498       0
GRID        2497       0-16.8440 109.011 72.8630       0
GRID        2498       0-10.1205-28.8740 103.999       0
GRID        2499       0-12.1220-29.8073 101.001       0
GRID        2500       0 5.15733-25.0600 101.001       0
GRID        2501       0 2.54636-24.6861 105.498       0
GRID        2502       0 3.15590-25.9932 103.999       0
GRID        2503       0-5.45936-28.4192 102.500       0
GRID        2504       0-65.5698 84.2988 95.8784       0
GRID        2505       0-8.85268-31.5929 103.999       0
GRID        2506       0-10.8541-32.5262 101.001       0
GRID        2507       0 23.2781-15.0187 105.498       0
GRID        2508       0 17.2739-17.8185 105.498       0
GRID        2509       0 16.6155-16.4068 103.999       0
GRID        2510       0 14.6141-17.3401 101.001       0
GRID        2511       0-72.4057 98.6420 97.2011       0
GRID        2512       0 25.2796-14.0854 102.500       0
GRID        2513       0-56.9174 85.7262 109.511       0
GRID        2514       0 28.6241-10.8071 103.999       0
GRID        2515       0 30.6256-9.87379 101.001       0
GRID        2516       0 21.2767-15.9520 102.500       0
GRID        2517       0 17.8834-19.1257 103.999       0
GRID        2518       0 15.8820-20.0590 101.001       0
GRID        2519       0 31.8934-12.5927 101.001       0
GRID        2520       0 29.2824-12.2188 105.498       0
GRID        2521       0 29.8920-13.5260 103.999       0
GRID        2522       0-3.02661-33.1469 109.803       0
GRID        2523       0-29.3717 120.213 70.6043       0
GRID        2524       0 6.18843-28.8498 109.803       0
GRID        2525       0 9.01670-28.9004 107.111       0
GRID        2526       0-21.0619 120.870 77.4715       0
GRID        2527       0 7.32854-25.2801 110.901       0
GRID        2528       0 2.66502-27.4547 110.901       0
GRID        2529       0-4.69386-35.2937 107.111       0
GRID        2530       0-6.60602-31.7779 110.901       0
GRID        2531       0-1.94250-29.6033 110.901       0
GRID        2532       0 4.46518-31.0228 107.111       0
GRID        2533       0-.142341-33.1713 107.111       0
GRID        2534       0 .941775-29.6277 108.209       0
GRID        2535       0-27.6468 120.764 72.7925       0
GRID        2536       0 27.3374-18.9879 109.803       0
GRID        2537       0 18.1224-23.2849 109.803       0
GRID        2538       0-9.63718 92.7779 75.0000       0
GRID        2539       0 30.0537-19.0907 107.111       0
GRID        2540       0 28.5895-15.3659 110.901       0
GRID        2541       0-49.6568 94.3268 114.446       0
GRID        2542       0 23.9260-17.5406 110.901       0
GRID        2543       0 16.3431-25.4840 107.111       0
GRID        2544       0 14.6550-21.8637 110.901       0
GRID        2545       0 19.3185-19.6891 110.901       0
GRID        2546       0 20.8947-23.3616 107.111       0
GRID        2547       0-46.4204 121.241 111.370       0
GRID        2548       0 25.5022-21.2131 107.111       0
GRID        2549       0 22.0908-19.7658 108.209       0
GRID        2550       0-3.45793-27.4859 74.5022       0
GRID        2551       0-1.45650-26.5526 77.5000       0
GRID        2552       0 1.88805-23.2743 76.0011       0
GRID        2553       0 3.88948-22.3410 78.9989       0
GRID        2554       0-9.46222-30.2858 74.5022       0
GRID        2555       0-10.1205-28.8740 76.0011       0
GRID        2556       0-12.1220-29.8073 78.9989       0
GRID        2557       0 5.15733-25.0600 78.9989       0
GRID        2558       0-68.1999 87.4298 70.5000       0
GRID        2559       0 2.54636-24.6861 74.5022       0
GRID        2560       0 3.15590-25.9932 76.0011       0
GRID        2561       0-10.8541-32.5262 78.9989       0
GRID        2562       0-5.45936-28.4192 77.5000       0
GRID        2563       0-8.85268-31.5929 76.0011       0
GRID        2564       0 24.4972-17.6330 77.5000       0
GRID        2565       0 14.6141-17.3401 78.9989       0
GRID        2566       0 30.6256-9.87379 78.9989       0
GRID        2567       0 18.4929-20.4329 77.5000       0
GRID        2568       0 17.8834-19.1257 76.0011       0
GRID        2569       0-16.0901 85.6384 77.9027       0
GRID        2570       0 14.6141-17.3401 76.0011       0
GRID        2571       0 21.2280-15.8474 77.5000       0
GRID        2572       0-25.4318 88.0247 70.1395       0
GRID        2573       0 17.8834-19.1257 78.9989       0
GRID        2574       0 25.2308-13.9808 77.5000       0
GRID        2575       0 29.8920-13.5260 76.0011       0
GRID        2576       0 30.6256-9.87379 76.0011       0
GRID        2577       0 30.5015-14.8332 77.5000       0
GRID        2578       0 29.8920-13.5260 78.9989       0
GRID        2579       0-3.02661-33.1469 70.1970       0
GRID        2580       0 6.18843-28.8498 70.1970       0
GRID        2581       0-65.2134 86.9556 75.5239       0
GRID        2582       0 9.01670-28.9004 72.8892       0
GRID        2583       0 7.32854-25.2801 69.0985       0
GRID        2584       0 2.66502-27.4547 69.0985       0
GRID        2585       0 4.46518-31.0228 72.8892       0
GRID        2586       0-4.69386-35.2937 72.8892       0
GRID        2587       0-6.60602-31.7779 69.0985       0
GRID        2588       0 14.2119 68.3644 76.0000       0
GRID        2589       0-1.94250-29.6033 69.0985       0
GRID        2590       0-.142341-33.1713 72.8892       0
GRID        2591       0 .941775-29.6277 71.7907       0
GRID        2592       0 27.3374-18.9879 70.1970       0
GRID        2593       0 18.1224-23.2849 70.1970       0
GRID        2594       0 16.3431-25.4840 72.8892       0
GRID        2595       0 14.6550-21.8637 69.0985       0
GRID        2596       0 19.3185-19.6891 69.0985       0
GRID        2597       0 20.8947-23.3616 72.8892       0
GRID        2598       0 28.5895-15.3659 69.0985       0
GRID        2599       0 17.0985 72.8385 76.0000       0
GRID        2600       0 30.0537-19.0907 72.8892       0
GRID        2601       0 25.5022-21.2131 72.8892       0
GRID        2602       0 23.9260-17.5406 69.0985       0
GRID        2603       0 17.4683-22.0283 75.0418       0
GRID        2604       0 22.0908-19.7658 71.7907       0
GRID        2605       0 21.3098-20.4590 73.8485       0
GRID        2606       0-3.41851-36.3055 100.318       0
GRID        2607       0-2.15261-35.8233 98.4483       0
GRID        2608       0 .224921-34.7211 98.3378       0
GRID        2609       0-1.33882-35.6179 95.4386       0
GRID        2610       0-4.91733-37.1188 98.3403       0
GRID        2611       0 .875309-34.2960 100.444       0
GRID        2612       0 5.06071-32.5126 97.5334       0
GRID        2613       0-1.35658-35.3670 99.9209       0
GRID        2614       0-2.31821-35.6910 102.073       0
GRID        2615       0 8.53268-30.9030 97.3714       0
GRID        2616       0 8.61251-31.0742 93.7667       0
GRID        2617       0 3.51453-33.4514 93.7667       0
GRID        2618       0 8.45284-30.7318 100.976       0
GRID        2619       0 3.90132-32.8542 100.976       0
GRID        2620       0 .211860-34.4433 103.246       0
GRID        2621       0-4.33966-36.5658 103.246       0
GRID        2622       0-.721451-34.9935 101.259       0
GRID        2623       0 1.80862-33.7459 102.431       0
GRID        2624       0-5.65382-37.3299 100.630       0
GRID        2625       0-6.44674-37.6996 100.630       0
GRID        2626       0-4.78321-37.3813 92.7193       0
GRID        2627       0 .314772-35.0041 92.7193       0
GRID        2628       0-6.57247-38.1317 94.1702       0
GRID        2629       0 2.64281-33.6168 97.9356       0
GRID        2630       0 1.86094-34.0653 96.4860       0
GRID        2631       0-.556948-35.1695 96.8882       0
GRID        2632       0-3.12807-36.3684 96.8895       0
GRID        2633       0-4.16792-36.7122 99.3290       0
GRID        2634       0-4.90441-36.9232 101.618       0
GRID        2635       0-2.86836-35.9983 101.195       0
GRID        2636       0-4.35426-36.6159 102.496       0
GRID        2637       0 28.0374-12.8825 107.997       0
GRID        2638       0 2.96801-33.4043 98.9888       0
GRID        2639       0-3.53497-36.4711 98.3943       0
GRID        2640       0-2.78556-36.0644 99.3830       0
GRID        2641       0-1.75459-35.5952 99.1846       0
GRID        2642       0-2.38754-35.8363 100.119       0
GRID        2643       0-1.83739-35.5290 100.997       0
GRID        2644       0-1.74571-35.7206 96.9434       0
GRID        2645       0-.963845-35.2722 98.3930       0
GRID        2646       0-.565828-35.0440 99.1293       0
GRID        2647       0-.240634-34.8315 100.183       0
GRID        2648       0 .550115-34.5085 99.3910       0
GRID        2649       0 28.3423-21.7944 95.1445       0
GRID        2650       0 29.5177-20.9992 99.4178       0
GRID        2651       0 32.0905-19.8768 98.0799       0
GRID        2652       0 25.3865-22.9527 98.9492       0
GRID        2653       0 28.8413-21.1638 102.025       0
GRID        2654       0 19.3069-25.8285 98.2426       0
GRID        2655       0 22.5996-24.5114 94.4673       0
GRID        2656       0 17.0152-26.9270 97.7259       0
GRID        2657       0 16.9354-26.7558 101.331       0
GRID        2658       0 21.4869-24.6334 101.331       0
GRID        2659       0 17.0951-27.0982 94.1213       0
GRID        2660       0 20.9532-25.1700 96.3549       0
GRID        2661       0 18.7414-26.4397 92.2336       0
GRID        2662       0 30.8535-20.1997 102.472       0
GRID        2663       0 30.8057-20.1786 103.222       0
GRID        2664       0 26.2541-22.3010 103.222       0
GRID        2665       0 33.2710-19.1865 100.499       0
GRID        2666       0 32.4780-19.5562 100.499       0
GRID        2667       0 29.1795-21.0815 100.721       0
GRID        2668       0 31.1917-20.1174 101.168       0
GRID        2669       0 33.6828-19.3679 94.0400       0
GRID        2670       0 30.8041-20.4380 98.7488       0
GRID        2671       0 26.7108-22.7039 92.5722       0
GRID        2672       0 31.8087-20.3267 92.5722       0
GRID        2673       0 30.2164-20.8356 96.6122       0
GRID        2674       0 24.5267-23.1955 101.684       0
GRID        2675       0-53.2740 92.6401 112.874       0
GRID        2676       0 22.3467-24.3906 98.5959       0
GRID        2677       0 27.1139-22.0583 100.487       0
GRID        2678       0 25.4710-23.1529 94.8059       0
GRID        2679       0 23.8394-24.0624 92.2336       0
GRID        2680       0-88.0802 94.3284 74.0961       0
GRID        2681       0 28.9300-21.3968 97.2811       0
GRID        2682       0 27.4521-21.9759 99.1835       0
GRID        2683       0 26.8644-22.3735 97.0469       0
GRID        2684       0-55.8257 77.5375 107.524       0
GRID        2685       0 23.9930-23.7320 96.7082       0
GRID        2686       0-1.52263-35.7206 84.8555       0
GRID        2687       0-2.88734-36.1099 80.5822       0
GRID        2688       0-5.40081-37.3593 81.9201       0
GRID        2689       0-92.4862 96.3134 73.5000       0
GRID        2690       0 1.26468-34.2009 81.0508       0
GRID        2691       0-2.32643-35.6976 77.9754       0
GRID        2692       0 7.37559-31.3922 81.7574       0
GRID        2693       0 4.25007-33.0679 85.5327       0
GRID        2694       0 9.69012-30.3428 82.2741       0
GRID        2695       0 9.61028-30.1715 78.6694       0
GRID        2696       0 5.05876-32.2940 78.6694       0
GRID        2697       0 9.76996-30.5140 85.8787       0
GRID        2698       0 5.81283-32.2301 83.6451       0
GRID        2699       0 8.20719-31.3519 87.7664       0
GRID        2700       0-4.35837-36.6193 77.5283       0
GRID        2701       0-4.34377-36.5691 76.7783       0
GRID        2702       0 .207750-34.4467 76.7783       0
GRID        2703       0-6.68848-37.8199 79.5007       0
GRID        2704       0-6.81421-38.2520 85.9600       0
GRID        2705       0 .222864-35.0554 87.4278       0
GRID        2706       0-4.87512-37.4327 87.4278       0
GRID        2707       0-3.46172-36.5400 83.3878       0
GRID        2708       0-5.89556-37.4501 79.5007       0
GRID        2709       0-2.60689-35.9037 79.2788       0
GRID        2710       0-4.63883-36.8254 78.8318       0
GRID        2711       0-4.14408-36.7346 81.2512       0
GRID        2712       0 2.00331-33.6983 78.3160       0
GRID        2713       0 4.32014-32.7965 81.4041       0
GRID        2714       0-.530872-34.9492 79.5131       0
GRID        2715       0 1.36372-34.3943 85.1941       0
GRID        2716       0 3.10921-33.7291 87.7664       0
GRID        2717       0-2.20499-35.9153 82.7189       0
GRID        2718       0-.811330-35.1554 80.8165       0
GRID        2719       0 9.34693 47.3903 74.6097       0
GRID        2720       0-.128974-34.9607 82.9531       0
GRID        2721       0 2.75737-33.6344 83.2918       0
GRID        2722       0 30.0090-20.7180 79.6823       0
GRID        2723       0 6.51745 46.0709 76.6728       0
GRID        2724       0 28.8259-21.3778 81.5517       0
GRID        2725       0 26.4533-22.4906 81.6622       0
GRID        2726       0 28.1455-21.8692 84.5614       0
GRID        2727       0 31.5955-20.0926 81.6597       0
GRID        2728       0 25.7096-22.7156 79.5558       0
GRID        2729       0 21.6532-24.7754 82.4666       0
GRID        2730       0-39.2486 119.069 70.3637       0
GRID        2731       0 27.9647-21.6943 80.0791       0
GRID        2732       0 28.8310-21.1659 77.9269       0
GRID        2733       0 18.1884-26.4005 82.6286       0
GRID        2734       0-28.1051 99.3289 108.636       0
GRID        2735       0 18.2682-26.5717 86.2333       0
GRID        2736       0 23.3662-24.1945 86.2333       0
GRID        2737       0 .414850 51.7498 78.6092       0
GRID        2738       0 18.1085-26.2293 79.0240       0
GRID        2739       0 22.6600-24.1068 79.0240       0
GRID        2740       0 26.2490-22.3021 76.7541       0
GRID        2741       0 30.8005-20.1796 76.7541       0
GRID        2742       0 27.2703-21.9407 78.7414       0
GRID        2743       0 24.6883-23.0769 77.5686       0
GRID        2744       0 32.2305-19.6641 79.3705       0
GRID        2745       0-22.5051 57.9880 114.607       0
GRID        2746       0 33.0235-19.2943 79.3705       0
GRID        2747       0 31.7103-20.3641 87.2807       0
GRID        2748       0 26.6123-22.7413 87.2807       0
GRID        2749       0 33.4353-19.4758 85.8298       0
GRID        2750       0 24.0532-23.6330 82.0644       0
GRID        2751       0 24.8993-23.3223 83.5140       0
GRID        2752       0 27.2994-22.1799 83.1118       0
GRID        2753       0 29.8705-20.9809 83.1105       0
GRID        2754       0 30.8022-20.4053 80.6710       0
GRID        2755       0 31.4373-19.9768 78.3818       0
GRID        2756       0 29.4200-20.9419 78.8046       0
GRID        2757       0 30.8483-20.2007 77.5041       0
GRID        2758       0 23.6814-23.7455 81.0112       0
GRID        2759       0 30.2107-20.7352 81.6057       0
GRID        2760       0 29.4175-21.0479 80.6170       0
GRID        2761       0 28.3953-21.5360 80.8154       0
GRID        2762       0 28.9869-21.2061 79.8807       0
GRID        2763       0 28.3978-21.4301 79.0030       0
GRID        2764       0 28.4857-21.6235 83.0566       0
GRID        2765       0 27.6396-21.9342 81.6070       0
GRID        2766       0-91.7587 51.0336 75.5006       0
GRID        2767       0 27.2090-22.0924 80.8707       0
GRID        2768       0 26.8371-22.2049 79.8175       0
GRID        2769       0 26.0815-22.6031 80.6090       0
GRID        2770       0-21.5052 12.6256 68.0000       0
GRID        2771       0 19.7734-8.06896 68.0000       0
GRID        2772       0 15.3212 66.1221 76.0000       0
GRID        2773       0 19.6880-.454800 68.0000       0
GRID        2774       0 5.44690 22.1863 68.0000       0
GRID        2775       0 33.3834-8.67094 106.498       0
GRID        2776       0-12.3913 19.3469 68.0000       0
GRID        2777       0-3.82385 24.7642 68.0000       0
GRID        2778       0 2.83705 29.6184 68.0000       0
GRID        2779       0-2.67218-20.1866 68.0000       0
GRID        2780       0 2.04483-20.1100 68.0000       0
GRID        2781       0 14.0908-14.4929 68.0000       0
GRID        2782       0 16.9401-6.58387 68.0000       0
GRID        2783       0 13.7202-10.4808 68.0000       0
GRID        2784       0 20.1440-12.0811 68.0000       0
GRID        2785       0-8.23267-23.9886 68.0000       0
GRID        2786       0-19.1473 80.1147 71.3625       0
GRID        2787       0 24.8075-9.90648 68.0000       0
GRID        2788       0 23.2976-5.10083 68.0000       0
GRID        2789       0 17.5396 9.39654 68.0000       0
GRID        2790       0 18.8691 6.51321 68.0000       0
GRID        2791       0 16.8122 2.54650 68.0000       0
GRID        2792       0 21.7449 3.51191 68.0000       0
GRID        2793       0 23.2549-1.29375 68.0000       0
GRID        2794       0 14.6801 12.8971 68.0000       0
GRID        2795       0 12.1006 17.0146 68.0000       0
GRID        2796       0 6.83102 29.6668 68.0000       0
GRID        2797       0 4.25155 33.7843 68.0000       0
GRID        2798       0-.545907 31.5472 68.0000       0
GRID        2799       0-22.3120 18.5767 68.0000       0
GRID        2800       0-27.1094 16.3396 68.0000       0
GRID        2801       0-25.6133 11.7169 68.0000       0
GRID        2802       0-16.9698-10.5308 68.0000       0
GRID        2803       0-18.3240-7.65901 68.0000       0
GRID        2804       0-19.3118-2.92144 68.0000       0
GRID        2805       0-20.8079 1.70122 68.0000       0
GRID        2806       0-14.2591-14.7765 68.0000       0
GRID        2807       0-10.0465-18.1155 68.0000       0
GRID        2808       0-16.2554 11.4089 68.0000       0
GRID        2809       0-18.1960 7.23262 68.0000       0
GRID        2810       0-24.1172 7.09424 68.0000       0
GRID        2811       0-10.9276 43.4530 112.936       0
GRID        2812       0-6.89363 17.1409 68.0000       0
GRID        2813       0-11.6984 14.7695 68.0000       0
GRID        2814       0-16.9483 15.9863 68.0000       0
GRID        2815       0 6.83212 17.3676 68.0000       0
GRID        2816       0 2.02549 18.5606 68.0000       0
GRID        2817       0-2.60988 19.8495 68.0000       0
GRID        2818       0 .811524 23.4752 68.0000       0
GRID        2819       0-8.10759 22.0555 68.0000       0
GRID        2820       0 10.7154 21.8333 68.0000       0
GRID        2821       0 16.8974-2.77679 68.0000       0
GRID        2822       0 19.7307-4.26188 68.0000       0
GRID        2823       0 8.13594 25.9508 68.0000       0
GRID        2824       0 4.14197 25.9023 68.0000       0
GRID        2825       0-8.67382 26.8830 68.0000       0
GRID        2826       0-3.87636 29.1201 68.0000       0
GRID        2827       0-.493401 27.1913 68.0000       0
GRID        2828       0-17.7550 21.9373 68.0000       0
GRID        2829       0-12.9576 24.1744 68.0000       0
GRID        2830       0-88.4442 95.0785 78.5961       0
GRID        2831       0-84.0142 92.4765 79.1859       0
GRID        2832       0-79.8350 91.1471 81.3540       0
GRID        2833       0-75.7784 87.9528 86.6716       0
GRID        2834       0-75.8268 89.4084 83.5253       0
GRID        2835       0-96.6555 99.3261 78.0000       0
GRID        2836       0-101.440 102.286 78.0000       0
GRID        2837       0-116.380 115.780 78.0000       0
GRID        2838       0-112.610 111.604 78.0000       0
GRID        2839       0-105.005 104.953 78.0000       0
GRID        2840       0-109.347 108.575 78.0000       0
GRID        2841       0-123.431 121.467 78.0000       0
GRID        2842       0-127.404 123.051 78.0000       0
GRID        2843       0-137.138 110.902 78.0000       0
GRID        2844       0-137.658 115.147 78.0000       0
GRID        2845       0-135.278 119.272 78.0000       0
GRID        2846       0 19.7075-21.2438 82.5296       0
GRID        2847       0-131.999 121.800 78.0000       0
GRID        2848       0-133.060 102.529 78.0000       0
GRID        2849       0-130.199 98.7595 78.0000       0
GRID        2850       0-93.0071 49.7618 78.0000       0
GRID        2851       0-95.8680 53.5308 78.0000       0
GRID        2852       0-101.590 61.0690 78.0000       0
GRID        2853       0-98.7290 57.2999 78.0000       0
GRID        2854       0-107.312 68.6071 78.0000       0
GRID        2855       0-104.451 64.8380 78.0000       0
GRID        2856       0-113.034 76.1452 78.0000       0
GRID        2857       0-110.173 72.3761 78.0000       0
GRID        2858       0-118.755 83.6833 78.0000       0
GRID        2859       0-115.894 79.9142 78.0000       0
GRID        2860       0-121.616 87.4523 78.0000       0
GRID        2861       0-127.338 94.9904 78.0000       0
GRID        2862       0-124.477 91.2214 78.0000       0
GRID        2863       0-84.6008 43.5473 78.0000       0
GRID        2864       0-75.4548 42.3741 78.0000       0
GRID        2865       0-65.1227 43.3155 79.2346       0
GRID        2866       0-59.7104 43.3621 81.0781       0
GRID        2867       0-55.9767 43.7022 84.5654       0
GRID        2868       0-123.033 98.2904 70.5000       0
GRID        2869       0-114.298 105.892 70.5000       0
GRID        2870       0-118.063 102.809 73.8284       0
GRID        2871       0-116.024 103.036 74.4142       0
GRID        2872       0-117.669 104.173 72.4142       0
GRID        2873       0-118.779 102.951 72.4142       0
GRID        2874       0-119.330 100.248 74.4142       0
GRID        2875       0-120.046 100.390 73.0000       0
GRID        2876       0-109.050 101.860 73.0000       0
GRID        2877       0-104.701 98.4584 73.0000       0
GRID        2878       0-77.1321 85.7134 73.0000       0
GRID        2879       0-82.4156 87.1915 73.0000       0
GRID        2880       0-86.7484 88.8397 73.0000       0
GRID        2881       0-96.0058 93.1128 73.0000       0
GRID        2882       0-91.8499 91.0125 73.0000       0
GRID        2883       0-100.791 95.9381 73.0000       0
GRID        2884       0-56.3717 49.8136 70.5000       0
GRID        2885       0-58.3961 55.7575 73.0000       0
GRID        2886       0-60.2390 59.7097 73.0000       0
GRID        2887       0-69.4536 79.4705 73.0000       0
GRID        2888       0-67.6107 75.5184 73.0000       0
GRID        2889       0-62.0819 63.6619 73.0000       0
GRID        2890       0-65.7678 71.5662 73.0000       0
GRID        2891       0-63.9249 67.6140 73.0000       0
GRID        2892       0-70.8832 85.3795 70.5000       0
GRID        2893       0-94.3929 60.5590 70.5000       0
GRID        2894       0-118.905 92.1498 73.0000       0
GRID        2895       0-115.620 87.8226 73.0000       0
GRID        2896       0-99.1972 66.1866 73.0000       0
GRID        2897       0-102.482 70.5138 73.0000       0
GRID        2898       0-105.766 74.8410 73.0000       0
GRID        2899       0-112.336 83.4954 73.0000       0
GRID        2900       0-109.051 79.1682 73.0000       0
GRID        2901       0-67.2106 48.5720 70.5000       0
GRID        2902       0-61.6298 47.8226 73.8284       0
GRID        2903       0-59.9978 49.3914 74.4142       0
GRID        2904       0-59.8163 47.3996 72.4142       0
GRID        2905       0-63.3370 47.0789 72.4142       0
GRID        2906       0-63.5185 49.0706 74.4142       0
GRID        2907       0-88.1723 64.4897 73.0000       0
GRID        2908       0-83.3212 66.6754 73.0000       0
GRID        2909       0-68.5034 55.8160 73.0000       0
GRID        2910       0-70.1610 60.8720 73.0000       0
GRID        2911       0-78.3516 66.1389 73.0000       0
GRID        2912       0-73.9086 64.1796 73.0000       0
GRID        2913       0-74.6799 67.5444 81.0781       0
GRID        2914       0-68.3353 67.6084 85.2058       0
GRID        2915       0-71.9065 61.4405 81.0518       0
GRID        2916       0-65.1735 56.6854 83.4830       0
GRID        2917       0-74.0828 76.4681 83.7278       0
GRID        2918       0-75.4934 81.5399 84.6250       0
GRID        2919       0-73.3551 80.8359 88.5306       0
GRID        2920       0-71.0115 75.8100 88.5306       0
GRID        2921       0-87.3904 88.4878 80.5898       0
GRID        2922       0-62.3050 50.8171 83.5850       0
GRID        2923       0-67.7173 50.7705 81.7415       0
GRID        2924       0-69.6772 54.9736 81.7415       0
GRID        2925       0-59.0011 49.9985 88.5102       0
GRID        2926       0-85.4305 84.2847 80.5898       0
GRID        2927       0-81.4223 82.5461 82.7611       0
GRID        2928       0-80.0117 77.4743 81.8639       0
GRID        2929       0-61.8697 55.8669 88.4082       0
GRID        2930       0-65.7942 66.3542 89.2696       0
GRID        2931       0-68.1378 71.3801 89.2696       0
GRID        2932       0-71.2091 72.0382 84.4668       0
GRID        2933       0-64.2133 60.8928 88.4082       0
GRID        2934       0-66.7544 62.1469 84.3444       0
GRID        2935       0-68.5400 59.0630 82.2674       0
GRID        2936       0-70.1209 64.5244 83.1288       0
GRID        2937       0-75.0037 61.5543 80.5259       0
GRID        2938       0-73.0437 57.3512 80.5259       0
GRID        2939       0-78.3503 68.8094 80.5390       0
GRID        2940       0-76.3904 64.6062 80.5390       0
GRID        2941       0-73.2932 64.4925 81.0649       0
GRID        2942       0-78.0518 73.2712 81.8639       0
GRID        2943       0-74.3813 72.0063 82.4029       0
GRID        2944       0-71.5076 67.5764 83.1419       0
GRID        2945       0-61.5235 46.6559 70.5000       0
GRID        2946       0-63.2838 46.4955 70.7500       0
GRID        2947       0-59.7632 46.8163 70.7500       0
GRID        2948       0-59.7632 46.8163 70.2500       0
GRID        2949       0-63.2838 46.4955 70.2500       0
GRID        2950       0-56.5835 56.6028 70.5000       0
GRID        2951       0-58.4264 60.5549 70.5000       0
GRID        2952       0-67.6410 80.3158 70.5000       0
GRID        2953       0-65.7981 76.3636 70.5000       0
GRID        2954       0-63.9552 72.4114 70.5000       0
GRID        2955       0-60.2693 64.5071 70.5000       0
GRID        2956       0-62.1123 68.4593 70.5000       0
GRID        2957       0-102.628 99.4469 70.5000       0
GRID        2958       0-106.977 102.849 70.5000       0
GRID        2959       0-82.8554 89.4493 70.5000       0
GRID        2960       0-77.5659 87.9691 70.5000       0
GRID        2961       0-97.8450 96.6219 70.5000       0
GRID        2962       0-93.0599 93.7966 70.5000       0
GRID        2963       0-87.9568 91.6221 70.5000       0
GRID        2964       0-118.385 104.316 70.5000       0
GRID        2965       0-120.889 102.203 70.5000       0
GRID        2966       0-119.495 103.094 70.5000       0
GRID        2967       0-120.498 90.9406 70.5000       0
GRID        2968       0-117.213 86.6134 70.5000       0
GRID        2969       0-100.790 64.9773 70.5000       0
GRID        2970       0-104.075 69.3046 70.5000       0
GRID        2971       0-107.359 73.6318 70.5000       0
GRID        2972       0-113.929 82.2862 70.5000       0
GRID        2973       0-110.644 77.9590 70.5000       0
GRID        2974       0-86.4292 62.6537 70.5000       0
GRID        2975       0-81.5781 64.8394 70.5000       0
GRID        2976       0-71.0346 55.8649 70.5000       0
GRID        2977       0-72.6922 60.9208 70.5000       0
GRID        2978       0-77.1351 62.8801 70.5000       0
GRID        2979       0-87.6163 78.4608 75.0000       0
GRID        2980       0-96.4057 80.6114 75.0000       0
GRID        2981       0-92.8589 72.4751 75.0000       0
GRID        2982       0-78.7200 76.0995 75.0000       0
GRID        2983       0-114.006 96.1475 75.0000       0
GRID        2984       0-110.403 93.2527 75.0000       0
GRID        2985       0-63.7294 54.5915 75.0000       0
GRID        2986       0-96.8738 72.0990 75.0000       0
GRID        2987       0-93.5892 67.7718 75.0000       0
GRID        2988       0-88.9616 70.4933 75.0000       0
GRID        2989       0-64.8407 59.8438 75.0000       0
GRID        2990       0-80.3509 80.5176 75.0000       0
GRID        2991       0-75.9146 79.3385 75.0000       0
GRID        2992       0-74.0717 75.3863 75.0000       0
GRID        2993       0-89.1319 83.3465 75.0000       0
GRID        2994       0-84.7990 81.6983 75.0000       0
GRID        2995       0-83.1681 77.2802 75.0000       0
GRID        2996       0-97.6825 86.5221 75.0000       0
GRID        2997       0-93.5266 84.4218 75.0000       0
GRID        2998       0-92.0110 79.5361 75.0000       0
GRID        2999       0-106.493 90.7323 75.0000       0
GRID        3000       0-103.209 86.4051 75.0000       0
GRID        3001       0-101.932 80.4944 75.0000       0
GRID        3002       0-66.6836 63.7959 75.0000       0
GRID        3003       0-72.2742 71.0557 75.0000       0
GRID        3004       0-70.4313 67.1035 75.0000       0
GRID        3005       0-76.9225 71.7689 75.0000       0
GRID        3006       0-98.6472 76.1672 75.0000       0
GRID        3007       0-94.6323 76.5432 75.0000       0
GRID        3008       0-81.8921 72.3055 75.0000       0
GRID        3009       0-90.2376 75.4679 75.0000       0
GRID        3010       0-86.3403 73.4862 75.0000       0
GRID        3011       0-30.5936 121.266 70.3045       0
GRID        3012       0-27.7524 121.469 70.6043       0
GRID        3013       0-23.0483 123.260 71.0000       0
GRID        3014       0-19.8378 124.757 71.0000       0
GRID        3015       0-16.6273 126.254 71.0000       0
GRID        3016       0-9.19061 127.219 71.0000       0
GRID        3017       0-3.90784 126.555 71.0000       0
GRID        3018       0-2.21940 121.505 71.0000       0
GRID        3019       0-1.25955 112.261 71.0000       0
GRID        3020       0-1.62601 107.381 71.0000       0
GRID        3021       0 11.5345 85.2016 71.0000       0
GRID        3022       0 7.29621 88.2476 71.0000       0
GRID        3023       0 1.15611 97.0316 71.0000       0
GRID        3024       0 4.12712 92.7813 71.0000       0
GRID        3025       0-.279826 102.373 71.0000       0
GRID        3026       0 18.2907 77.8067 71.0000       0
GRID        3027       0 20.5171 74.1753 71.0000       0
GRID        3028       0 18.2078 70.5961 71.0000       0
GRID        3029       0 12.1103 64.6248 71.0000       0
GRID        3030       0 8.89935 63.1275 71.0000       0
GRID        3031       0 5.68842 61.6302 71.0000       0
GRID        3032       0 .924329 58.7380 71.0000       0
GRID        3033       0 5.99082 61.7712 79.1041       0
GRID        3034       0 10.9795 64.0975 79.0000       0
GRID        3035       0 18.2078 70.5961 79.0000       0
GRID        3036       0 20.5171 74.1753 79.0000       0
GRID        3037       0 17.7341 78.7146 79.0000       0
GRID        3038       0 11.2696 85.3920 79.0000       0
GRID        3039       0 7.29621 88.2476 79.0000       0
GRID        3040       0-1.25955 112.261 79.0000       0
GRID        3041       0-1.62601 107.381 79.0000       0
GRID        3042       0 1.15611 97.0316 79.0000       0
GRID        3043       0-.190080 102.040 79.0000       0
GRID        3044       0 4.12712 92.7813 79.0000       0
GRID        3045       0-2.21940 121.505 79.0000       0
GRID        3046       0-3.90784 126.555 79.0000       0
GRID        3047       0-9.19061 127.219 79.0000       0
GRID        3048       0-17.7585 125.726 79.0000       0
GRID        3049       0-22.4884 123.521 79.0625       0
GRID        3050       0-24.2495 123.554 80.6832       0
GRID        3051       0 1.79520 56.6539 73.5125       0
GRID        3052       0 2.97965 57.6086 73.9082       0
GRID        3053       0 4.41283 58.2769 77.0122       0
GRID        3054       0-28.4169 114.894 69.8733       0
GRID        3055       0-30.8370 119.765 69.8294       0
GRID        3056       0-29.6905 117.088 69.7952       0
GRID        3057       0-25.4462 107.801 69.7634       0
GRID        3058       0-31.8721 120.619 69.4602       0
GRID        3059       0-31.5820 120.755 69.7105       0
GRID        3060       0-30.4044 120.017 69.9147       0
GRID        3061       0-3.47704 60.9059 69.5455       0
GRID        3062       0-5.52454 65.2968 69.5455       0
GRID        3063       0-29.0485 114.455 69.4431       0
GRID        3064       0-31.2989 119.281 69.4431       0
GRID        3065       0-29.9559 119.055 69.9147       0
GRID        3066       0-30.2637 118.427 69.8123       0
GRID        3067       0-24.6760 104.986 69.4272       0
GRID        3068       0-26.9263 109.812 69.4272       0
GRID        3069       0-27.3140 112.024 69.5455       0
GRID        3070       0-26.7798 110.879 69.5455       0
GRID        3071       0-25.2997 108.868 69.8817       0
GRID        3072       0-27.8119 113.092 69.5455       0
GRID        3073       0-28.2895 115.641 69.9367       0
GRID        3074       0-27.8170 114.628 69.9367       0
GRID        3075       0-28.4117 113.358 69.4821       0
GRID        3076       0-29.0537 115.991 69.8343       0
GRID        3077       0-19.4552 95.1712 69.5455       0
GRID        3078       0-21.7056 99.9972 69.5455       0
GRID        3079       0-22.5579 101.825 69.5455       0
GRID        3080       0-23.2956 103.407 69.5455       0
GRID        3081       0-23.9457 104.801 69.5455       0
GRID        3082       0-24.7159 107.616 69.8817       0
GRID        3083       0-15.0147 85.6484 69.5455       0
GRID        3084       0-17.2650 90.4743 69.5455       0
GRID        3085       0-18.4543 93.0248 69.5455       0
GRID        3086       0-11.3468 77.7827 69.5455       0
GRID        3087       0-13.5972 82.6086 69.5455       0
GRID        3088       0-7.77493 70.1227 69.5455       0
GRID        3089       0-9.67726 74.2023 69.5455       0
GRID        3090       0-29.3826 117.717 69.8976       0
GRID        3091       0-28.9263 116.738 69.8976       0
GRID        3092       0 3.30463 64.7389 81.8806       0
GRID        3093       0 3.83465 67.0708 80.0625       0
GRID        3094       0 1.70047 69.1925 81.8182       0
GRID        3095       0-20.0735 118.342 80.0625       0
GRID        3096       0-21.8937 118.777 81.8806       0
GRID        3097       0-23.6124 119.933 83.2312       0
GRID        3098       0-19.5132 114.685 81.8182       0
GRID        3099       0-.549914 74.0185 81.8182       0
GRID        3100       0-4.79264 83.1170 81.8182       0
GRID        3101       0-2.54226 78.2911 81.8182       0
GRID        3102       0-9.03537 92.2156 81.8182       0
GRID        3103       0-6.78498 87.3896 81.8182       0
GRID        3104       0-15.2704 105.587 81.8182       0
GRID        3105       0-13.0201 100.761 81.8182       0
GRID        3106       0-11.0277 96.4882 81.8182       0
GRID        3107       0-17.2628 109.859 81.8182       0
GRID        3108       0-26.2189 123.182 75.5851       0
GRID        3109       0-27.8568 123.377 76.2251       0
GRID        3110       0-26.4502 122.926 73.7925       0
GRID        3111       0-27.9437 122.632 73.3969       0
GRID        3112       0-26.1320 123.928 78.4133       0
GRID        3113       0-25.0179 123.594 76.8966       0
GRID        3114       0 9.44759 67.2462 80.0000       0
GRID        3115       0 5.51461 72.2677 80.0000       0
GRID        3116       0 7.50695 67.9951 80.0000       0
GRID        3117       0 16.0986 72.8500 80.0000       0
GRID        3118       0 16.8769 74.8668 80.0000       0
GRID        3119       0 14.6505 78.4981 80.0000       0
GRID        3120       0 12.6053 79.1983 80.0000       0
GRID        3121       0 8.36707 82.2443 80.0000       0
GRID        3122       0-5.71805 123.322 80.0000       0
GRID        3123       0-4.36731 119.282 80.0000       0
GRID        3124       0-5.14560 117.265 80.0000       0
GRID        3125       0-5.53649 112.061 80.0000       0
GRID        3126       0-16.3312 122.529 80.0000       0
GRID        3127       0-7.76326 124.022 80.0000       0
GRID        3128       0-15.0126 116.288 80.0000       0
GRID        3129       0-17.0049 120.561 80.0000       0
GRID        3130       0-2.74454 92.6119 80.0000       0
GRID        3131       0 .424544 88.0782 80.0000       0
GRID        3132       0 2.41689 83.8056 80.0000       0
GRID        3133       0 4.19598 78.5083 80.0000       0
GRID        3134       0-6.17282 102.226 80.0000       0
GRID        3135       0-4.73688 96.8845 80.0000       0
GRID        3136       0-8.16516 106.499 80.0000       0
GRID        3137       0-11.0796 111.267 80.0000       0
GRID        3138       0-13.0202 112.016 80.0000       0
GRID        3139       0 3.52227 76.5403 80.0000       0
GRID        3140       0-19.8175 104.470 70.0000       0
GRID        3141       0-16.9268 106.687 70.0000       0
GRID        3142       0-12.7060 111.415 70.0000       0
GRID        3143       0-20.8651 107.552 70.0000       0
GRID        3144       0-18.7605 111.116 70.0000       0
GRID        3145       0-22.9360 110.944 70.0000       0
GRID        3146       0-24.2667 114.319 70.0000       0
GRID        3147       0-25.5707 116.713 70.0000       0
GRID        3148       0-21.2324 114.017 70.0000       0
GRID        3149       0-17.8029 116.061 70.0000       0
GRID        3150       0-22.3540 117.636 70.0000       0
GRID        3151       0-14.4832 97.6894 70.0000       0
GRID        3152       0-7.71165 96.3610 70.0000       0
GRID        3153       0-11.9632 103.568 70.0000       0
GRID        3154       0-17.3177 101.953 70.0000       0
GRID        3155       0-12.8748 92.8816 70.0000       0
GRID        3156       0-9.55078 88.3958 70.0000       0
GRID        3157       0-2.72728 88.0825 70.0000       0
GRID        3158       0-6.57647 82.2679 70.0000       0
GRID        3159       0 .636966 77.3198 70.0000       0
GRID        3160       0 2.96417 68.4870 70.0000       0
GRID        3161       0-27.4555 119.601 70.0000       0
GRID        3162       0-24.0951 119.246 70.0000       0
GRID        3163       0-20.8846 120.743 70.0000       0
GRID        3164       0-26.9992 118.622 70.0000       0
GRID        3165       0-23.9624 117.175 70.0000       0
GRID        3166       0-25.7035 118.785 70.0000       0
GRID        3167       0-20.0785 116.848 70.0000       0
GRID        3168       0-18.6091 119.956 70.0000       0
GRID        3169       0-15.2000 123.056 70.0000       0
GRID        3170       0-11.9895 124.554 70.0000       0
GRID        3171       0-7.76326 124.022 70.0000       0
GRID        3172       0-5.71805 123.322 70.0000       0
GRID        3173       0-4.36731 119.282 70.0000       0
GRID        3174       0-5.14560 117.265 70.0000       0
GRID        3175       0-5.53649 112.061 70.0000       0
GRID        3176       0 16.8769 74.8668 70.0000       0
GRID        3177       0 14.6505 78.4981 70.0000       0
GRID        3178       0 12.6053 79.1983 70.0000       0
GRID        3179       0 8.36707 82.2443 70.0000       0
GRID        3180       0 16.0986 72.8500 70.0000       0
GRID        3181       0 13.7893 69.2708 70.0000       0
GRID        3182       0 10.5784 67.7735 70.0000       0
GRID        3183       0-1.54579 64.0352 70.0000       0
GRID        3184       0 5.72045 66.2604 70.0000       0
GRID        3185       0 2.50952 64.7631 70.0000       0
GRID        3186       0-1.09114 67.7591 70.0000       0
GRID        3187       0-15.0676 117.194 70.0000       0
GRID        3188       0-3.73093 96.4850 70.0000       0
GRID        3189       0-5.16686 101.827 70.0000       0
GRID        3190       0-10.5785 114.122 70.0000       0
GRID        3191       0-7.66404 109.354 70.0000       0
GRID        3192       0-12.3346 107.491 70.0000       0
GRID        3193       0-7.29263 105.430 70.0000       0
GRID        3194       0-9.83742 99.9643 70.0000       0
GRID        3195       0 1.93034 87.8121 70.0000       0
GRID        3196       0-1.23874 92.3457 70.0000       0
GRID        3197       0-5.21947 92.2218 70.0000       0
GRID        3198       0 5.39156 77.1334 70.0000       0
GRID        3199       0 3.61247 82.4307 70.0000       0
GRID        3200       0-1.04516 82.7012 70.0000       0
GRID        3201       0 5.88145 70.7490 70.0000       0
GRID        3202       0-4.15708 76.2551 70.0000       0
GRID        3203       0-2.25474 72.1755 70.0000       0
GRID        3204       0 1.80057 72.9034 70.0000       0
GRID        3205       0-9.43335 82.3095 70.0000       0
GRID        3206       0-7.76380 78.7291 70.0000       0
GRID        3207       0-2.96975 79.7938 70.0000       0
GRID        3208       0-10.9205 85.3734 70.0000       0
GRID        3209       0-12.3380 88.4131 70.0000       0
GRID        3210       0-8.06363 85.3318 70.0000       0
GRID        3211       0-15.1892 93.2065 70.0000       0
GRID        3212       0-13.9999 90.6561 70.0000       0
GRID        3213       0-11.2128 90.6387 70.0000       0
GRID        3214       0-15.9935 95.6104 70.0000       0
GRID        3215       0-16.9944 97.7569 70.0000       0
GRID        3216       0-13.6790 95.2855 70.0000       0
GRID        3217       0-19.2639 101.716 70.0000       0
GRID        3218       0-18.4116 99.8887 70.0000       0
GRID        3219       0-15.9005 99.8213 70.0000       0
GRID        3220       0-21.2515 104.557 70.0000       0
GRID        3221       0-20.5138 102.975 70.0000       0
GRID        3222       0-18.5676 103.212 70.0000       0
GRID        3223       0-21.7753 106.098 70.0000       0
GRID        3224       0-22.4254 107.492 70.0000       0
GRID        3225       0-20.3413 106.011 70.0000       0
GRID        3226       0-24.0446 110.440 70.0000       0
GRID        3227       0-23.4608 109.188 70.0000       0
GRID        3228       0-21.9005 109.248 70.0000       0
GRID        3229       0-24.5787 111.586 70.0000       0
GRID        3230       0-25.2441 113.273 70.0000       0
GRID        3231       0-25.7420 114.340 70.0000       0
GRID        3232       0-23.6013 112.632 70.0000       0
GRID        3233       0-26.8664 116.551 70.0000       0
GRID        3234       0-26.3940 115.538 70.0000       0
GRID        3235       0-24.9187 115.516 70.0000       0
GRID        3236       0 4.71785 75.1654 70.0000       0
GRID        3237       0-12.5191 114.871 70.0000       0
GRID        3238       0-15.2545 113.738 70.0000       0
GRID        3239       0-18.3721 105.579 70.0000       0
GRID        3240       0-18.8959 107.119 70.0000       0
GRID        3241       0-17.1223 104.320 70.0000       0
GRID        3242       0-15.7333 111.265 70.0000       0
GRID        3243       0-17.8436 108.901 70.0000       0
GRID        3244       0-14.8164 109.051 70.0000       0
GRID        3245       0-14.4450 105.127 70.0000       0
GRID        3246       0-19.8128 109.334 70.0000       0
GRID        3247       0-14.6405 102.760 70.0000       0
GRID        3248       0-18.2817 113.588 70.0000       0
GRID        3249       0-20.8482 111.030 70.0000       0
GRID        3250       0-22.0842 112.481 70.0000       0
GRID        3251       0-19.9964 112.566 70.0000       0
GRID        3252       0-19.5176 115.039 70.0000       0
GRID        3253       0-22.7495 114.168 70.0000       0
GRID        3254       0-21.7932 115.827 70.0000       0
GRID        3255       0-23.3103 115.977 70.0000       0
GRID        3256       0-13.2232 100.629 70.0000       0
GRID        3257       0-11.0974 97.0252 70.0000       0
GRID        3258       0-10.2932 94.6213 70.0000       0
GRID        3259       0-8.63122 92.3784 70.0000       0
GRID        3260       0-6.13903 88.2391 70.0000       0
GRID        3261       0-4.65188 85.1752 70.0000       0
GRID        3262       0 12.5329 63.7185 75.0000       0
GRID        3263       0 4.98026 60.1966 75.0000       0
GRID        3264       0 8.19119 61.6939 75.0000       0
GRID        3265       0-24.6022 123.639 75.0000       0
GRID        3266       0-21.3917 125.136 75.0000       0
GRID        3267       0-17.0499 127.160 75.0000       0
GRID        3268       0-.263496 112.350 75.0000       0
GRID        3269       0 11.9778 86.0980 75.0000       0
GRID        3270       0 8.00445 88.9536 75.0000       0
GRID        3271       0-.629960 107.470 75.0000       0
GRID        3272       0 2.06242 97.4542 75.0000       0
GRID        3273       0 5.03343 93.2039 75.0000       0
GRID        3274       0 .716228 102.462 75.0000       0
GRID        3275       0 18.7341 78.7031 75.0000       0
GRID        3276       0 18.6304 69.6898 75.0000       0
GRID        3277       0 21.5170 74.1638 75.0000       0
GRID        3278       0-8.55667 127.993 75.0000       0
GRID        3279       0-1.58547 122.278 75.0000       0
GRID        3280       0-3.27390 127.328 75.0000       0
GRID        3281       0 13.4583 73.5299 75.0000       0
GRID        3282       0 14.2366 75.5467 75.0000       0
GRID        3283       0 12.1914 76.2468 75.0000       0
GRID        3284       0 12.6800 71.5131 75.0000       0
GRID        3285       0 9.47245 74.9790 75.0000       0
GRID        3286       0 10.7394 72.2621 75.0000       0
GRID        3287       0 8.79873 73.0110 75.0000       0
GRID        3288       0-7.67263 118.845 75.0000       0
GRID        3289       0-6.89434 120.862 75.0000       0
GRID        3290       0-8.93954 121.562 75.0000       0
GRID        3291       0-8.45092 116.829 75.0000       0
GRID        3292       0-12.3322 118.326 75.0000       0
GRID        3293       0-11.6585 120.294 75.0000       0
GRID        3294       0-10.3915 117.577 75.0000       0
GRID        3295       0 34.0341-18.6019 103.534       0
GRID        3296       0 35.2301-15.7325 106.845       0
GRID        3297       0 35.6474-15.6267 106.230       0
GRID        3298       0 34.8200-11.7519 110.018       0
GRID        3299       0 32.8812-5.50659 109.104       0
GRID        3300       0 33.2146-8.30895 110.018       0
GRID        3301       0 31.9957-3.60778 105.793       0
GRID        3302       0-7.62681-38.0287 103.534       0
GRID        3303       0-10.9430-37.3522 106.230       0
GRID        3304       0-16.9173-28.7280 109.104       0
GRID        3305       0-14.9849-30.7847 110.018       0
GRID        3306       0-10.5936-37.1005 106.845       0
GRID        3307       0-13.3795-34.2276 110.018       0
GRID        3308       0-17.8027-26.8292 105.793       0
GRID        3309       0 33.0310-18.5099 105.814       0
GRID        3310       0 31.5669-14.7852 109.604       0
GRID        3311       0 26.2645 2.97231 111.052       0
GRID        3312       0 29.7639-8.16495 111.052       0
GRID        3313       0 28.2539-3.35929 111.052       0
GRID        3314       0 23.4251 10.6613 111.052       0
GRID        3315       0-23.3328-10.8618 111.052       0
GRID        3316       0-12.8771-28.0488 111.052       0
GRID        3317       0-15.5879-23.8031 111.052       0
GRID        3318       0-19.1594-18.2092 111.052       0
GRID        3319       0-7.05242-37.2012 105.814       0
GRID        3320       0-8.96457-33.6854 109.604       0
GRID        3321       0 33.4544-18.2671 105.679       0
GRID        3322       0 33.0444-14.2864 108.852       0
GRID        3323       0 31.2414-7.66615 110.300       0
GRID        3324       0 30.5332-3.04298 105.793       0
GRID        3325       0-17.1425-25.6736 106.512       0
GRID        3326       0-14.2090-28.8600 110.300       0
GRID        3327       0-7.51060-37.3695 105.679       0
GRID        3328       0-10.2964-34.4966 108.852       0
GRID        3329       0 34.0341-18.6019 76.4660       0
GRID        3330       0 35.6474-15.6267 73.7704       0
GRID        3331       0 35.2301-15.7325 73.1551       0
GRID        3332       0 34.8200-11.7519 69.9820       0
GRID        3333       0 31.9957-3.60778 74.2069       0
GRID        3334       0 32.8812-5.50659 70.8960       0
GRID        3335       0 33.2146-8.30895 69.9820       0
GRID        3336       0-7.62681-38.0287 76.4660       0
GRID        3337       0-10.5936-37.1005 73.1551       0
GRID        3338       0-10.9430-37.3522 73.7704       0
GRID        3339       0-17.8027-26.8292 74.2069       0
GRID        3340       0-16.9173-28.7280 70.8960       0
GRID        3341       0-14.9849-30.7847 69.9820       0
GRID        3342       0-13.3795-34.2276 69.9820       0
GRID        3343       0 31.5669-14.7852 70.3957       0
GRID        3344       0 33.0310-18.5099 74.1863       0
GRID        3345       0 29.7639-8.16495 68.9477       0
GRID        3346       0 28.2539-3.35929 68.9477       0
GRID        3347       0 26.2645 2.97231 68.9477       0
GRID        3348       0 23.4251 10.6613 68.9477       0
GRID        3349       0-23.3328-10.8618 68.9477       0
GRID        3350       0-12.8771-28.0488 68.9477       0
GRID        3351       0-15.5879-23.8031 68.9477       0
GRID        3352       0-19.1594-18.2092 68.9477       0
GRID        3353       0-7.05242-37.2012 74.1864       0
GRID        3354       0-8.96457-33.6854 70.3957       0
GRID        3355       0 33.2627-15.3055 70.7672       0
GRID        3356       0 33.0297-13.0259 70.1358       0
GRID        3357       0 33.4398-17.0066 73.3089       0
GRID        3358       0 33.4544-18.2671 74.3210       0
GRID        3359       0 33.2774-16.5660 71.7793       0
GRID        3360       0 32.2980-13.2904 69.7600       0
GRID        3361       0 31.2414-7.66615 69.6999       0
GRID        3362       0 30.5332-3.04298 74.2069       0
GRID        3363       0-17.1425-25.6736 73.4883       0
GRID        3364       0-14.1085-29.5841 70.0426       0
GRID        3365       0-10.2964-34.4966 71.1479       0
GRID        3366       0-7.51060-37.3695 74.3211       0
GRID        3367       0 24.5226 11.2704 105.079       0
GRID        3368       0 24.7459 11.4103 100.052       0
GRID        3369       0 24.9691 11.5501 95.0262       0
GRID        3370       0-24.3965-11.5409 105.079       0
GRID        3371       0-24.6471-11.6221 100.052       0
GRID        3372       0-24.8977-11.7032 95.0262       0
GRID        3373       0 27.3219 3.56651 106.512       0
GRID        3374       0 27.5732 3.64547 101.486       0
GRID        3375       0 27.7804 4.11557 95.0262       0
GRID        3376       0-20.2943-18.6373 106.512       0
GRID        3377       0-20.5163-18.7791 101.486       0
GRID        3378       0-21.0096-18.6356 95.0262       0
GRID        3379       0 36.9447-17.7070 96.4593       0
GRID        3380       0-10.1833-39.6831 96.4593       0
GRID        3381       0 30.3633-1.43220 101.300       0
GRID        3382       0 30.5704-.962094 94.8406       0
GRID        3383       0-18.4200-24.1802 101.300       0
GRID        3384       0-18.9133-24.0367 94.8406       0
GRID        3385       0 24.5226 11.2704 74.9215       0
GRID        3386       0 24.7459 11.4103 79.9477       0
GRID        3387       0 24.9691 11.5501 84.9738       0
GRID        3388       0-24.3965-11.5409 74.9215       0
GRID        3389       0-24.6471-11.6221 79.9477       0
GRID        3390       0-24.8977-11.7032 84.9738       0
GRID        3391       0 27.3219 3.56651 73.4883       0
GRID        3392       0 27.5732 3.64547 78.5145       0
GRID        3393       0 27.7804 4.11557 84.9738       0
GRID        3394       0-20.2943-18.6373 73.4883       0
GRID        3395       0-20.5163-18.7791 78.5145       0
GRID        3396       0-21.0096-18.6356 84.9738       0
GRID        3397       0 36.9447-17.7070 83.5407       0
GRID        3398       0-10.1833-39.6831 83.5407       0
GRID        3399       0 30.3633-1.43220 78.7001       0
GRID        3400       0 30.5704-.962094 85.1594       0
GRID        3401       0-18.4200-24.1802 78.7001       0
GRID        3402       0-18.9133-24.0367 85.1594       0
GRID        3403       0-14.0408-36.1430 89.7032       0
GRID        3404       0-17.4390-28.8556 95.8617       0
GRID        3405       0-16.7676-30.2954 87.6262       0
GRID        3406       0-17.8374-28.0013 102.709       0
GRID        3407       0-16.9519-29.9001 106.020       0
GRID        3408       0-18.2011-27.2212 97.7715       0
GRID        3409       0-17.1111-29.5589 99.1809       0
GRID        3410       0-16.2936-31.3119 107.519       0
GRID        3411       0-16.4527-30.9706 97.6820       0
GRID        3412       0-17.8374-28.0013 77.2907       0
GRID        3413       0-16.9519-29.9001 73.9797       0
GRID        3414       0-16.1171-31.6905 84.0620       0
GRID        3415       0-16.7754-30.2788 82.5631       0
GRID        3416       0-17.8654-27.9411 83.9725       0
GRID        3417       0-16.2936-31.3119 72.4808       0
GRID        3418       0-12.9468-38.4891 89.8516       0
GRID        3419       0-13.0899-38.1823 96.3109       0
GRID        3420       0-14.1441-35.9215 96.1016       0
GRID        3421       0-13.1932-37.9608 102.709       0
GRID        3422       0-14.0786-36.0619 106.020       0
GRID        3423       0-14.7537-34.6143 94.6027       0
GRID        3424       0-18.3264-26.9525 92.9309       0
GRID        3425       0-13.0899-38.1823 83.3922       0
GRID        3426       0-14.7537-34.6143 85.1005       0
GRID        3427       0-14.1441-35.9215 83.6016       0
GRID        3428       0-13.1932-37.9608 77.2907       0
GRID        3429       0-14.0786-36.0619 73.9797       0
GRID        3430       0-17.9907-27.6724 88.8131       0
GRID        3431       0-17.1033-29.5755 91.7440       0
GRID        3432       0-14.6882-34.7548 107.519       0
GRID        3433       0-16.1171-31.6905 93.5642       0
GRID        3434       0-15.4042-33.2192 88.6647       0
GRID        3435       0-14.6882-34.7548 72.4808       0
GRID        3436       0 36.7128-12.4773 89.7024       0
GRID        3437       0 33.9858-6.62914 87.6260       0
GRID        3438       0 33.3144-5.18929 95.8619       0
GRID        3439       0 32.9159-4.33468 102.709       0
GRID        3440       0 33.8013-6.23349 106.020       0
GRID        3441       0 32.5522-3.55470 97.7715       0
GRID        3442       0 33.6422-5.89238 99.1809       0
GRID        3443       0 34.3006-7.30413 97.6820       0
GRID        3444       0 34.4596-7.64524 107.519       0
GRID        3445       0 32.9159-4.33468 77.2907       0
GRID        3446       0 33.8013-6.23349 73.9797       0
GRID        3447       0 34.6363-8.02406 84.0619       0
GRID        3448       0 33.9780-6.61231 82.5630       0
GRID        3449       0 34.4596-7.64524 72.4808       0
GRID        3450       0 32.8879-4.27463 83.9724       0
GRID        3451       0 37.8066-14.8229 89.8512       0
GRID        3452       0 37.6635-14.5161 96.3105       0
GRID        3453       0 35.9998-10.9481 94.6023       0
GRID        3454       0 36.6093-12.2553 96.1012       0
GRID        3455       0 37.5600-14.2941 102.709       0
GRID        3456       0 36.6746-12.3953 106.020       0
GRID        3457       0 32.4269-3.28600 92.9309       0
GRID        3458       0 37.6635-14.5161 83.3919       0
GRID        3459       0 36.6093-12.2553 83.6012       0
GRID        3460       0 37.5600-14.2941 77.2907       0
GRID        3461       0 36.6746-12.3953 73.9797       0
GRID        3462       0 35.9998-10.9481 85.1001       0
GRID        3463       0 32.7626-4.00593 88.8130       0
GRID        3464       0 33.6501-5.90922 91.7439       0
GRID        3465       0 34.6363-8.02406 93.5641       0
GRID        3466       0 35.3493-9.55320 88.6642       0
GRID        3467       0 36.0651-11.0881 107.519       0
GRID        3468       0 36.0651-11.0881 72.4808       0
GRID        3469       0-30.5765 122.561 68.0894       0
GRID        3470       0-30.0207 122.820 68.5981       0
GRID        3471       0-24.7347 125.285 78.5054       0
GRID        3472       0-27.3198 124.079 73.1891       0
GRID        3473       0-30.8666 122.426 67.8391       0
GRID        3474       0-23.3830 125.915 84.4968       0
GRID        3475       0-23.4598 125.879 83.7046       0
GRID        3476       0-23.3544 125.929 84.9020       0
GRID        3477       0-34.5846 120.692 64.4810       0
GRID        3478       0-37.9235 119.135 61.7075       0
GRID        3479       0-23.1062 126.044 89.5052       0
GRID        3480       0-59.2678 109.182 58.4001       0
GRID        3481       0-55.3112 111.027 57.8468       0
GRID        3482       0-46.4550 115.157 58.2154       0
GRID        3483       0-50.4116 113.312 57.6621       0
GRID        3484       0-63.3826 107.263 60.2824       0
GRID        3485       0-71.5776 103.442 65.6988       0
GRID        3486       0-67.8596 105.175 62.3408       0
GRID        3487       0-77.6081 100.630 73.6505       0
GRID        3488       0-74.9072 101.889 69.0594       0
GRID        3489       0-80.8761 99.1057 82.7507       0
GRID        3490       0-79.6012 99.7002 77.5516       0
GRID        3491       0-81.5898 98.7729 92.5155       0
GRID        3492       0-81.7524 98.6971 87.4560       0
GRID        3493       0-79.6781 99.6644 102.086       0
GRID        3494       0-80.9517 99.0705 97.7261       0
GRID        3495       0-75.2736 101.718 110.482       0
GRID        3496       0-77.3518 100.749 106.869       0
GRID        3497       0-72.1112 103.193 113.709       0
GRID        3498       0-64.3149 106.828 119.488       0
GRID        3499       0-68.5292 104.863 117.177       0
GRID        3500       0-55.4032 110.984 122.131       0
GRID        3501       0-60.2771 108.711 121.284       0
GRID        3502       0-46.4813 115.144 121.608       0
GRID        3503       0-51.3552 112.872 122.455       0
GRID        3504       0-37.8882 119.151 118.094       0
GRID        3505       0-42.1025 117.186 120.406       0
GRID        3506       0-30.6958 122.505 111.889       0
GRID        3507       0-33.8583 121.030 115.117       0
GRID        3508       0-25.7689 124.803 103.875       0
GRID        3509       0-27.8471 123.834 107.487       0
GRID        3510       0-24.4952 125.397 99.5153       0
GRID        3511       0-42.0383 117.216 59.8252       0
GRID        3512       0-14.6386 41.7225 58.0533       0
GRID        3513       0-18.5952 39.8775 57.5000       0
GRID        3514       0-22.5518 38.0326 58.0533       0
GRID        3515       0-10.6891 43.5642 58.7002       0
GRID        3516       0-26.5013 36.1909 58.7002       0
GRID        3517       0-6.57432 45.4830 60.5825       0
GRID        3518       0 1.18165 49.0996 66.1558       0
GRID        3519       0-2.53630 47.3659 62.7978       0
GRID        3520       0 7.23384 51.9218 74.6097       0
GRID        3521       0 4.53296 50.6624 70.0187       0
GRID        3522       0 10.4307 53.4125 84.7805       0
GRID        3523       0 9.15587 52.8181 79.5814       0
GRID        3524       0 10.5015 53.4456 94.9621       0
GRID        3525       0 10.6641 53.5214 89.9027       0
GRID        3526       0 8.09042 52.3213 103.756       0
GRID        3527       0 9.36405 52.9152 99.3968       0
GRID        3528       0 6.01217 51.3522 107.369       0
GRID        3529       0 .754064 48.9003 114.182       0
GRID        3530       0 3.91649 50.3749 110.954       0
GRID        3531       0-6.80300 45.3763 119.566       0
GRID        3532       0-16.1370 41.0238 122.253       0
GRID        3533       0-11.2632 43.2965 121.406       0
GRID        3534       0-25.9272 36.4586 121.406       0
GRID        3535       0-21.0534 38.7313 122.253       0
GRID        3536       0-34.6017 32.4136 117.254       0
GRID        3537       0-30.3874 34.3787 119.566       0
GRID        3538       0-41.1069 29.3802 110.954       0
GRID        3539       0-37.9445 30.8548 114.182       0
GRID        3540       0-45.2808 27.4338 103.756       0
GRID        3541       0-43.2026 28.4029 107.369       0
GRID        3542       0-46.5545 26.8399 99.3968       0
GRID        3543       0-47.8545 26.2337 89.9027       0
GRID        3544       0-47.6920 26.3095 94.9621       0
GRID        3545       0-46.3463 26.9370 79.5814       0
GRID        3546       0-47.6211 26.3425 84.7805       0
GRID        3547       0-41.7234 29.0927 70.0187       0
GRID        3548       0-44.4242 27.8333 74.6097       0
GRID        3549       0-34.6541 32.3892 62.7978       0
GRID        3550       0-38.3721 30.6554 66.1558       0
GRID        3551       0-30.6161 34.2721 60.5825       0
GRID        3552       0-12.5255 37.1910 55.5533       0
GRID        3553       0-16.4821 35.3460 55.0000       0
GRID        3554       0-20.4387 33.5010 55.5533       0
GRID        3555       0-8.56892 39.0360 56.1066       0
GRID        3556       0-.339363 42.8735 59.8711       0
GRID        3557       0-4.45414 40.9547 57.9888       0
GRID        3558       0 3.37859 44.6072 63.2292       0
GRID        3559       0 9.79741 47.6003 71.1782       0
GRID        3560       0 7.09653 46.3409 66.5872       0
GRID        3561       0 13.7731 49.4542 80.9684       0
GRID        3562       0 12.4983 48.8598 75.7692       0
GRID        3563       0 14.8854 49.9729 91.2270       0
GRID        3564       0 15.0479 50.0487 86.1675       0
GRID        3565       0 13.4492 49.3032 100.646       0
GRID        3566       0 14.7228 49.8971 96.2864       0
GRID        3567       0 8.01905 46.7711 112.230       0
GRID        3568       0 10.0973 47.7402 108.618       0
GRID        3569       0 12.1755 48.7093 105.005       0
GRID        3570       0 4.85662 45.2964 115.457       0
GRID        3571       0-2.52008 41.8566 120.995       0
GRID        3572       0 1.69419 43.8218 118.684       0
GRID        3573       0-16.4821 35.3460 125.000       0
GRID        3574       0-11.6082 37.6187 124.153       0
GRID        3575       0-6.73434 39.8915 123.306       0
GRID        3576       0-21.3560 33.0733 124.153       0
GRID        3577       0-30.4441 28.8354 120.995       0
GRID        3578       0-26.2299 30.8005 123.306       0
GRID        3579       0-37.8208 25.3956 115.457       0
GRID        3580       0-34.6584 26.8703 118.684       0
GRID        3581       0-43.0615 22.9518 108.618       0
GRID        3582       0-40.9833 23.9209 112.230       0
GRID        3583       0-46.4134 21.3888 100.646       0
GRID        3584       0-45.1398 21.9827 105.005       0
GRID        3585       0-47.8496 20.7191 91.2270       0
GRID        3586       0-47.6870 20.7949 96.2864       0
GRID        3587       0-46.7373 21.2378 80.9684       0
GRID        3588       0-48.0121 20.6433 86.1675       0
GRID        3589       0-40.0608 24.3511 66.5872       0
GRID        3590       0-42.7616 23.0917 71.1782       0
GRID        3591       0-45.4625 21.8322 75.7692       0
GRID        3592       0-36.3428 26.0848 63.2292       0
GRID        3593       0-32.6249 27.8185 59.8711       0
GRID        3594       0-28.5101 29.7373 57.9888       0
GRID        3595       0-50.5612 118.759 55.5533       0
GRID        3596       0-54.5178 116.914 55.0000       0
GRID        3597       0-58.4744 115.069 55.5533       0
GRID        3598       0-46.6046 120.604 56.1066       0
GRID        3599       0-78.0964 105.919 66.5872       0
GRID        3600       0-74.3785 107.653 63.2292       0
GRID        3601       0-70.6605 109.386 59.8711       0
GRID        3602       0-66.5457 111.305 57.9888       0
GRID        3603       0-83.4981 103.400 75.7692       0
GRID        3604       0-80.7973 104.659 71.1782       0
GRID        3605       0-86.0478 102.211 86.1675       0
GRID        3606       0-84.7730 102.805 80.9684       0
GRID        3607       0-85.7227 102.363 96.2864       0
GRID        3608       0-85.8852 102.287 91.2270       0
GRID        3609       0-83.1754 103.550 105.005       0
GRID        3610       0-84.4490 102.957 100.646       0
GRID        3611       0-79.0189 105.489 112.230       0
GRID        3612       0-81.0972 104.520 108.618       0
GRID        3613       0-72.6941 108.438 118.684       0
GRID        3614       0-75.8565 106.963 115.457       0
GRID        3615       0-64.2655 112.368 123.306       0
GRID        3616       0-68.4798 110.403 120.995       0
GRID        3617       0-59.3916 114.641 124.153       0
GRID        3618       0-44.7700 121.459 123.306       0
GRID        3619       0-49.6439 119.186 124.153       0
GRID        3620       0-54.5178 116.914 125.000       0
GRID        3621       0-36.3415 125.389 118.684       0
GRID        3622       0-40.5557 123.424 120.995       0
GRID        3623       0-33.1790 126.864 115.457       0
GRID        3624       0-25.8601 130.277 105.005       0
GRID        3625       0-27.9384 129.308 108.618       0
GRID        3626       0-30.0166 128.339 112.230       0
GRID        3627       0-23.3128 131.465 96.2864       0
GRID        3628       0-24.5865 130.871 100.646       0
GRID        3629       0-22.9877 131.616 86.1675       0
GRID        3630       0-23.1503 131.541 91.2270       0
GRID        3631       0-24.2625 131.022 80.9684       0
GRID        3632       0-28.2382 129.168 71.1782       0
GRID        3633       0-25.5374 130.427 75.7692       0
GRID        3634       0-38.3750 124.441 59.8711       0
GRID        3635       0-34.6571 126.175 63.2292       0
GRID        3636       0-30.9391 127.909 66.5872       0
GRID        3637       0-42.4898 122.522 57.9888       0
GRID        3638       0 9.22323 34.1531 111.052       0
GRID        3639       0 19.4535 17.8230 111.052       0
GRID        3640       0 16.8740 21.9405 111.052       0
GRID        3641       0 11.7589 30.1055 111.052       0
GRID        3642       0 14.3384 25.9880 111.052       0
GRID        3643       0-26.1577-3.44583 111.052       0
GRID        3644       0-27.6538 1.17683 111.052       0
GRID        3645       0-32.0914 14.8878 111.052       0
GRID        3646       0-30.6207 10.3436 111.052       0
GRID        3647       0-29.1245 5.72098 111.052       0
GRID        3648       0 19.4535 17.8230 68.9477       0
GRID        3649       0 16.8740 21.9405 68.9477       0
GRID        3650       0 9.22323 34.1531 68.9477       0
GRID        3651       0 11.7589 30.1055 68.9477       0
GRID        3652       0 14.3384 25.9880 68.9477       0
GRID        3653       0-32.0914 14.8878 68.9477       0
GRID        3654       0-26.1577-3.44583 68.9477       0
GRID        3655       0-27.6538 1.17683 68.9477       0
GRID        3656       0-30.6207 10.3436 68.9477       0
GRID        3657       0-29.1245 5.72098 68.9477       0
GRID        3658       0 15.6922 26.7003 100.052       0
GRID        3659       0 20.5230 18.4930 105.079       0
GRID        3660       0 20.9810 18.7542 95.0262       0
GRID        3661       0 10.3977 34.6556 105.079       0
GRID        3662       0 10.8672 34.8984 95.0262       0
GRID        3663       0 19.4870 20.6428 100.052       0
GRID        3664       0 16.7282 24.5505 105.079       0
GRID        3665       0 17.1862 24.8117 95.0262       0
GRID        3666       0 14.1925 28.5981 105.079       0
GRID        3667       0 11.8974 32.7578 100.052       0
GRID        3668       0 14.6621 28.8409 95.0262       0
GRID        3669       0-30.5404 5.14168 100.052       0
GRID        3670       0-27.3584-3.83444 105.079       0
GRID        3671       0-27.8529-4.01737 95.0262       0
GRID        3672       0-33.2312 14.3111 105.079       0
GRID        3673       0-33.7190 14.1074 95.0262       0
GRID        3674       0-28.3393-1.65901 100.052       0
GRID        3675       0-29.5594 2.96625 105.079       0
GRID        3676       0-30.0540 2.78332 95.0262       0
GRID        3677       0-31.0302 7.51040 105.079       0
GRID        3678       0-32.7414 11.9424 100.052       0
GRID        3679       0-31.5180 7.30676 95.0262       0
GRID        3680       0 15.6922 26.7003 79.9477       0
GRID        3681       0 20.5230 18.4930 74.9215       0
GRID        3682       0 20.9810 18.7542 84.9738       0
GRID        3683       0 10.3977 34.6556 74.9215       0
GRID        3684       0 10.8672 34.8984 84.9738       0
GRID        3685       0 19.4870 20.6428 79.9477       0
GRID        3686       0 16.7282 24.5505 74.9215       0
GRID        3687       0 17.1862 24.8117 84.9738       0
GRID        3688       0 14.1925 28.5981 74.9215       0
GRID        3689       0 11.8974 32.7578 79.9477       0
GRID        3690       0 14.6621 28.8409 84.9738       0
GRID        3691       0-30.5404 5.14168 79.9477       0
GRID        3692       0-27.3584-3.83444 74.9215       0
GRID        3693       0-27.8529-4.01737 84.9738       0
GRID        3694       0-33.2312 14.3111 74.9215       0
GRID        3695       0-33.7190 14.1074 84.9738       0
GRID        3696       0-28.3393-1.65901 79.9477       0
GRID        3697       0-29.5594 2.96625 74.9215       0
GRID        3698       0-30.0540 2.78332 84.9738       0
GRID        3699       0-31.0302 7.51040 74.9215       0
GRID        3700       0-32.7414 11.9424 79.9477       0
GRID        3701       0-31.5180 7.30676 84.9738       0
GRID        3702       0-10.4124 32.6595 61.0533       0
GRID        3703       0-14.3690 30.8145 60.5000       0
GRID        3704       0-18.3256 28.9695 61.0533       0
GRID        3705       0-37.5773 19.9923 68.1889       0
GRID        3706       0-35.7533 20.8428 66.2936       0
GRID        3707       0-32.0353 22.5765 62.9356       0
GRID        3708       0-27.2379 24.8136 62.9356       0
GRID        3709       0-40.2781 18.7329 72.7799       0
GRID        3710       0-40.5199 18.6201 77.8323       0
GRID        3711       0 8.83921 41.6366 68.1889       0
GRID        3712       0 7.01522 40.7861 66.2936       0
GRID        3713       0 3.29728 39.0524 62.9356       0
GRID        3714       0-1.50018 36.8153 62.9356       0
GRID        3715       0 11.5401 42.8961 72.7799       0
GRID        3716       0 11.7819 43.0088 77.8323       0
GRID        3717       0 13.2985 43.7161 88.0838       0
GRID        3718       0 13.0567 43.6033 83.0314       0
GRID        3719       0 12.8942 43.5275 98.1955       0
GRID        3720       0 7.47648 41.0012 113.115       0
GRID        3721       0 9.30046 41.8517 111.220       0
GRID        3722       0 11.3787 42.8208 107.607       0
GRID        3723       0 11.6205 42.9336 102.555       0
GRID        3724       0 4.31405 39.5265 116.342       0
GRID        3725       0-.483411 37.2894 116.342       0
GRID        3726       0-38.0385 19.7772 111.220       0
GRID        3727       0-36.2145 20.6277 113.115       0
GRID        3728       0-33.0521 22.1024 116.342       0
GRID        3729       0-28.2546 24.3395 116.342       0
GRID        3730       0-40.1168 18.8081 107.607       0
GRID        3731       0-40.3586 18.6953 102.555       0
GRID        3732       0-42.0366 17.9129 88.0838       0
GRID        3733       0-41.8740 17.9887 93.1432       0
GRID        3734       0-41.6322 18.1014 98.1955       0
GRID        3735       0-41.7948 18.0256 83.0314       0
GRID        3736       0-5.61496 34.8965 61.0533       0
GRID        3737       0-4.69767 35.3243 118.653       0
GRID        3738       0-14.3690 30.8145 119.500       0
GRID        3739       0-9.49513 33.0872 118.653       0
GRID        3740       0-19.2429 28.5417 118.653       0
GRID        3741       0-24.0404 26.3046 118.653       0
GRID        3742       0-23.1231 26.7324 61.0533       0
GRID        3743       0-36.0747 19.4540 105.131       0
GRID        3744       0-36.5570 19.2291 95.0523       0
GRID        3745       0-36.3165 19.3413 100.079       0
GRID        3746       0-34.9602 20.1092 111.105       0
GRID        3747       0-28.3388 23.1969 113.000       0
GRID        3748       0 .445981 36.6194 113.000       0
GRID        3749       0-4.35148 34.3823 113.000       0
GRID        3750       0-23.5413 25.4340 113.000       0
GRID        3751       0-13.9464 29.9082 113.000       0
GRID        3752       0-9.14894 32.1452 113.000       0
GRID        3753       0-18.7439 27.6711 113.000       0
GRID        3754       0 7.06743 39.7071 111.105       0
GRID        3755       0 8.28569 40.1396 105.131       0
GRID        3756       0 8.76806 40.3645 95.0523       0
GRID        3757       0 8.52750 40.2524 100.079       0
GRID        3758       0 8.28569 40.1396 74.8692       0
GRID        3759       0 8.76806 40.3645 84.9477       0
GRID        3760       0 8.52750 40.2524 79.9215       0
GRID        3761       0 6.22115 39.1769 67.9477       0
GRID        3762       0 .445981 36.6194 67.0000       0
GRID        3763       0-4.35148 34.3823 67.0000       0
GRID        3764       0-28.3388 23.1969 67.0000       0
GRID        3765       0-23.5413 25.4340 67.0000       0
GRID        3766       0-9.14894 32.1452 67.0000       0
GRID        3767       0-18.7439 27.6711 67.0000       0
GRID        3768       0-13.9464 29.9082 67.0000       0
GRID        3769       0-34.9602 20.1092 68.8953       0
GRID        3770       0-36.0747 19.4540 74.8692       0
GRID        3771       0-36.5570 19.2291 84.9477       0
GRID        3772       0-36.3165 19.3413 79.9215       0
GRID        3773       0-86.1939 42.3381 73.0000       0
GRID        3774       0-134.653 101.319 73.0000       0
GRID        3775       0-94.6002 48.5526 73.0000       0
GRID        3776       0-97.4611 52.3216 73.0000       0
GRID        3777       0-131.792 97.5503 73.0000       0
GRID        3778       0-100.322 56.0907 73.0000       0
GRID        3779       0-106.044 63.6288 73.0000       0
GRID        3780       0-103.183 59.8597 73.0000       0
GRID        3781       0-114.627 74.9360 73.0000       0
GRID        3782       0-111.766 71.1669 73.0000       0
GRID        3783       0-108.905 67.3979 73.0000       0
GRID        3784       0-117.488 78.7050 73.0000       0
GRID        3785       0-126.070 90.0122 73.0000       0
GRID        3786       0-123.209 86.2431 73.0000       0
GRID        3787       0-120.348 82.4741 73.0000       0
GRID        3788       0-128.931 93.7812 73.0000       0
GRID        3789       0-121.856 122.699 73.0000       0
GRID        3790       0-125.999 125.048 73.0000       0
GRID        3791       0-138.731 109.692 73.0000       0
GRID        3792       0-139.948 114.297 73.0000       0
GRID        3793       0-135.188 122.546 73.0000       0
GRID        3794       0-137.568 118.421 73.0000       0
GRID        3795       0-130.593 123.797 73.0000       0
GRID        3796       0-41.0151 36.0947 69.5158       0
GRID        3797       0-68.3799 97.4631 68.3657       0
GRID        3798       0-18.9878 74.4967 63.6139       0
GRID        3799       0-28.0491 75.5856 60.7177       0
GRID        3800       0-36.6665 76.7817 60.0102       0
GRID        3801       0-45.2874 77.9031 61.1201       0
GRID        3802       0-54.0803 79.1507 64.3525       0
GRID        3803       0-41.1658 86.1139 60.0140       0
GRID        3804       0-37.4022 94.8774 60.6474       0
GRID        3805       0-33.1862 104.435 63.4984       0
GRID        3806       0-28.1516 93.9863 63.5769       0
GRID        3807       0-32.6059 85.2027 60.7032       0
GRID        3808       0-23.5011 84.1946 63.6182       0
GRID        3809       0-57.9916 88.2560 64.1709       0
GRID        3810       0-49.4945 86.8020 61.1348       0
GRID        3811       0-42.7621 104.880 60.5213       0
GRID        3812       0-45.8015 94.9758 60.0314       0
GRID        3813       0-51.3371 102.775 60.1598       0
GRID        3814       0-60.5999 98.2773 63.1532       0
GRID        3815       0-52.9927 94.2415 61.1423       0
GRID        3816       0-14.5403 64.6768 63.5497       0
GRID        3817       0-23.6224 65.9158 60.7011       0
GRID        3818       0-32.2158 67.2198 60.0104       0
GRID        3819       0-40.9093 68.5273 61.1185       0
GRID        3820       0-49.7915 69.8422 64.3810       0
GRID        3821       0-45.4027 60.3508 64.4015       0
GRID        3822       0-36.4850 58.8734 61.1384       0
GRID        3823       0-41.0093 50.7104 64.4582       0
GRID        3824       0-9.98673 54.0300 63.3536       0
GRID        3825       0-19.4358 56.3212 60.6450       0
GRID        3826       0-27.8052 57.5088 60.0134       0
GRID        3827       0-36.8518 41.1220 64.6356       0
GRID        3828       0-31.9491 48.7376 61.1879       0
GRID        3829       0-23.4053 47.8491 60.0164       0
GRID        3830       0-16.5389 48.2741 60.4922       0
GRID        3831       0-49.4687 35.9113 94.5231       0
GRID        3832       0-75.9874 92.8853 94.8033       0
GRID        3833       0-54.1058 51.2782 102.294       0
GRID        3834       0-53.7895 58.7990 108.132       0
GRID        3835       0-52.7714 66.3372 112.545       0
GRID        3836       0-52.0051 74.2488 115.531       0
GRID        3837       0-51.7377 83.1636 117.606       0
GRID        3838       0-51.2206 93.0183 119.145       0
GRID        3839       0-50.4790 103.300 119.927       0
GRID        3840       0-66.7724 94.9136 111.993       0
GRID        3841       0-59.2860 88.7578 115.237       0
GRID        3842       0-59.2181 99.0249 117.573       0
GRID        3843       0-72.1844 91.1449 103.278       0
GRID        3844       0-65.0883 84.6336 108.993       0
GRID        3845       0-58.3729 79.5194 112.970       0
GRID        3846       0-67.7932 80.0750 101.757       0
GRID        3847       0-62.1821 75.4647 107.365       0
GRID        3848       0-57.1026 72.3805 111.263       0
GRID        3849       0-59.1080 61.0715 101.374       0
GRID        3850       0-58.5153 67.2129 107.131       0
GRID        3851       0-63.5808 70.4701 101.173       0
GRID        3852       0-4.56770 56.4119 112.625       0
GRID        3853       0-11.6076 62.9367 115.328       0
GRID        3854       0-19.0485 69.2693 117.491       0
GRID        3855       0-26.8170 75.4739 119.023       0
GRID        3856       0-34.8273 81.5004 119.862       0
GRID        3857       0-42.9898 87.3237 119.929       0
GRID        3858       0-47.9457 49.8892 109.990       0
GRID        3859       0-39.9124 51.5033 116.314       0
GRID        3860       0-30.3463 54.9102 119.691       0
GRID        3861       0-20.3752 59.0540 119.289       0
GRID        3862       0-45.5145 68.1332 117.292       0
GRID        3863       0-36.4605 71.5011 119.867       0
GRID        3864       0-44.1771 77.5264 119.105       0
GRID        3865       0-28.4788 65.3201 119.946       0
GRID        3866       0-46.9503 59.0892 114.310       0
GRID        3867       0-38.2859 61.5833 118.719       0
GRID        3868       0-12.3866 52.7652 117.882       0
GRID        3869       0-47.7528 39.8807 104.204       0
GRID        3870       0-22.0110 48.4686 119.995       0
GRID        3871       0-31.9110 44.3016 118.213       0
GRID        3872       0-40.6392 41.1811 112.860       0
GRID        3873       0-33.5330 91.6141 118.821       0
GRID        3874       0-32.7733 101.663 116.909       0
GRID        3875       0-32.7285 111.540 114.384       0
GRID        3876       0-41.3038 107.612 118.901       0
GRID        3877       0-41.9179 97.4835 119.828       0
GRID        3878       0 .717534 59.1820 105.540       0
GRID        3879       0-5.21792 66.0265 109.050       0
GRID        3880       0-11.4904 72.5955 112.120       0
GRID        3881       0-18.2482 79.1375 114.782       0
GRID        3882       0-25.5996 85.5181 117.066       0
GRID        3883       0-25.0303 95.3550 114.285       0
GRID        3884       0-25.2127 104.981 110.905       0
GRID        3885       0-26.1578 114.427 107.096       0
GRID        3886       0-18.0987 88.6714 111.354       0
GRID        3887       0-18.7586 97.9339 107.471       0
GRID        3888       0-20.1706 106.952 103.243       0
GRID        3889       0-22.1038 115.911 97.8553       0
GRID        3890       0 3.84039 61.5736 95.4398       0
GRID        3891       0-1.50978 68.5100 101.792       0
GRID        3892       0-6.55982 74.8153 105.521       0
GRID        3893       0-11.9457 81.7049 108.389       0
GRID        3894       0-14.9006 99.3143 99.4659       0
GRID        3895       0-13.6270 100.160 91.1105       0
GRID        3896       0-17.2918 107.560 93.5842       0
GRID        3897       0-13.0089 90.5348 104.116       0
GRID        3898       0-7.88902 82.7963 101.174       0
GRID        3899       0-9.77098 91.2508 94.1701       0
GRID        3900       0-4.87830 81.1402 92.7889       0
GRID        3901       0-3.95499 76.0403 99.2090       0
GRID        3902       0-.702957 72.1183 93.0805       0
GRID        3903       0-45.7898 35.2972 76.0941       0
GRID        3904       0-48.8799 34.8072 85.0575       0
GRID        3905       0-77.1115 94.5044 88.2827       0
GRID        3906       0-76.2835 96.3686 80.4311       0
GRID        3907       0-74.6579 95.9839 77.3218       0
GRID        3908       0-75.3202 91.0896 91.3121       0
GRID        3909       0-74.3075 89.0445 94.0683       0
GRID        3910       0-70.2104 82.6394 97.5450       0
GRID        3911       0-67.8667 77.6135 97.5450       0
GRID        3912       0-69.9888 85.6100 102.517       0
GRID        3913       0-72.4059 88.1743 98.3055       0
GRID        3914       0-50.9929 39.1835 89.9834       0
GRID        3915       0-50.6985 38.6315 85.2506       0
GRID        3916       0-49.1743 35.3592 89.7903       0
GRID        3917       0-49.3481 38.7545 81.0980       0
GRID        3918       0-53.9922 48.1374 97.8136       0
GRID        3919       0-56.3358 53.1633 97.8136       0
GRID        3920       0-48.6107 37.8960 99.3635       0
GRID        3921       0-50.8157 42.4386 98.7686       0
GRID        3922       0-51.6736 40.4539 93.9282       0
GRID        3923       0-56.6069 56.1749 101.834       0
GRID        3924       0-58.8369 58.0599 97.3539       0
GRID        3925       0 3.57084 53.2215 74.6332       0
GRID        3926       0 1.34031 52.1814 71.2705       0
GRID        3927       0-7.94468 58.7962 66.2223       0
GRID        3928       0-5.69430 53.9702 66.2223       0
GRID        3929       0-2.01101 50.6186 67.4076       0
GRID        3930       0-6.30344 50.6784 64.5390       0
GRID        3931       0 2.50542 64.2171 89.5381       0
GRID        3932       0 4.75580 59.3911 89.5381       0
GRID        3933       0 6.11689 57.0181 94.5388       0
GRID        3934       0-33.9958 115.091 66.3174       0
GRID        3935       0-23.3356 120.062 88.2397       0
GRID        3936       0-13.6175 45.9175 60.8931       0
GRID        3937       0-17.5671 44.0758 60.2461       0
GRID        3938       0-24.9498 42.0216 60.6551       0
GRID        3939       0-21.0003 43.8633 60.0082       0
GRID        3940       0-19.9721 48.0616 60.2543       0
GRID        3941       0-69.9391 94.4494 71.8377       0
GRID        3942       0-67.6479 94.0274 69.1828       0
GRID        3943       0-62.4537 89.4238 67.0855       0
GRID        3944       0-60.2419 84.6806 67.0855       0
GRID        3945       0-64.4899 97.8702 65.7594       0
GRID        3946       0-63.7579 94.4345 66.5766       0
GRID        3947       0-42.9035 46.9348 67.2291       0
GRID        3948       0-45.1153 51.6780 67.2291       0
GRID        3949       0-47.8030 38.9995 76.6163       0
GRID        3950       0-45.2938 39.2282 73.0470       0
GRID        3951       0-38.9334 38.6083 67.0757       0
GRID        3952       0-42.9064 39.6269 69.7579       0
GRID        3953       0-40.8247 42.1405 67.3178       0
GRID        3954       0-43.4024 35.6960 72.8049       0
GRID        3955       0-38.9305 45.9162 64.5469       0
GRID        3956       0-77.7788 96.3000 91.7739       0
GRID        3957       0-63.4169 67.7851 97.2531       0
GRID        3958       0-65.7605 72.8110 97.2531       0
GRID        3959       0-65.6870 75.2726 101.465       0
GRID        3960       0-64.9877 77.7699 104.561       0
GRID        3961       0-62.8814 72.9674 104.269       0
GRID        3962       0-61.1805 63.0858 97.3539       0
GRID        3963       0-58.8116 64.1422 104.253       0
GRID        3964       0-61.0480 68.8415 104.152       0
GRID        3965       0-61.3444 65.7708 101.274       0
GRID        3966       0 5.49288 54.1178 79.6049       0
GRID        3967       0 6.79889 54.7268 83.5149       0
GRID        3968       0-30.7963 108.129 66.2947       0
GRID        3969       0-28.5459 103.303 66.2947       0
GRID        3970       0-36.3857 111.398 63.5211       0
GRID        3971       0-23.7783 93.2522 66.3339       0
GRID        3972       0-26.0286 98.0782 66.3339       0
GRID        3973       0-30.6689 99.2108 63.5377       0
GRID        3974       0-19.2026 83.5304 66.3546       0
GRID        3975       0-21.4530 88.3564 66.3546       0
GRID        3976       0-25.8263 89.0904 63.5976       0
GRID        3977       0-14.6956 73.8555 66.3524       0
GRID        3978       0-16.9460 78.6815 66.3524       0
GRID        3979       0-21.2444 79.3456 63.6161       0
GRID        3980       0-10.2215 64.1196 66.3203       0
GRID        3981       0-12.4719 68.9455 66.3203       0
GRID        3982       0-16.7641 69.5867 63.5818       0
GRID        3983       0-12.2635 59.3534 63.4517       0
GRID        3984       0-2.01664 74.3154 88.3584       0
GRID        3985       0 .233747 69.4895 88.3584       0
GRID        3986       0 1.56872 66.8459 94.2601       0
GRID        3987       0-6.35470 83.6523 88.2126       0
GRID        3988       0-4.10431 78.8264 88.2126       0
GRID        3989       0-2.79063 76.6293 92.9347       0
GRID        3990       0-11.0514 93.5336 88.9032       0
GRID        3991       0-8.80103 88.7077 88.9032       0
GRID        3992       0-7.32464 86.1955 93.4795       0
GRID        3993       0-15.2298 102.814 87.3734       0
GRID        3994       0-12.9794 97.9884 87.3734       0
GRID        3995       0-11.6990 95.7057 92.6403       0
GRID        3996       0-19.3126 111.340 88.6103       0
GRID        3997       0-17.0622 106.514 88.6103       0
GRID        3998       0-15.4594 103.860 92.3474       0
GRID        3999       0-21.7186 115.516 90.7458       0
GRID        4000       0-23.7208 120.457 95.3491       0
GRID        4001       0-19.6978 111.736 95.7198       0
GRID        4002       0-24.9473 119.886 100.300       0
GRID        4003       0-29.8230 117.815 109.322       0
GRID        4004       0-26.9742 119.144 104.920       0
GRID        4005       0-24.1308 115.169 102.476       0
GRID        4006       0-37.1383 114.492 115.944       0
GRID        4007       0-33.1083 116.371 112.966       0
GRID        4008       0-29.4431 112.984 110.740       0
GRID        4009       0-41.4259 112.528 118.203       0
GRID        4010       0-45.8048 110.486 119.406       0
GRID        4011       0-37.0161 109.576 116.643       0
GRID        4012       0-54.4404 106.443 119.594       0
GRID        4013       0-50.3924 108.330 119.919       0
GRID        4014       0-45.8914 105.456 119.414       0
GRID        4015       0-62.8478 102.422 116.621       0
GRID        4016       0-58.8100 104.305 118.417       0
GRID        4017       0-54.8486 101.163 118.750       0
GRID        4018       0-70.2069 98.6964 110.363       0
GRID        4019       0-66.6249 100.367 113.831       0
GRID        4020       0-62.9953 96.9692 114.783       0
GRID        4021       0-75.2391 95.7274 101.222       0
GRID        4022       0-72.9129 96.8121 106.005       0
GRID        4023       0-69.4784 93.0292 107.635       0
GRID        4024       0-77.1406 96.5976 96.9845       0
GRID        4025       0-74.0859 92.0151 99.0405       0
GRID        4026       0-72.6647 96.9133 73.4207       0
GRID        4027       0-67.7759 101.480 66.5881       0
GRID        4028       0-71.1055 99.9269 69.9487       0
GRID        4029       0-59.4088 103.974 61.9234       0
GRID        4030       0-63.8859 101.887 63.9818       0
GRID        4031       0-49.8778 108.508 60.2420       0
GRID        4032       0-54.7775 106.223 60.4268       0
GRID        4033       0-55.9685 100.526 61.6565       0
GRID        4034       0-41.1737 111.620 62.0326       0
GRID        4035       0-45.5903 109.560 60.4227       0
GRID        4036       0-47.0496 103.827 60.3406       0
GRID        4037       0-37.9741 104.657 62.0099       0
GRID        4038       0-10.3415 48.7954 62.3238       0
GRID        4039       0-13.2628 51.1520 61.9229       0
GRID        4040       0 4.97939 56.4876 98.9735       0
GRID        4041       0 3.41796 55.2919 104.023       0
GRID        4042       0 1.32228 54.3146 107.609       0
GRID        4043       0 2.27896 60.3778 100.490       0
GRID        4044       0-1.32033 52.9296 111.152       0
GRID        4045       0-4.66313 51.3708 114.225       0
GRID        4046       0-1.92508 57.7970 109.082       0
GRID        4047       0-8.57259 49.5474 116.853       0
GRID        4048       0-13.0328 47.4676 118.694       0
GRID        4049       0-8.47716 54.5885 115.253       0
GRID        4050       0-17.8449 45.3193 119.750       0
GRID        4051       0-22.7612 43.0268 119.750       0
GRID        4052       0-17.1988 50.6169 118.938       0
GRID        4053       0-27.7113 40.9433 118.859       0
GRID        4054       0-32.1714 38.8635 117.019       0
GRID        4055       0-26.9610 46.3851 119.104       0
GRID        4056       0-36.5355 37.3032 114.342       0
GRID        4057       0-39.8783 35.7445 111.269       0
GRID        4058       0-36.2751 42.7413 115.536       0
GRID        4059       0-45.5308 34.1171 103.356       0
GRID        4060       0-43.4351 35.0943 106.941       0
GRID        4061       0-44.1960 40.5309 108.532       0
GRID        4062       0-47.5262 31.6019 94.0805       0
GRID        4063       0-46.3887 32.1323 98.5152       0
GRID        4064       0-46.9984 31.1587 84.2255       0
GRID        4065       0-47.2318 31.0499 89.3477       0
GRID        4066       0-45.4534 31.4037 79.7438       0
GRID        4067       0-43.5314 32.3000 74.7721       0
GRID        4068       0-47.3349 35.0522 80.5758       0
GRID        4069       0-37.7927 34.2615 67.6201       0
GRID        4070       0-41.1440 32.6987 71.4830       0
GRID        4071       0-31.6730 38.6581 62.9648       0
GRID        4072       0-35.7110 36.7751 65.1800       0
GRID        4073       0-29.2217 42.4659 61.2409       0
GRID        4074       0-34.4005 44.9298 62.9117       0
GRID        4075       0-49.5238 61.2415 67.2008       0
GRID        4076       0-47.3120 56.4982 67.2008       0
GRID        4077       0-43.2060 55.5306 64.4299       0
GRID        4078       0-53.9301 70.7304 67.1905       0
GRID        4079       0-51.7182 65.9872 67.1905       0
GRID        4080       0-47.5971 65.0965 64.3913       0
GRID        4081       0-58.2863 80.1279 67.1762       0
GRID        4082       0-56.0745 75.3847 67.1762       0
GRID        4083       0-51.9359 74.4965 64.3667       0
GRID        4084       0-56.0360 83.7033 64.2617       0
GRID        4085       0-59.2958 93.2667 63.6620       0
GRID        4086       0-23.5184 75.0411 62.1658       0
GRID        4087       0-25.7751 79.8901 62.1680       0
GRID        4088       0-21.3051 70.2062 62.1575       0
GRID        4089       0-25.8357 70.7507 60.7094       0
GRID        4090       0-19.0814 65.2963 62.1254       0
GRID        4091       0-32.3578 76.1837 60.3639       0
GRID        4092       0-34.6362 80.9922 60.3567       0
GRID        4093       0-30.3275 80.3942 60.7104       0
GRID        4094       0-34.4411 72.0008 60.0103       0
GRID        4095       0-30.1324 71.4027 60.3640       0
GRID        4096       0-28.0535 84.6986 62.1607       0
GRID        4097       0-27.9191 66.5678 60.3558       0
GRID        4098       0-43.2266 82.0085 60.5670       0
GRID        4099       0-38.9162 81.4478 60.0121       0
GRID        4100       0-40.9769 77.3424 60.5651       0
GRID        4101       0-38.7879 72.6545 60.5644       0
GRID        4102       0-43.0983 73.2152 61.1193       0
GRID        4103       0-36.8859 85.6583 60.3586       0
GRID        4104       0-36.5625 67.8736 60.5645       0
GRID        4105       0-49.6839 78.5269 62.7363       0
GRID        4106       0-51.7874 82.9764 62.7436       0
GRID        4107       0-47.3909 82.3526 61.1274       0
GRID        4108       0-47.5394 73.8726 62.7506       0
GRID        4109       0-45.3301 86.4579 60.5744       0
GRID        4110       0-45.3504 69.1848 62.7498       0
GRID        4111       0-53.7430 87.5290 62.6528       0
GRID        4112       0-35.0041 90.0401 60.6753       0
GRID        4113       0-39.2840 90.4956 60.3307       0
GRID        4114       0-41.6019 94.9266 60.3394       0
GRID        4115       0-43.4837 90.5449 60.0227       0
GRID        4116       0-47.6480 90.8889 60.5831       0
GRID        4117       0-35.2942 99.6564 62.0729       0
GRID        4118       0-32.7769 94.4319 62.1122       0
GRID        4119       0-40.0822 99.8785 60.5844       0
GRID        4120       0-30.3787 89.5945 62.1400       0
GRID        4121       0-44.2818 99.9277 60.2763       0
GRID        4122       0-51.2436 90.5218 61.1385       0
GRID        4123       0-55.4922 91.2488 62.6566       0
GRID        4124       0-56.7963 96.2594 62.1477       0
GRID        4125       0-49.3971 94.6087 60.5868       0
GRID        4126       0-48.5693 98.8754 60.0956       0
GRID        4127       0-52.1649 98.5082 60.6511       0
GRID        4128       0-21.5291 61.1185 60.6731       0
GRID        4129       0-16.9880 60.4990 62.0974       0
GRID        4130       0-14.7112 55.1756 61.9993       0
GRID        4131       0-25.7138 61.7123 60.3573       0
GRID        4132       0-30.0105 62.3643 60.0119       0
GRID        4133       0-23.6205 56.9150 60.3292       0
GRID        4134       0-34.3504 63.0466 60.5744       0
GRID        4135       0-38.6972 63.7004 61.1285       0
GRID        4136       0-32.1451 58.1911 60.5759       0
GRID        4137       0-43.1560 64.4391 62.7600       0
GRID        4138       0-40.9439 59.6121 62.7699       0
GRID        4139       0-38.7472 54.7919 62.7983       0
GRID        4140       0-36.4792 49.7240 62.8231       0
GRID        4141       0-34.2171 53.8055 61.1631       0
GRID        4142       0-29.8771 53.1232 60.6006       0
GRID        4143       0-17.9873 52.2977 60.5686       0
GRID        4144       0-25.6052 52.6789 60.0149       0
GRID        4145       0-21.4205 52.0852 60.3307       0
GRID        4146       0-27.6772 48.2934 60.6021       0
GRID        4147       0-50.9293 45.5795 103.249       0
GRID        4148       0-53.9476 55.0386 105.213       0
GRID        4149       0-56.4487 59.9353 104.753       0
GRID        4150       0-51.0257 50.5837 106.142       0
GRID        4151       0-50.8676 54.3441 109.061       0
GRID        4152       0-47.8492 44.8850 107.097       0
GRID        4153       0-55.6434 66.7751 109.838       0
GRID        4154       0-56.1524 63.0060 107.632       0
GRID        4155       0-53.2805 62.5681 110.339       0
GRID        4156       0-50.3699 58.9441 111.221       0
GRID        4157       0-49.8608 62.7132 113.428       0
GRID        4158       0-47.4480 54.4892 112.150       0
GRID        4159       0-54.5538 73.3146 113.397       0
GRID        4160       0-54.9370 69.3588 111.904       0
GRID        4161       0-52.3883 70.2930 114.038       0
GRID        4162       0-49.1429 67.2352 114.919       0
GRID        4163       0-48.7598 71.1910 116.411       0
GRID        4164       0-57.8090 69.7967 109.197       0
GRID        4165       0-46.2324 63.6112 115.801       0
GRID        4166       0-51.8714 78.7062 116.568       0
GRID        4167       0-55.0553 81.3415 115.288       0
GRID        4168       0-55.1890 76.8841 114.250       0
GRID        4169       0-48.0911 75.8876 117.318       0
GRID        4170       0-47.9574 80.3450 118.355       0
GRID        4171       0-57.7377 75.9499 112.116       0
GRID        4172       0-44.8458 72.8298 118.198       0
GRID        4173       0-51.4791 88.0910 118.376       0
GRID        4174       0-55.2533 90.8881 117.191       0
GRID        4175       0-55.5119 85.9607 116.421       0
GRID        4176       0-47.3637 85.2437 118.768       0
GRID        4177       0-47.1052 90.1710 119.537       0
GRID        4178       0-58.8295 84.1386 114.103       0
GRID        4179       0-43.5834 82.4250 119.517       0
GRID        4180       0-55.2193 96.0216 118.359       0
GRID        4181       0-50.8498 98.1592 119.536       0
GRID        4182       0-46.5692 95.2509 119.487       0
GRID        4183       0-46.1984 100.392 119.877       0
GRID        4184       0-59.2521 93.8914 116.405       0
GRID        4185       0-42.4538 92.4036 119.879       0
GRID        4186       0-41.6108 102.548 119.365       0
GRID        4187       0-63.0292 91.8357 113.615       0
GRID        4188       0-65.9303 89.7736 110.493       0
GRID        4189       0-62.1872 86.6957 112.115       0
GRID        4190       0-68.6363 87.8892 106.135       0
GRID        4191       0-61.7306 82.0765 110.981       0
GRID        4192       0-66.4407 82.3543 105.375       0
GRID        4193       0-60.2775 77.4920 110.167       0
GRID        4194       0-63.6352 80.0491 108.179       0
GRID        4195       0-59.6423 73.9226 109.314       0
GRID        4196       0-60.3487 71.3388 107.248       0
GRID        4197       0-8.08764 59.6743 113.976       0
GRID        4198       0-11.9971 57.8509 116.605       0
GRID        4199       0-4.89281 61.2192 110.838       0
GRID        4200       0-8.41275 64.4816 112.189       0
GRID        4201       0-2.25019 62.6043 107.295       0
GRID        4202       0-15.3280 66.1030 116.409       0
GRID        4203       0-19.7118 64.1616 118.390       0
GRID        4204       0-15.9914 60.9953 117.309       0
GRID        4205       0-15.2694 70.9324 114.805       0
GRID        4206       0-11.5490 67.7661 113.724       0
GRID        4207       0-16.3809 55.9096 118.585       0
GRID        4208       0-8.35415 69.3110 110.585       0
GRID        4209       0-23.7636 67.2947 118.719       0
GRID        4210       0-22.9327 72.3716 118.257       0
GRID        4211       0-27.6479 70.3970 119.485       0
GRID        4212       0-18.6483 74.2034 116.137       0
GRID        4213       0-22.5326 77.3057 116.903       0
GRID        4214       0-24.4270 62.1870 119.618       0
GRID        4215       0-14.8693 75.8665 113.451       0
GRID        4216       0-30.8222 78.4871 119.442       0
GRID        4217       0-35.6439 76.5007 119.864       0
GRID        4218       0-31.6387 73.4875 119.445       0
GRID        4219       0-26.2083 80.4960 118.044       0
GRID        4220       0-30.2134 83.5092 118.464       0
GRID        4221       0-32.4696 68.4106 119.906       0
GRID        4222       0-21.9239 82.3278 115.924       0
GRID        4223       0-38.9086 84.4120 119.895       0
GRID        4224       0-39.5022 79.5134 119.483       0
GRID        4225       0-34.1802 86.5572 119.341       0
GRID        4226       0-38.2614 89.4689 119.375       0
GRID        4227       0-40.3188 74.5137 119.486       0
GRID        4228       0-29.5663 88.5661 117.943       0
GRID        4229       0-37.7254 94.5488 119.325       0
GRID        4230       0-43.4313 55.2962 115.312       0
GRID        4231       0-43.9290 50.6962 113.152       0
GRID        4232       0-44.2924 45.5351 111.425       0
GRID        4233       0-40.2758 46.3422 114.587       0
GRID        4234       0-35.1293 53.2067 118.003       0
GRID        4235       0-34.3161 58.2467 119.205       0
GRID        4236       0-39.0991 56.5433 117.517       0
GRID        4237       0-35.9117 47.9024 117.264       0
GRID        4238       0-31.1287 49.6059 118.952       0
GRID        4239       0-42.6181 60.3362 116.514       0
GRID        4240       0-29.4126 60.1151 119.818       0
GRID        4241       0-25.3607 56.9821 119.490       0
GRID        4242       0-26.1786 51.6894 119.843       0
GRID        4243       0-21.1931 53.7613 119.642       0
GRID        4244       0-33.3824 63.4517 119.333       0
GRID        4245       0-40.9875 69.8171 118.579       0
GRID        4246       0-37.3732 66.5422 119.293       0
GRID        4247       0-41.9002 64.8582 118.006       0
GRID        4248       0-37.3456 99.5734 118.369       0
GRID        4249       0-33.1531 96.6387 117.865       0
GRID        4250       0-29.2816 93.4846 116.553       0
GRID        4251       0-28.9018 98.5092 115.597       0
GRID        4252       0-25.3149 90.4365 115.675       0
GRID        4253       0-37.0385 104.638 117.905       0
GRID        4254       0-32.7509 106.602 115.647       0
GRID        4255       0-28.9706 108.260 112.645       0
GRID        4256       0-28.9930 103.322 113.907       0
GRID        4257       0-25.1215 100.168 112.595       0
GRID        4258       0-25.6852 109.704 109.001       0
GRID        4259       0-.396124 63.8460 103.666       0
GRID        4260       0-3.36385 67.2682 105.421       0
GRID        4261       0 1.16530 65.0418 98.6160       0
GRID        4262       0-5.88887 70.4209 107.286       0
GRID        4263       0-9.02510 73.7054 108.820       0
GRID        4264       0-4.03480 71.6626 103.656       0
GRID        4265       0-11.7181 77.1502 110.254       0
GRID        4266       0-15.0970 80.4212 111.586       0
GRID        4267       0-9.25278 78.2601 106.955       0
GRID        4268       0-18.1734 83.9044 113.068       0
GRID        4269       0-21.8491 87.0947 114.210       0
GRID        4270       0-15.0222 85.1881 109.872       0
GRID        4271       0-21.5645 92.0132 112.820       0
GRID        4272       0-21.8944 96.6444 110.878       0
GRID        4273       0-21.9856 101.458 109.188       0
GRID        4274       0-18.4286 93.3026 109.413       0
GRID        4275       0-22.6916 105.966 107.074       0
GRID        4276       0-23.1642 110.690 105.169       0
GRID        4277       0-19.4646 102.443 105.357       0
GRID        4278       0-21.1372 111.431 100.549       0
GRID        4279       0-15.8837 94.2344 105.793       0
GRID        4280       0-15.5538 89.6031 107.735       0
GRID        4281       0-12.4773 86.1199 106.252       0
GRID        4282       0-16.8296 98.6241 103.469       0
GRID        4283       0-17.5356 103.133 101.354       0
GRID        4284       0-13.9547 94.9246 101.791       0
GRID        4285       0-18.7312 107.256 98.4134       0
GRID        4286       0-16.0962 103.437 96.5251       0
GRID        4287       0-1.10637 70.3142 97.4363       0
GRID        4288       0-5.25741 75.4278 102.365       0
GRID        4289       0-2.73239 72.2752 100.501       0
GRID        4290       0-2.32898 74.0793 96.1448       0
GRID        4291       0-7.22442 78.8058 103.347       0
GRID        4292       0-9.91738 82.2506 104.781       0
GRID        4293       0-5.92201 79.4183 100.192       0
GRID        4294       0-10.4489 86.6656 102.645       0
GRID        4295       0-14.2638 99.7374 95.2882       0
GRID        4296       0-12.3358 95.2826 96.8180       0
GRID        4297       0-11.3899 90.8928 99.1429       0
GRID        4298       0-8.83000 87.0236 97.6721       0
GRID        4299       0-6.38366 81.9683 96.9815       0
GRID        4300       0-4.41665 78.5903 95.9990       0
GRID        4301       0-70.7920 40.7907 73.0000       0
GRID        4302       0-76.1672 40.3010 73.0000       0
GRID        4303       0-61.3537 41.6506 74.2346       0
GRID        4304       0-66.3106 41.1990 73.0000       0
GRID        4305       0-54.9002 42.2386 77.8039       0
GRID        4306       0-51.7883 42.5221 73.5693       0
GRID        4307       0-56.8723 42.0589 74.2346       0
GRID        4308       0-84.7822 95.5433 73.5961       0
GRID        4309       0-89.1881 97.5282 73.0000       0
GRID        4310       0-98.5144 102.806 73.0000       0
GRID        4311       0-93.7301 99.8456 73.0000       0
GRID        4312       0-77.3032 93.1500 76.2510       0
GRID        4313       0-114.511 116.731 73.0000       0
GRID        4314       0-110.740 112.555 73.0000       0
GRID        4315       0-74.1672 92.1055 72.6549       0
GRID        4316       0-79.9721 93.8196 73.5961       0
GRID        4317       0-102.684 105.650 73.0000       0
GRID        4318       0-107.026 109.272 73.0000       0
GRID        4319       0-116.976 106.524 80.0000       0
GRID        4320       0-120.754 101.190 80.0000       0
GRID        4321       0-102.644 77.8357 80.0000       0
GRID        4322       0-94.1152 78.1135 80.0000       0
GRID        4323       0-97.7460 70.1365 80.0000       0
GRID        4324       0-94.2629 63.5273 80.0000       0
GRID        4325       0-89.5774 61.2113 80.0000       0
GRID        4326       0-84.4325 62.5788 80.0000       0
GRID        4327       0-89.7279 69.1603 80.0000       0
GRID        4328       0-114.082 92.8098 80.0000       0
GRID        4329       0-108.116 85.3711 80.0000       0
GRID        4330       0-98.8424 86.1162 80.0000       0
GRID        4331       0-111.044 99.7820 80.0000       0
GRID        4332       0-104.543 93.1984 80.0000       0
GRID        4333       0-102.967 96.5083 80.0000       0
GRID        4334       0-99.1615 94.2456 80.0000       0
GRID        4335       0-96.3114 90.7046 80.0000       0
GRID        4336       0-94.3515 86.5015 80.0000       0
GRID        4337       0-101.693 89.6573 80.0000       0
GRID        4338       0-118.802 111.928 80.0000       0
GRID        4339       0-121.711 115.265 80.0000       0
GRID        4340       0-122.399 116.989 80.0000       0
GRID        4341       0-128.280 119.348 80.0000       0
GRID        4342       0-124.307 117.763 80.0000       0
GRID        4343       0-133.963 114.322 80.0000       0
GRID        4344       0-133.443 110.076 80.0000       0
GRID        4345       0-132.653 108.253 80.0000       0
GRID        4346       0-129.792 104.484 80.0000       0
GRID        4347       0-128.178 103.809 80.0000       0
GRID        4348       0-83.1076 46.2854 80.0000       0
GRID        4349       0-86.8785 47.9483 80.0000       0
GRID        4350       0-90.5289 53.5406 80.0000       0
GRID        4351       0-87.6679 49.7715 80.0000       0
GRID        4352       0-74.2107 46.8751 80.0000       0
GRID        4353       0-79.5859 46.3854 80.0000       0
GRID        4354       0-81.4932 45.6105 80.0000       0
GRID        4355       0-73.5219 48.5984 80.0000       0
GRID        4356       0-75.4818 52.8015 80.0000       0
GRID        4357       0-76.1706 54.5247 80.0000       0
GRID        4358       0-116.011 108.867 80.0000       0
GRID        4359       0-119.767 109.585 80.0000       0
GRID        4360       0-109.782 102.467 80.0000       0
GRID        4361       0-106.217 99.8001 80.0000       0
GRID        4362       0-107.793 96.4902 80.0000       0
GRID        4363       0-112.748 105.838 80.0000       0
GRID        4364       0-114.010 103.153 80.0000       0
GRID        4365       0-120.455 107.862 80.0000       0
GRID        4366       0-133.173 116.145 80.0000       0
GRID        4367       0-129.894 118.673 80.0000       0
GRID        4368       0-121.819 96.8105 80.0000       0
GRID        4369       0-124.680 100.580 80.0000       0
GRID        4370       0-124.252 104.420 80.0000       0
GRID        4371       0-118.483 92.6202 80.0000       0
GRID        4372       0-115.622 88.8511 80.0000       0
GRID        4373       0-117.418 97.0001 80.0000       0
GRID        4374       0-112.639 85.1318 80.0000       0
GRID        4375       0-109.778 81.3627 80.0000       0
GRID        4376       0-111.099 89.0904 80.0000       0
GRID        4377       0-107.042 77.5950 80.0000       0
GRID        4378       0-104.181 73.8260 80.0000       0
GRID        4379       0-105.380 81.6034 80.0000       0
GRID        4380       0-101.732 69.9764 80.0000       0
GRID        4381       0-98.8714 66.2073 80.0000       0
GRID        4382       0-100.195 73.9861 80.0000       0
GRID        4383       0-94.2690 59.1337 80.0000       0
GRID        4384       0-97.1299 62.9028 80.0000       0
GRID        4385       0-96.0045 66.8319 80.0000       0
GRID        4386       0-87.3906 58.5994 80.0000       0
GRID        4387       0-91.9262 57.9757 80.0000       0
GRID        4388       0-91.9201 62.3693 80.0000       0
GRID        4389       0-78.1305 58.7278 80.0000       0
GRID        4390       0-81.2667 62.1234 80.0000       0
GRID        4391       0-83.2266 66.3265 80.0000       0
GRID        4392       0-80.0379 59.5027 80.0000       0
GRID        4393       0-83.2037 59.9581 80.0000       0
GRID        4394       0-87.8343 73.8204 80.0000       0
GRID        4395       0-85.8743 69.6173 80.0000       0
GRID        4396       0-87.0802 65.8695 80.0000       0
GRID        4397       0-90.0279 78.2970 80.0000       0
GRID        4398       0-91.9879 82.5001 80.0000       0
GRID        4399       0-91.9216 73.6369 80.0000       0
GRID        4400       0-96.4788 82.1149 80.0000       0
GRID        4401       0-84.8181 59.2831 80.0000       0
GRID        4402       0-87.0049 61.8950 80.0000       0
GRID        4403       0-122.344 105.195 80.0000       0
GRID        4404       0-118.865 103.857 80.0000       0
GRID        4405       0-115.899 100.486 80.0000       0
GRID        4406       0-112.563 96.2959 80.0000       0
GRID        4407       0-95.9306 74.1250 80.0000       0
GRID        4408       0-98.3794 77.9746 80.0000       0
GRID        4409       0-100.743 81.9760 80.0000       0
GRID        4410       0-103.479 85.7437 80.0000       0
GRID        4411       0-93.7370 69.6484 80.0000       0
GRID        4412       0-91.9954 66.3438 80.0000       0
GRID        4413       0-89.6526 65.1858 80.0000       0
GRID        4414       0-109.312 93.0041 80.0000       0
GRID        4415       0-106.329 89.2847 80.0000       0
GRID        4416       0-126.300 107.807 74.9989       0
GRID        4417       0-131.831 110.050 74.9995       0
GRID        4418       0-132.151 114.619 74.9987       0
GRID        4419       0-129.573 117.222 74.9984       0
GRID        4420       0-125.706 117.291 74.9953       0
GRID        4421       0-122.863 114.367 74.9979       0
GRID        4422       0-122.903 110.820 74.9995       0
GRID        4423       0-123.419 110.010 77.4997       0
GRID        4424       0-122.730 111.733 77.4997       0
GRID        4425       0-123.399 115.230 77.4989       0
GRID        4426       0-122.710 113.507 77.4989       0
GRID        4427       0-122.883 112.594 74.9987       0
GRID        4428       0-123.399 115.230 72.4989       0
GRID        4429       0-122.710 113.507 72.4989       0
GRID        4430       0-122.730 111.733 72.4997       0
GRID        4431       0-123.419 110.010 72.4997       0
GRID        4432       0-127.653 107.833 75.8328       0
GRID        4433       0-127.025 107.728 77.4994       0
GRID        4434       0-125.118 108.503 77.4994       0
GRID        4435       0-124.602 109.313 74.9992       0
GRID        4436       0-132.194 111.348 77.4997       0
GRID        4437       0-131.405 109.525 77.4997       0
GRID        4438       0-129.992 108.430 78.3333       0
GRID        4439       0-130.418 108.955 75.8331       0
GRID        4440       0-131.565 115.456 77.4993       0
GRID        4441       0-132.354 113.633 77.4993       0
GRID        4442       0-131.991 112.335 74.9991       0
GRID        4443       0-128.661 117.432 77.4992       0
GRID        4444       0-130.275 116.757 77.4992       0
GRID        4445       0-130.862 115.921 74.9986       0
GRID        4446       0-124.821 116.692 77.4977       0
GRID        4447       0-126.728 117.466 77.4977       0
GRID        4448       0-127.639 117.256 74.9969       0
GRID        4449       0-124.285 115.829 74.9966       0
GRID        4450       0-126.728 117.466 72.4977       0
GRID        4451       0-124.821 116.692 72.4977       0
GRID        4452       0-128.661 117.432 72.4992       0
GRID        4453       0-130.275 116.757 72.4992       0
GRID        4454       0-132.354 113.633 72.4993       0
GRID        4455       0-131.565 115.456 72.4993       0
GRID        4456       0-131.405 109.525 72.4997       0
GRID        4457       0-132.194 111.348 72.4997       0
GRID        4458       0-128.904 107.983 71.6667       0
GRID        4459       0-125.118 108.503 72.4994       0
GRID        4460       0-127.025 107.728 72.4994       0
GRID        4461       0-128.179 108.061 74.1661       0
GRID        4462       0-130.944 109.183 74.1664       0
GRID        4463       0-86.0562 49.7455 75.0011       0
GRID        4464       0-80.5257 47.5017 75.0005       0
GRID        4465       0-77.1280 50.5153 75.0013       0
GRID        4466       0-77.0883 54.0622 75.0016       0
GRID        4467       0-79.9293 56.9849 75.0047       0
GRID        4468       0-83.7976 56.9171 75.0021       0
GRID        4469       0-86.3769 54.3141 75.0005       0
GRID        4470       0-77.6441 49.7050 77.5007       0
GRID        4471       0-76.9553 51.4282 77.5007       0
GRID        4472       0-77.6243 54.9249 77.5008       0
GRID        4473       0-76.9355 53.2016 77.5008       0
GRID        4474       0-77.1081 52.2887 75.0014       0
GRID        4475       0-77.6243 54.9249 72.5008       0
GRID        4476       0-76.9355 53.2016 72.5008       0
GRID        4477       0-76.9553 51.4282 72.5007       0
GRID        4478       0-77.6441 49.7050 72.5007       0
GRID        4479       0-81.2504 47.4232 77.5003       0
GRID        4480       0-79.3430 48.1982 77.5003       0
GRID        4481       0-78.8269 49.0085 75.0009       0
GRID        4482       0-81.8779 47.5284 75.8336       0
GRID        4483       0-86.4195 51.0433 77.5006       0
GRID        4484       0-85.6300 49.2201 77.5006       0
GRID        4485       0-84.2169 48.1249 78.3333       0
GRID        4486       0-84.6432 48.6504 75.8339       0
GRID        4487       0-85.7903 55.1508 77.5003       0
GRID        4488       0-86.5798 53.3276 77.5003       0
GRID        4489       0-86.2166 52.0298 75.0008       0
GRID        4490       0-82.8863 57.1273 77.5011       0
GRID        4491       0-84.5007 56.4523 77.5011       0
GRID        4492       0-85.0873 55.6156 75.0013       0
GRID        4493       0-79.0448 56.3862 77.5023       0
GRID        4494       0-80.9522 57.1611 77.5023       0
GRID        4495       0-81.8634 56.9510 75.0034       0
GRID        4496       0-78.5088 55.5235 75.0031       0
GRID        4497       0-80.9522 57.1611 72.5023       0
GRID        4498       0-79.0448 56.3862 72.5023       0
GRID        4499       0-82.8863 57.1273 72.5011       0
GRID        4500       0-84.5007 56.4523 72.5011       0
GRID        4501       0-86.5798 53.3276 72.5003       0
GRID        4502       0-85.7903 55.1508 72.5003       0
GRID        4503       0-85.1695 48.8783 74.1672       0
GRID        4504       0-85.6300 49.2201 72.5006       0
GRID        4505       0-86.4195 51.0433 72.5006       0
GRID        4506       0-83.1289 47.6779 71.6667       0
GRID        4507       0-79.3430 48.1982 72.5003       0
GRID        4508       0-81.2504 47.4232 72.5003       0
GRID        4509       0-82.4042 47.7563 74.1669       0
GRID        4510       0-74.9178 46.1514 70.0000       0
GRID        4511       0-84.8916 45.1789 70.0000       0
GRID        4512       0-74.3459 54.0620 70.0000       0
GRID        4513       0-74.7167 50.4516 70.0000       0
GRID        4514       0-121.394 109.623 70.0000       0
GRID        4515       0-118.031 112.236 70.0000       0
GRID        4516       0-129.979 120.382 70.0000       0
GRID        4517       0-123.849 119.783 70.0000       0
GRID        4518       0-78.6014 59.7213 70.0000       0
GRID        4519       0-85.0093 59.6581 70.0000       0
GRID        4520       0-134.668 116.445 70.0000       0
GRID        4521       0-135.249 110.258 70.0000       0
GRID        4522       0-119.135 108.910 70.0000       0
GRID        4523       0-116.037 108.752 70.0000       0
GRID        4524       0-91.6621 54.4253 70.0000       0
GRID        4525       0-123.591 107.246 70.0000       0
GRID        4526       0-121.853 105.016 70.0000       0
GRID        4527       0-121.025 107.453 70.0000       0
GRID        4528       0-119.136 106.460 70.0000       0
GRID        4529       0-125.537 104.508 70.0000       0
GRID        4530       0-130.184 104.884 70.0000       0
GRID        4531       0-127.557 100.940 70.0000       0
GRID        4532       0-131.762 102.116 70.0000       0
GRID        4533       0-125.670 98.1038 70.0000       0
GRID        4534       0-124.920 101.126 70.0000       0
GRID        4535       0-120.674 104.055 70.0000       0
GRID        4536       0-122.068 103.165 70.0000       0
GRID        4537       0-123.910 102.911 70.0000       0
GRID        4538       0-123.695 104.762 70.0000       0
GRID        4539       0-126.547 102.724 70.0000       0
GRID        4540       0-121.642 88.3128 70.0000       0
GRID        4541       0-124.926 92.6400 70.0000       0
GRID        4542       0-127.787 96.4091 70.0000       0
GRID        4543       0-129.675 99.2451 70.0000       0
GRID        4544       0-130.973 103.500 70.0000       0
GRID        4545       0-133.849 104.986 70.0000       0
GRID        4546       0-134.638 103.602 70.0000       0
GRID        4547       0-129.659 101.528 70.0000       0
GRID        4548       0-131.777 99.8329 70.0000       0
GRID        4549       0-116.656 107.145 70.0000       0
GRID        4550       0-113.679 107.499 70.0000       0
GRID        4551       0-103.256 102.998 70.0000       0
GRID        4552       0-107.600 106.397 70.0000       0
GRID        4553       0-111.314 109.680 70.0000       0
GRID        4554       0-117.034 110.494 70.0000       0
GRID        4555       0-113.672 110.932 70.0000       0
GRID        4556       0-114.669 112.674 70.0000       0
GRID        4557       0-119.316 104.777 70.0000       0
GRID        4558       0-118.206 105.999 70.0000       0
GRID        4559       0-119.136 107.685 70.0000       0
GRID        4560       0-117.587 107.606 70.0000       0
GRID        4561       0-117.586 108.831 70.0000       0
GRID        4562       0-54.2505 47.4965 70.0000       0
GRID        4563       0-55.8816 44.6596 70.0000       0
GRID        4564       0-63.8836 43.9305 70.0000       0
GRID        4565       0-60.3630 44.2513 70.0000       0
GRID        4566       0-56.0357 61.3435 70.0000       0
GRID        4567       0-54.1928 57.3914 70.0000       0
GRID        4568       0-51.9809 52.6481 70.0000       0
GRID        4569       0-51.4909 47.4940 70.0000       0
GRID        4570       0-69.5992 88.5414 70.0000       0
GRID        4571       0-68.1999 87.4298 70.0000       0
GRID        4572       0-65.9881 82.6865 70.0000       0
GRID        4573       0-74.5592 89.6331 70.0000       0
GRID        4574       0-79.8487 91.1133 70.0000       0
GRID        4575       0-94.5616 53.3735 70.0000       0
GRID        4576       0-94.5839 57.5377 70.0000       0
GRID        4577       0-97.4834 56.4859 70.0000       0
GRID        4578       0-103.629 64.5821 70.0000       0
GRID        4579       0-100.344 60.2549 70.0000       0
GRID        4580       0-83.2937 62.2487 70.0000       0
GRID        4581       0-88.1448 60.0630 70.0000       0
GRID        4582       0-91.4712 57.4466 70.0000       0
GRID        4583       0-85.1065 57.8228 70.0000       0
GRID        4584       0-88.2420 58.2277 70.0000       0
GRID        4585       0-89.2224 53.3832 70.0000       0
GRID        4586       0-88.4329 55.2064 70.0000       0
GRID        4587       0-70.5314 45.7591 70.0000       0
GRID        4588       0-68.3650 43.5222 70.0000       0
GRID        4589       0-75.7497 51.3963 70.0000       0
GRID        4590       0-74.5313 52.2568 70.0000       0
GRID        4591       0-75.5643 53.2015 70.0000       0
GRID        4592       0-72.0468 50.6303 70.0000       0
GRID        4593       0-71.8614 52.4354 70.0000       0
GRID        4594       0-73.5190 57.4914 70.0000       0
GRID        4595       0-73.3018 43.4303 70.0000       0
GRID        4596       0-72.1474 48.4802 70.0000       0
GRID        4597       0-74.8173 48.3015 70.0000       0
GRID        4598       0-88.3154 44.9812 70.0000       0
GRID        4599       0-82.7701 42.5358 70.0000       0
GRID        4600       0-77.7831 43.0220 70.0000       0
GRID        4601       0-76.5390 47.5230 70.0000       0
GRID        4602       0-79.4044 44.3937 70.0000       0
GRID        4603       0-83.4333 46.2618 70.0000       0
GRID        4604       0-81.3118 43.6187 70.0000       0
GRID        4605       0-91.7007 49.6044 70.0000       0
GRID        4606       0-85.0477 46.9368 70.0000       0
GRID        4607       0-88.4715 46.7391 70.0000       0
GRID        4608       0-89.2610 48.5623 70.0000       0
GRID        4609       0-137.599 112.277 70.0000       0
GRID        4610       0-136.382 107.673 70.0000       0
GRID        4611       0-133.114 109.629 70.0000       0
GRID        4612       0-134.246 107.044 70.0000       0
GRID        4613       0-124.924 122.416 70.0000       0
GRID        4614       0-120.781 120.067 70.0000       0
GRID        4615       0-117.872 116.293 70.0000       0
GRID        4616       0-120.136 116.498 70.0000       0
GRID        4617       0-120.824 118.221 70.0000       0
GRID        4618       0-123.892 117.938 70.0000       0
GRID        4619       0-120.294 112.441 70.0000       0
GRID        4620       0-122.665 109.411 70.0000       0
GRID        4621       0-121.976 111.135 70.0000       0
GRID        4622       0-119.713 110.930 70.0000       0
GRID        4623       0-76.2531 54.9247 70.0000       0
GRID        4624       0-76.4385 49.6731 70.0000       0
GRID        4625       0-57.8786 65.2957 70.0000       0
GRID        4626       0-61.9334 73.9911 70.0000       0
GRID        4627       0-60.0904 70.0390 70.0000       0
GRID        4628       0-89.7618 95.0115 70.0000       0
GRID        4629       0-84.6588 92.8369 70.0000       0
GRID        4630       0-99.0865 100.154 70.0000       0
GRID        4631       0-94.3038 97.3288 70.0000       0
GRID        4632       0-120.495 105.738 70.0000       0
GRID        4633       0-115.496 80.2165 70.0000       0
GRID        4634       0-118.781 84.5437 70.0000       0
GRID        4635       0-106.490 68.3512 70.0000       0
GRID        4636       0-109.774 72.6784 70.0000       0
GRID        4637       0-112.635 76.4475 70.0000       0
GRID        4638       0-75.6468 60.3211 70.0000       0
GRID        4639       0-80.0897 62.2804 70.0000       0
GRID        4640       0-80.2882 58.5293 70.0000       0
GRID        4641       0-81.7766 61.0884 70.0000       0
GRID        4642       0-83.4921 58.4977 70.0000       0
GRID        4643       0-78.3808 57.7544 70.0000       0
GRID        4644       0-130.581 106.942 70.0000       0
GRID        4645       0-132.584 121.464 70.0000       0
GRID        4646       0-127.989 122.715 70.0000       0
GRID        4647       0-128.864 119.012 70.0000       0
GRID        4648       0-126.874 121.345 70.0000       0
GRID        4649       0-125.799 118.713 70.0000       0
GRID        4650       0-137.308 115.371 70.0000       0
GRID        4651       0-134.928 119.496 70.0000       0
GRID        4652       0-130.479 118.337 70.0000       0
GRID        4653       0-132.823 116.369 70.0000       0
GRID        4654       0-133.613 114.546 70.0000       0
GRID        4655       0-136.253 113.471 70.0000       0
GRID        4656       0-133.903 111.452 70.0000       0
GRID        4657       0-123.763 108.223 70.0000       0
GRID        4658       0-125.670 107.448 70.0000       0
GRID        4659       0-126.643 106.079 70.0000       0
GRID        4660       0-128.967 106.267 70.0000       0
GRID        4661       0-127.860 104.696 70.0000       0
GRID        4662       0-122.308 107.349 70.0000       0
GRID        4663       0-121.209 108.538 70.0000       0
GRID        4664       0-122.493 108.435 70.0000       0
GRID        4665       0-118.583 110.573 70.0000       0
GRID        4666       0-120.265 109.267 70.0000       0
GRID        4667       0-120.080 108.182 70.0000       0
GRID        4668       0-120.081 106.957 70.0000       0
GRID        4669       0-121.439 106.235 70.0000       0
GRID        4670       0-122.722 106.131 70.0000       0
GRID        4671       0-124.564 105.877 70.0000       0
GRID        4672       0-128.870 102.912 70.0000       0
GRID        4673       0-27.8662 35.5544 99.8005       0
GRID        4674       0-27.1538 35.8866 91.6292       0
GRID        4675       0-25.9396 36.4528 81.7837       0
GRID        4676       0-18.0268 40.1426 88.4173       0
GRID        4677       0-9.52981 44.1048 94.6045       0
GRID        4678       0-17.3085 40.4776 78.2917       0
GRID        4679       0-9.28998 44.2166 84.3916       0
GRID        4680       0-19.0268 39.6763 99.8966       0
GRID        4681       0-5.75974 45.8628 82.8968       0
GRID        4682       0-4.87952 46.2733 87.1958       0
GRID        4683       0-5.87966 45.8069 96.6012       0
GRID        4684       0-4.99943 46.2174 92.3022       0
GRID        4685       0-9.40990 44.1607 89.4980       0
GRID        4686       0-8.73311 44.4763 79.0129       0
GRID        4687       0-17.1682 40.5430 74.1833       0
GRID        4688       0-12.7424 42.6068 75.9629       0
GRID        4689       0-13.2992 42.3471 81.3416       0
GRID        4690       0-21.3577 38.5894 74.8788       0
GRID        4691       0-28.8335 35.1033 78.9990       0
GRID        4692       0-25.6733 36.5770 76.6248       0
GRID        4693       0-21.6241 38.4652 80.0377       0
GRID        4694       0-31.0143 34.0864 83.2737       0
GRID        4695       0-31.6214 33.8033 93.4328       0
GRID        4696       0-31.6214 33.8033 88.1964       0
GRID        4697       0-26.5467 36.1697 86.7065       0
GRID        4698       0-29.7968 34.6542 101.793       0
GRID        4699       0-31.9776 33.6372 97.5184       0
GRID        4700       0-27.5100 35.7205 95.7148       0
GRID        4701       0-26.6366 36.1278 104.167       0
GRID        4702       0-18.0274 40.1423 104.911       0
GRID        4703       0-22.2169 38.1887 104.215       0
GRID        4704       0-13.6015 42.2061 103.131       0
GRID        4705       0-23.4465 37.6153 99.8485       0
GRID        4706       0-8.85302 44.4204 100.485       0
GRID        4707       0-14.2783 41.8905 97.2505       0
GRID        4708       0-23.0903 37.7814 95.7629       0
GRID        4709       0-22.5903 38.0146 90.0232       0
GRID        4710       0-21.9832 38.2977 85.1005       0
GRID        4711       0-18.5268 39.9094 94.1570       0
GRID        4712       0-17.6677 40.3101 83.3545       0
GRID        4713       0-13.7783 42.1237 91.5109       0
GRID        4714       0-13.6584 42.1796 86.4045       0
GRID        4715       0-25.2717 46.6947 109.747       0
GRID        4716       0-24.6350 56.9219 109.925       0
GRID        4717       0-23.8515 67.2177 108.812       0
GRID        4718       0-23.3905 77.3631 106.366       0
GRID        4719       0-23.6978 87.1502 102.817       0
GRID        4720       0-25.0509 96.4496 98.5980       0
GRID        4721       0-27.4971 105.239 94.1946       0
GRID        4722       0-30.8976 113.584 90.0000       0
GRID        4723       0-35.1043 121.553 85.8054       0
GRID        4724       0-32.5060 43.3212 106.602       0
GRID        4725       0-38.1215 40.7027 99.9521       0
GRID        4726       0-40.5249 39.5819 90.0000       0
GRID        4727       0-38.1215 40.7027 80.0479       0
GRID        4728       0-33.0141 53.0147 108.534       0
GRID        4729       0-39.3345 50.0674 103.786       0
GRID        4730       0-43.6962 48.0336 95.2364       0
GRID        4731       0-43.6962 48.0336 84.7636       0
GRID        4732       0-32.8788 63.0082 109.747       0
GRID        4733       0-40.1131 59.6348 106.602       0
GRID        4734       0-45.7286 57.0162 99.9521       0
GRID        4735       0-48.1321 55.8955 90.0000       0
GRID        4736       0-32.2422 73.2355 109.925       0
GRID        4737       0-40.6212 69.3283 108.534       0
GRID        4738       0-46.9417 66.3810 103.786       0
GRID        4739       0-51.3033 64.3471 95.2364       0
GRID        4740       0-31.4586 83.5312 108.812       0
GRID        4741       0-40.4859 79.3217 109.747       0
GRID        4742       0-47.7202 75.9483 106.602       0
GRID        4743       0-53.3357 73.3298 99.9521       0
GRID        4744       0-31.3050 103.464 102.817       0
GRID        4745       0-39.0658 99.8448 108.812       0
GRID        4746       0-48.0930 95.6353 109.747       0
GRID        4747       0-55.3274 92.2619 106.602       0
GRID        4748       0-48.2283 85.6418 108.534       0
GRID        4749       0-54.5488 82.6945 103.786       0
GRID        4750       0-39.8493 89.5490 109.925       0
GRID        4751       0-30.9976 93.6766 106.366       0
GRID        4752       0-47.4564 105.863 109.925       0
GRID        4753       0-46.6729 116.158 108.812       0
GRID        4754       0-55.8355 101.955 108.534       0
GRID        4755       0-55.7002 111.949 109.747       0
GRID        4756       0-38.9121 119.777 102.817       0
GRID        4757       0-35.1043 121.553 94.1946       0
GRID        4758       0-32.6580 112.763 98.5980       0
GRID        4759       0-38.6047 109.990 106.366       0
GRID        4760       0-27.4971 105.239 85.8054       0
GRID        4761       0-31.3050 103.464 77.1835       0
GRID        4762       0-39.0658 99.8448 71.1881       0
GRID        4763       0-48.0930 95.6353 70.2528       0
GRID        4764       0-55.3274 92.2619 73.3979       0
GRID        4765       0-60.9428 89.6433 80.0479       0
GRID        4766       0-63.3463 88.5226 90.0000       0
GRID        4767       0-38.6047 109.990 73.6342       0
GRID        4768       0-46.6729 116.158 71.1881       0
GRID        4769       0-38.9121 119.777 77.1835       0
GRID        4770       0-32.6580 112.763 81.4020       0
GRID        4771       0-70.9534 104.836 90.0000       0
GRID        4772       0-66.5176 96.9742 84.7636       0
GRID        4773       0-68.5500 105.957 99.9521       0
GRID        4774       0-66.5176 96.9742 95.2364       0
GRID        4775       0-55.8355 101.955 71.4660       0
GRID        4776       0-62.9345 108.575 73.3979       0
GRID        4777       0-47.4564 105.863 70.0749       0
GRID        4778       0-55.7002 111.949 70.2528       0
GRID        4779       0-68.5500 105.957 80.0479       0
GRID        4780       0-62.1559 99.0081 76.2143       0
GRID        4781       0-39.8493 89.5490 70.0749       0
GRID        4782       0-31.4586 83.5312 71.1881       0
GRID        4783       0-23.3905 77.3631 73.6342       0
GRID        4784       0-16.0907 70.8366 77.1835       0
GRID        4785       0-9.83663 63.8225 81.4020       0
GRID        4786       0-4.67575 56.2987 85.8054       0
GRID        4787       0-25.2717 46.6947 70.2528       0
GRID        4788       0-16.2444 50.9041 71.1881       0
GRID        4789       0-8.48356 54.5231 77.1835       0
GRID        4790       0-48.2283 85.6418 71.4660       0
GRID        4791       0-54.5488 82.6945 76.2143       0
GRID        4792       0-58.9104 80.6606 84.7636       0
GRID        4793       0-33.0141 53.0147 71.4660       0
GRID        4794       0-24.6350 56.9219 70.0749       0
GRID        4795       0-15.7834 61.0495 73.6342       0
GRID        4796       0-40.4859 79.3217 70.2528       0
GRID        4797       0-47.7202 75.9483 73.3979       0
GRID        4798       0-53.3357 73.3298 80.0479       0
GRID        4799       0-40.6212 69.3283 71.4660       0
GRID        4800       0-32.8788 63.0082 70.2528       0
GRID        4801       0-40.1131 59.6348 73.3979       0
GRID        4802       0-46.9417 66.3810 76.2143       0
GRID        4803       0-32.2422 73.2355 70.0749       0
GRID        4804       0-23.8515 67.2177 71.1881       0
GRID        4805       0-4.67575 56.2987 94.1946       0
GRID        4806       0-8.48356 54.5231 102.817       0
GRID        4807       0-16.2444 50.9041 108.812       0
GRID        4808       0-23.2904 97.2705 90.0000       0
GRID        4809       0-25.0509 96.4496 81.4020       0
GRID        4810       0-30.9976 93.6766 73.6342       0
GRID        4811       0-8.07618 64.6434 90.0000       0
GRID        4812       0-9.83663 63.8225 98.5980       0
GRID        4813       0-15.7834 61.0495 106.366       0
GRID        4814       0-19.8900 88.9258 94.1946       0
GRID        4815       0-19.8900 88.9258 85.8054       0
GRID        4816       0-23.6978 87.1502 77.1835       0
GRID        4817       0-15.6833 80.9570 90.0000       0
GRID        4818       0-12.2829 72.6122 94.1946       0
GRID        4819       0-12.2829 72.6122 85.8054       0
GRID        4820       0-17.4438 80.1361 81.4020       0
GRID        4821       0-17.4438 80.1361 98.5980       0
GRID        4822       0-16.0907 70.8366 102.817       0
GRID        4823       0-3.45262 51.9038 83.6037       0
GRID        4824       0-2.57240 52.3143 87.9027       0
GRID        4825       0-2.57240 52.3143 92.0973       0
GRID        4826       0-3.45262 51.9038 96.3963       0
GRID        4827       0-4.67575 56.2987 90.0000       0
GRID        4828       0-37.6847 125.315 96.3963       0
GRID        4829       0-36.8045 125.725 92.0973       0
GRID        4830       0-36.8045 125.725 87.9027       0
GRID        4831       0-37.6847 125.315 83.6037       0
GRID        4832       0-35.1043 121.553 90.0000       0
GRID        4833       0-8.32990 49.6295 75.4088       0
GRID        4834       0-5.35653 51.0160 79.2928       0
GRID        4835       0-6.57966 55.4109 81.4944       0
GRID        4836       0-12.2103 47.8201 72.4111       0
GRID        4837       0-16.6361 45.7563 70.6315       0
GRID        4838       0-12.3640 52.7136 74.1858       0
GRID        4839       0-25.3393 41.6979 70.8594       0
GRID        4840       0-21.1498 43.6515 70.1639       0
GRID        4841       0-20.7580 48.7994 70.7204       0
GRID        4842       0-28.8888 45.0080 71.8253       0
GRID        4843       0-37.1053 36.2114 82.4057       0
GRID        4844       0-34.9244 37.2283 78.1311       0
GRID        4845       0-32.1167 38.5376 74.8061       0
GRID        4846       0-35.3137 42.0120 76.7229       0
GRID        4847       0-38.3070 35.6510 92.6182       0
GRID        4848       0-38.3070 35.6510 87.3818       0
GRID        4849       0-39.3232 40.1423 85.0239       0
GRID        4850       0-34.9244 37.2283 101.869       0
GRID        4851       0-37.1053 36.2114 97.5943       0
GRID        4852       0-39.3232 40.1423 94.9761       0
GRID        4853       0-28.9565 40.0112 107.568       0
GRID        4854       0-32.1167 38.5376 105.194       0
GRID        4855       0-35.3137 42.0120 103.277       0
GRID        4856       0-21.1498 43.6515 109.836       0
GRID        4857       0-25.3393 41.6979 109.141       0
GRID        4858       0-28.8888 45.0080 108.175       0
GRID        4859       0-12.2103 47.8201 107.589       0
GRID        4860       0-16.6361 45.7563 109.368       0
GRID        4861       0-20.7580 48.7994 109.280       0
GRID        4862       0-8.32990 49.6295 104.591       0
GRID        4863       0-5.35653 51.0160 100.707       0
GRID        4864       0-12.3640 52.7136 105.814       0
GRID        4865       0-6.57966 55.4109 98.5056       0
GRID        4866       0-42.5620 123.040 104.591       0
GRID        4867       0-39.5886 124.427 100.707       0
GRID        4868       0-37.0082 120.665 98.5056       0
GRID        4869       0-50.8682 119.167 109.368       0
GRID        4870       0-46.4424 121.231 107.589       0
GRID        4871       0-42.7925 117.968 105.814       0
GRID        4872       0-59.5714 115.109 109.141       0
GRID        4873       0-55.3819 117.062 109.836       0
GRID        4874       0-51.1865 114.054 109.280       0
GRID        4875       0-66.3488 111.948 105.194       0
GRID        4876       0-69.1565 110.639 101.869       0
GRID        4877       0-71.3373 109.622 97.5943       0
GRID        4878       0-65.7422 107.266 103.277       0
GRID        4879       0-72.5391 109.062 87.3818       0
GRID        4880       0-72.5391 109.062 92.6182       0
GRID        4881       0-69.7517 105.396 94.9761       0
GRID        4882       0-71.3373 109.622 82.4057       0
GRID        4883       0-69.1565 110.639 78.1311       0
GRID        4884       0-69.7517 105.396 85.0239       0
GRID        4885       0-63.1885 113.422 72.4319       0
GRID        4886       0-66.3488 111.948 74.8061       0
GRID        4887       0-65.7422 107.266 76.7229       0
GRID        4888       0-59.5714 115.109 70.8594       0
GRID        4889       0-55.3819 117.062 70.1639       0
GRID        4890       0-59.3173 110.262 71.8253       0
GRID        4891       0-46.4424 121.231 72.4111       0
GRID        4892       0-50.8682 119.167 70.6315       0
GRID        4893       0-51.1865 114.054 70.7204       0
GRID        4894       0-42.5620 123.040 75.4088       0
GRID        4895       0-39.5886 124.427 79.2928       0
GRID        4896       0-42.7925 117.968 74.1858       0
GRID        4897       0-37.0082 120.665 81.4944       0
GRID        4898       0-38.7280 45.3851 78.1311       0
GRID        4899       0-41.5154 49.0505 80.4889       0
GRID        4900       0-44.7124 52.5249 82.4057       0
GRID        4901       0-40.9088 44.3681 82.4057       0
GRID        4902       0-46.9303 56.4559 85.0239       0
GRID        4903       0-49.7177 60.1213 87.3818       0
GRID        4904       0-45.9141 51.9645 87.3818       0
GRID        4905       0-51.3033 64.3471 90.0000       0
GRID        4906       0-53.5212 68.2781 92.6182       0
GRID        4907       0-49.7177 60.1213 92.6182       0
GRID        4908       0-54.5374 72.7694 94.9761       0
GRID        4909       0-56.1231 76.9952 97.5943       0
GRID        4910       0-52.3195 68.8384 97.5943       0
GRID        4911       0-56.7296 81.6776 99.5111       0
GRID        4912       0-57.7458 86.1689 101.869       0
GRID        4913       0-53.9423 78.0121 101.869       0
GRID        4914       0-58.1351 90.9526 103.277       0
GRID        4915       0-58.7416 95.6350 105.194       0
GRID        4916       0-54.9381 87.4782 105.194       0
GRID        4917       0-58.9957 100.482 106.160       0
GRID        4918       0-59.3850 105.265 107.568       0
GRID        4919       0-55.5814 97.1086 107.568       0
GRID        4920       0-59.3173 110.262 108.175       0
GRID        4921       0-55.7678 106.952 109.141       0
GRID        4922       0-65.3530 102.482 101.869       0
GRID        4923       0-64.3367 97.9911 99.5111       0
GRID        4924       0-63.7302 93.3088 97.5943       0
GRID        4925       0-67.5338 101.466 97.5943       0
GRID        4926       0-62.1446 89.0829 94.9761       0
GRID        4927       0-61.1284 84.5916 92.6182       0
GRID        4928       0-64.9319 92.7484 92.6182       0
GRID        4929       0-58.9104 80.6606 90.0000       0
GRID        4930       0-57.3248 76.4348 87.3818       0
GRID        4931       0-61.1284 84.5916 87.3818       0
GRID        4932       0-54.5374 72.7694 85.0239       0
GRID        4933       0-52.3195 68.8384 82.4057       0
GRID        4934       0-56.1231 76.9952 82.4057       0
GRID        4935       0-49.1225 65.3640 80.4889       0
GRID        4936       0-46.3351 61.6986 78.1311       0
GRID        4937       0-50.1387 69.8554 78.1311       0
GRID        4938       0-42.9208 58.3255 76.7229       0
GRID        4939       0-39.7238 54.8511 74.8061       0
GRID        4940       0-43.5274 63.0079 74.8061       0
GRID        4941       0-36.1743 51.5411 73.8401       0
GRID        4942       0-32.7600 48.1680 72.4319       0
GRID        4943       0-36.5636 56.3247 72.4319       0
GRID        4944       0-29.1429 49.8547 70.8594       0
GRID        4945       0-28.8246 54.9683 109.230       0
GRID        4946       0-29.1429 49.8547 109.141       0
GRID        4947       0-24.9533 51.8083 109.836       0
GRID        4948       0-20.4397 53.9130 109.368       0
GRID        4949       0-32.7600 48.1680 107.568       0
GRID        4950       0-28.3651 65.1129 109.280       0
GRID        4951       0-28.7569 59.9651 109.836       0
GRID        4952       0-24.2433 62.0698 109.368       0
GRID        4953       0-20.2092 58.9857 108.145       0
GRID        4954       0-19.8174 64.1336 107.589       0
GRID        4955       0-32.9464 58.0115 109.141       0
GRID        4956       0-16.0139 55.9768 107.589       0
GRID        4957       0-27.8163 75.2993 108.145       0
GRID        4958       0-28.0468 70.2266 109.368       0
GRID        4959       0-23.6210 72.2904 107.589       0
GRID        4960       0-19.9711 69.0272 105.814       0
GRID        4961       0-19.7406 74.0998 104.591       0
GRID        4962       0-32.5605 68.1218 109.836       0
GRID        4963       0-15.9370 65.9431 104.591       0
GRID        4964       0-27.5782 85.3407 105.814       0
GRID        4965       0-27.4246 80.4471 107.589       0
GRID        4966       0-23.5442 82.2566 104.591       0
GRID        4967       0-20.4171 78.7496 102.482       0
GRID        4968       0-20.5708 83.6431 100.707       0
GRID        4969       0-31.8504 78.3833 109.368       0
GRID        4970       0-16.7672 75.4863 100.707       0
GRID        4971       0-28.0243 95.0631 102.482       0
GRID        4972       0-27.3477 90.4134 104.591       0
GRID        4973       0-24.3744 91.7999 100.707       0
GRID        4974       0-21.7939 88.0380 98.5056       0
GRID        4975       0-22.4704 92.6877 96.3963       0
GRID        4976       0-31.2281 88.6039 107.589       0
GRID        4977       0-18.6669 84.5309 96.3963       0
GRID        4978       0-29.4010 104.352 98.5056       0
GRID        4979       0-28.1779 99.9567 100.707       0
GRID        4980       0-26.2740 100.844 96.3963       0
GRID        4981       0-24.1707 96.8601 94.2990       0
GRID        4982       0-25.3938 101.255 92.0973       0
GRID        4983       0-31.1513 98.5702 104.591       0
GRID        4984       0-21.5902 93.0982 92.0973       0
GRID        4985       0-31.7778 113.174 94.2990       0
GRID        4986       0-30.0776 109.001 96.3963       0
GRID        4987       0-29.1973 109.412 92.0973       0
GRID        4988       0-27.4971 105.239 90.0000       0
GRID        4989       0-29.1973 109.412 87.9027       0
GRID        4990       0-31.9815 108.113 100.707       0
GRID        4991       0-25.3938 101.255 87.9027       0
GRID        4992       0-33.0009 117.568 92.0973       0
GRID        4993       0-33.0009 117.568 87.9027       0
GRID        4994       0-31.7778 113.174 85.7010       0
GRID        4995       0-33.8811 117.158 83.6037       0
GRID        4996       0-33.8811 117.158 96.3963       0
GRID        4997       0-30.0776 109.001 83.6037       0
GRID        4998       0-35.7850 116.270 79.2928       0
GRID        4999       0-35.9203 46.6943 105.194       0
GRID        5000       0-38.7280 45.3851 101.869       0
GRID        5001       0-36.1743 51.5411 106.160       0
GRID        5002       0-40.9088 44.3681 97.5943       0
GRID        5003       0-42.1106 43.8078 92.6182       0
GRID        5004       0-41.5154 49.0505 99.5111       0
GRID        5005       0-42.1106 43.8078 87.3818       0
GRID        5006       0-43.6962 48.0336 90.0000       0
GRID        5007       0-36.5636 56.3247 107.568       0
GRID        5008       0-39.7238 54.8511 105.194       0
GRID        5009       0-36.4959 61.3215 108.175       0
GRID        5010       0-42.5316 53.5418 101.869       0
GRID        5011       0-44.7124 52.5249 97.5943       0
GRID        5012       0-42.9208 58.3255 103.277       0
GRID        5013       0-45.9141 51.9645 92.6182       0
GRID        5014       0-46.9303 56.4559 94.9761       0
GRID        5015       0-36.7500 66.1682 109.141       0
GRID        5016       0-40.3672 64.4815 107.568       0
GRID        5017       0-36.4317 71.2819 109.230       0
GRID        5018       0-43.5274 63.0079 105.194       0
GRID        5019       0-46.3351 61.6986 101.869       0
GRID        5020       0-43.7814 67.8546 106.160       0
GRID        5021       0-48.5159 60.6817 97.5943       0
GRID        5022       0-49.1225 65.3640 99.5111       0
GRID        5023       0-36.3640 76.2786 109.836       0
GRID        5024       0-40.5536 74.3250 109.141       0
GRID        5025       0-35.9723 81.4265 109.280       0
GRID        5026       0-44.1707 72.6383 107.568       0
GRID        5027       0-47.3310 71.1646 105.194       0
GRID        5028       0-44.1031 77.6350 108.175       0
GRID        5029       0-50.1387 69.8554 101.869       0
GRID        5030       0-50.5280 74.6391 103.277       0
GRID        5031       0-35.6540 86.5401 109.368       0
GRID        5032       0-40.1676 84.4354 109.836       0
GRID        5033       0-35.4235 91.6128 108.145       0
GRID        5034       0-44.3571 82.4818 109.141       0
GRID        5035       0-47.9743 80.7951 107.568       0
GRID        5036       0-44.0388 87.5954 109.230       0
GRID        5037       0-51.1345 79.3214 105.194       0
GRID        5038       0-51.3886 84.1682 106.160       0
GRID        5039       0-35.1854 101.654 105.814       0
GRID        5040       0-35.0317 96.7607 107.589       0
GRID        5041       0-34.9548 106.727 104.591       0
GRID        5042       0-38.8353 104.917 107.589       0
GRID        5043       0-35.6314 111.377 102.482       0
GRID        5044       0-43.9712 92.5921 109.836       0
GRID        5045       0-39.4575 94.6969 109.368       0
GRID        5046       0-43.5794 97.7400 109.280       0
GRID        5047       0-43.2611 102.854 109.368       0
GRID        5048       0-47.7747 100.749 109.836       0
GRID        5049       0-43.0306 107.926 108.145       0
GRID        5050       0-51.7778 88.9518 107.568       0
GRID        5051       0-48.1607 90.6385 109.141       0
GRID        5052       0-51.7102 93.9486 108.175       0
GRID        5053       0-51.9642 98.7953 109.141       0
GRID        5054       0-51.6459 103.909 109.230       0
GRID        5055       0-47.0647 111.010 109.368       0
GRID        5056       0-51.5783 108.906 109.836       0
GRID        5057       0-42.6388 113.074 107.589       0
GRID        5058       0-38.7584 114.884 104.591       0
GRID        5059       0-35.7850 116.270 100.707       0
GRID        5060       0-29.4010 104.352 81.4944       0
GRID        5061       0-31.9815 108.113 79.2928       0
GRID        5062       0-28.1779 99.9567 79.2928       0
GRID        5063       0-26.2740 100.844 83.6037       0
GRID        5064       0-24.1707 96.8601 85.7010       0
GRID        5065       0-35.1854 101.654 74.1858       0
GRID        5066       0-38.8353 104.917 72.4111       0
GRID        5067       0-34.9548 106.727 75.4088       0
GRID        5068       0-31.1513 98.5702 75.4088       0
GRID        5069       0-35.0317 96.7607 72.4111       0
GRID        5070       0-35.6314 111.377 77.5181       0
GRID        5071       0-28.0243 95.0631 77.5181       0
GRID        5072       0-43.2611 102.854 70.6315       0
GRID        5073       0-43.5794 97.7400 70.7204       0
GRID        5074       0-47.7747 100.749 70.1639       0
GRID        5075       0-39.4575 94.6969 70.6315       0
GRID        5076       0-43.9712 92.5921 70.1639       0
GRID        5077       0-43.0306 107.926 71.8545       0
GRID        5078       0-35.4235 91.6128 71.8545       0
GRID        5079       0-51.7102 93.9486 71.8253       0
GRID        5080       0-55.5814 97.1086 72.4319       0
GRID        5081       0-51.9642 98.7953 70.8594       0
GRID        5082       0-48.1607 90.6385 70.8594       0
GRID        5083       0-51.7778 88.9518 72.4319       0
GRID        5084       0-51.6459 103.909 70.7704       0
GRID        5085       0-44.0388 87.5954 70.7704       0
GRID        5086       0-58.7416 95.6350 74.8061       0
GRID        5087       0-58.1351 90.9526 76.7229       0
GRID        5088       0-61.5494 94.3257 78.1311       0
GRID        5089       0-57.7458 86.1689 78.1311       0
GRID        5090       0-54.9381 87.4782 74.8061       0
GRID        5091       0-58.9957 100.482 73.8401       0
GRID        5092       0-51.3886 84.1682 73.8401       0
GRID        5093       0-62.1446 89.0829 85.0239       0
GRID        5094       0-64.9319 92.7484 87.3818       0
GRID        5095       0-63.7302 93.3088 82.4057       0
GRID        5096       0-59.9266 85.1520 82.4057       0
GRID        5097       0-64.3367 97.9911 80.4889       0
GRID        5098       0-56.7296 81.6776 80.4889       0
GRID        5099       0-66.5176 96.9742 90.0000       0
GRID        5100       0-38.7584 114.884 75.4088       0
GRID        5101       0-42.6388 113.074 72.4111       0
GRID        5102       0-47.0647 111.010 70.6315       0
GRID        5103       0-51.5783 108.906 70.1639       0
GRID        5104       0-68.7355 100.905 87.3818       0
GRID        5105       0-68.7355 100.905 92.6182       0
GRID        5106       0-67.5338 101.466 82.4057       0
GRID        5107       0-65.3530 102.482 78.1311       0
GRID        5108       0-59.3850 105.265 72.4319       0
GRID        5109       0-55.7678 106.952 70.8594       0
GRID        5110       0-62.5452 103.792 74.8061       0
GRID        5111       0-35.9723 81.4265 70.7204       0
GRID        5112       0-40.1676 84.4354 70.1639       0
GRID        5113       0-35.6540 86.5401 70.6315       0
GRID        5114       0-31.2281 88.6039 72.4111       0
GRID        5115       0-44.3571 82.4818 70.8594       0
GRID        5116       0-27.8163 75.2993 71.8545       0
GRID        5117       0-31.8504 78.3833 70.6315       0
GRID        5118       0-27.4246 80.4471 72.4111       0
GRID        5119       0-27.5782 85.3407 74.1858       0
GRID        5120       0-23.5442 82.2566 75.4088       0
GRID        5121       0-36.3640 76.2786 70.1639       0
GRID        5122       0-27.3477 90.4134 75.4088       0
GRID        5123       0-19.7406 74.0998 75.4088       0
GRID        5124       0-19.9711 69.0272 74.1858       0
GRID        5125       0-23.6210 72.2904 72.4111       0
GRID        5126       0-20.4171 78.7496 77.5181       0
GRID        5127       0-16.7672 75.4863 79.2928       0
GRID        5128       0-28.0468 70.2266 70.6315       0
GRID        5129       0-20.5708 83.6431 79.2928       0
GRID        5130       0-12.8100 62.4360 77.5181       0
GRID        5131       0-15.9370 65.9431 75.4088       0
GRID        5132       0-12.9637 67.3296 79.2928       0
GRID        5133       0-14.1868 71.7244 81.4944       0
GRID        5134       0-11.0598 68.2174 83.6037       0
GRID        5135       0-19.8174 64.1336 72.4111       0
GRID        5136       0-14.8633 76.3742 83.6037       0
GRID        5137       0-9.16010 59.1728 79.2928       0
GRID        5138       0-7.25619 60.0606 83.6037       0
GRID        5139       0-8.95640 64.2330 85.7010       0
GRID        5140       0-6.37596 60.4711 87.9027       0
GRID        5141       0-12.1335 57.7863 75.4088       0
GRID        5142       0-10.1795 68.6278 87.9027       0
GRID        5143       0-6.37596 60.4711 92.0973       0
GRID        5144       0-20.4397 53.9130 70.6315       0
GRID        5145       0-24.9533 51.8083 70.1639       0
GRID        5146       0-28.8246 54.9683 70.7704       0
GRID        5147       0-16.0139 55.9768 72.4111       0
GRID        5148       0-20.2092 58.9857 71.8545       0
GRID        5149       0-51.1345 79.3214 74.8061       0
GRID        5150       0-47.9743 80.7951 72.4319       0
GRID        5151       0-44.1031 77.6350 71.8253       0
GRID        5152       0-53.9423 78.0121 78.1311       0
GRID        5153       0-50.5280 74.6391 76.7229       0
GRID        5154       0-32.9464 58.0115 70.8594       0
GRID        5155       0-28.7569 59.9651 70.1639       0
GRID        5156       0-36.4959 61.3215 71.8253       0
GRID        5157       0-24.2433 62.0698 70.6315       0
GRID        5158       0-28.3651 65.1129 70.7204       0
GRID        5159       0-40.5536 74.3250 70.8594       0
GRID        5160       0-44.1707 72.6383 72.4319       0
GRID        5161       0-36.4317 71.2819 70.7704       0
GRID        5162       0-47.3310 71.1646 74.8061       0
GRID        5163       0-43.7814 67.8546 73.8401       0
GRID        5164       0-40.3672 64.4815 72.4319       0
GRID        5165       0-36.7500 66.1682 70.8594       0
GRID        5166       0-32.5605 68.1218 70.1639       0
GRID        5167       0-9.16010 59.1728 100.707       0
GRID        5168       0-7.25619 60.0606 96.3963       0
GRID        5169       0-8.95640 64.2330 94.2990       0
GRID        5170       0-12.1335 57.7863 104.591       0
GRID        5171       0-12.8100 62.4360 102.482       0
GRID        5172       0-22.4704 92.6877 83.6037       0
GRID        5173       0-21.5902 93.0982 87.9027       0
GRID        5174       0-19.8900 88.9258 90.0000       0
GRID        5175       0-24.3744 91.7999 79.2928       0
GRID        5176       0-21.7939 88.0380 81.4944       0
GRID        5177       0-10.1795 68.6278 92.0973       0
GRID        5178       0-11.0598 68.2174 96.3963       0
GRID        5179       0-12.2829 72.6122 90.0000       0
GRID        5180       0-12.9637 67.3296 100.707       0
GRID        5181       0-14.1868 71.7244 98.5056       0
GRID        5182       0-17.7867 84.9414 92.0973       0
GRID        5183       0-17.7867 84.9414 87.9027       0
GRID        5184       0-16.5635 80.5465 94.2990       0
GRID        5185       0-18.6669 84.5309 83.6037       0
GRID        5186       0-16.5635 80.5465 85.7010       0
GRID        5187       0-13.9831 76.7846 87.9027       0
GRID        5188       0-13.9831 76.7846 92.0973       0
GRID        5189       0-14.8633 76.3742 96.3963       0
GRID        5190       0-77.2687 111.822 103.559       0
GRID        5191       0-46.1679 126.324 113.927       0
GRID        5192       0-33.6825 132.146 81.2863       0
GRID        5193       0-36.8917 130.650 73.0917       0
GRID        5194       0-37.6705 130.287 107.437       0
GRID        5195       0-32.4900 132.702 97.2491       0
GRID        5196       0-58.8471 120.412 116.920       0
GRID        5197       0-52.7185 123.270 117.816       0
GRID        5198       0-72.1320 114.217 111.683       0
GRID        5199       0-76.9677 111.962 75.9077       0
GRID        5200       0-62.1260 118.883 63.4942       0
GRID        5201       0-70.8804 114.801 68.9234       0
GRID        5202       0-81.1450 110.014 93.4596       0
GRID        5203       0-81.2019 109.988 83.2135       0
GRID        5204       0-54.0859 122.632 59.0137       0
GRID        5205       0-63.3350 118.319 59.8004       0
GRID        5206       0-59.3784 120.164 59.2471       0
GRID        5207       0-56.8334 121.351 63.2608       0
GRID        5208       0-29.3917 134.147 83.7269       0
GRID        5209       0-31.8028 133.023 88.0838       0
GRID        5210       0-36.0936 131.022 85.6431       0
GRID        5211       0-28.7954 134.425 91.7083       0
GRID        5212       0-35.4974 131.300 93.6246       0
GRID        5213       0-36.3776 130.889 97.9235       0
GRID        5214       0-36.9738 130.611 81.3442       0
GRID        5215       0-46.0145 126.396 61.4493       0
GRID        5216       0-34.9720 131.545 69.8394       0
GRID        5217       0-38.6899 129.811 66.4814       0
GRID        5218       0-43.3500 127.638 66.7526       0
GRID        5219       0-41.5518 128.477 73.3629       0
GRID        5220       0-32.2711 132.804 74.4305       0
GRID        5221       0-30.6665 133.553 78.5278       0
GRID        5222       0-35.2871 131.398 77.1890       0
GRID        5223       0-28.9580 134.349 96.7678       0
GRID        5224       0-30.2316 133.755 101.127       0
GRID        5225       0-34.9001 131.578 109.834       0
GRID        5226       0-32.8218 132.548 106.221       0
GRID        5227       0-35.0802 131.494 102.343       0
GRID        5228       0-38.0625 130.104 113.061       0
GRID        5229       0-46.5255 126.157 118.617       0
GRID        5230       0-42.3112 128.123 116.306       0
GRID        5231       0-41.9192 128.305 110.682       0
GRID        5232       0-54.6747 122.357 121.408       0
GRID        5233       0-49.8008 124.630 120.561       0
GRID        5234       0-49.4432 124.797 115.871       0
GRID        5235       0-62.6128 118.656 120.113       0
GRID        5236       0-57.7390 120.929 120.960       0
GRID        5237       0-55.7828 121.841 117.368       0
GRID        5238       0-73.4696 113.593 115.184       0
GRID        5239       0-69.2553 115.558 117.495       0
GRID        5240       0-61.1448 119.340 112.727       0
GRID        5241       0-64.9106 117.584 115.920       0
GRID        5242       0-67.7873 116.243 110.109       0
GRID        5243       0-76.6320 112.119 111.956       0
GRID        5244       0-81.2786 109.952 104.282       0
GRID        5245       0-79.2004 110.921 107.894       0
GRID        5246       0-74.7004 113.019 107.621       0
GRID        5247       0-84.4904 108.454 94.8730       0
GRID        5248       0-83.2167 109.048 99.2325       0
GRID        5249       0-79.2069 110.918 98.5094       0
GRID        5250       0-84.6529 108.378 89.8136       0
GRID        5251       0-83.4066 108.960 79.4914       0
GRID        5252       0-84.6814 108.365 84.6905       0
GRID        5253       0-81.1734 110.001 88.3366       0
GRID        5254       0-78.5886 111.206 71.2475       0
GRID        5255       0-81.2895 109.947 75.8385       0
GRID        5256       0-79.0848 110.975 79.5606       0
GRID        5257       0-71.8270 114.359 64.3973       0
GRID        5258       0-75.5449 112.625 67.7553       0
GRID        5259       0-73.9240 113.381 72.4156       0
GRID        5260       0-67.4498 116.400 61.6827       0
GRID        5261       0-66.5032 116.842 66.2088       0
GRID        5262       0-41.9412 128.295 106.902       0
GRID        5263       0-38.9678 129.682 103.018       0
GRID        5264       0-50.6157 124.250 111.926       0
GRID        5265       0-46.1899 126.314 110.147       0
GRID        5266       0-56.9553 121.294 113.423       0
GRID        5267       0-53.8910 122.723 113.870       0
GRID        5268       0-70.9475 114.769 107.734       0
GRID        5269       0-75.6967 112.555 99.3978       0
GRID        5270       0-73.5159 113.572 103.672       0
GRID        5271       0-77.6348 111.651 89.1116       0
GRID        5272       0-77.6348 111.651 94.3480       0
GRID        5273       0-73.3654 113.642 76.0610       0
GRID        5274       0-75.5462 112.625 80.3356       0
GRID        5275       0-77.6633 111.638 83.9885       0
GRID        5276       0-67.1615 116.535 70.1947       0
GRID        5277       0-70.3217 115.061 72.5689       0
GRID        5278       0-58.5948 120.529 66.7846       0
GRID        5279       0-62.7843 118.576 67.4801       0
GRID        5280       0-53.3022 122.997 66.5512       0
GRID        5281       0-38.5784 129.863 77.2469       0
GRID        5282       0-9.05862-34.2962 104.366       0
GRID        5283       0-24.6921 14.0795 103.028       0
GRID        5284       0-32.2453 26.5602 108.099       0
GRID        5285       0-19.7462 22.5834 104.055       0
GRID        5286       0-20.1802 11.4033 93.6155       0
GRID        5287       0-25.6119 20.0672 92.5888       0
GRID        5288       0-15.2235 19.8749 95.4693       0
GRID        5289       0-23.0542 13.9095 82.7676       0
GRID        5290       0 22.0973-2.05328 95.5521       0
GRID        5291       0 23.0314-13.1589 87.9182       0
GRID        5292       0 28.6860-8.86921 92.3285       0
GRID        5293       0-19.6698 119.306 74.8181       0
GRID        5294       0-24.4921 118.487 72.7122       0
GRID        5295       0-25.0603 114.774 75.0541       0
GRID        5296       0-22.6541 99.0790 74.5484       0
GRID        5297       0-15.5097 96.2971 75.6854       0
GRID        5298       0-20.9820 106.607 75.7260       0
GRID        5299       0-68.4131 85.0266 82.0884       0
GRID        5300       0-4.52941 118.180 74.6701       0
GRID        5301       0 7.09847 22.8021 92.3367       0
GRID        5302       0-5.32737 23.2092 92.5588       0
GRID        5303       0 1.40121 31.0280 96.3132       0
GRID        5304       0 1.40121 31.0280 86.2405       0
GRID        5305       0-122.124 105.202 74.2475       0
GRID        5306       0 .849763 41.0831 71.6496       0
GRID        5307       0-7.56906 32.5870 78.6543       0
GRID        5308       0-4.10463-27.1678 90.2617       0
GRID        5309       0-13.8065-19.9648 96.4218       0
GRID        5310       0 5.38089 25.9739 77.9702       0
GRID        5311       0-58.8508 66.0001 79.4505       0
GRID        5312       0-53.9297 53.6671 81.7182       0
GRID        5313       0-33.6311 25.9305 72.4917       0
GRID        5314       0-26.8397 24.0599 80.8146       0
GRID        5315       0-18.5138 29.1010 82.6964       0
GRID        5316       0-11.0885 21.6738 84.3519       0
GRID        5317       0-9.25332-34.7798 75.9826       0
GRID        5318       0-7.68945 32.5576 101.489       0
GRID        5319       0-11.6187 31.5980 90.5071       0
GRID        5320       0-21.9150 28.3206 98.2745       0
GRID        5321       0-6.67358 123.151 72.7717       0
GRID        5322       0 1.10765 64.3011 75.4101       0
GRID        5323       0-31.5562 116.999 74.4002       0
GRID        5324       0-25.7044 108.831 73.7171       0
GRID        5325       0-10.7508-32.7477 85.1005       0
GRID        5326       0-13.4849-32.1679 71.6275       0
GRID        5327       0-12.3599-33.9327 75.2424       0
GRID        5328       0-10.3783-33.0150 72.3677       0
GRID        5329       0-7.48056-29.3681 71.6275       0
GRID        5330       0-6.35563-31.1328 75.2424       0
GRID        5331       0-12.3137-29.9924 107.235       0
GRID        5332       0-10.2809-32.7733 107.806       0
GRID        5333       0-6.25828-30.8911 104.932       0
GRID        5334       0-7.48056-29.3681 108.373       0
GRID        5335       0-9.51339-26.5873 107.801       0
GRID        5336       0-11.7504-35.2399 76.7413       0
GRID        5337       0-11.5816-35.6018 73.2210       0
GRID        5338       0-10.6961-37.5007 76.5319       0
GRID        5339       0-26.0365 9.95923 111.052       0
GRID        5340       0-28.0292 13.3609 111.052       0
GRID        5341       0-4.80670-32.5879 98.9752       0
GRID        5342       0-4.40868-32.3597 99.7115       0
GRID        5343       0-5.43965-32.8290 99.9099       0
GRID        5344       0-28.3919 21.7015 110.049       0
GRID        5345       0-25.9957 24.5718 106.077       0
GRID        5346       0-22.1423 19.7131 108.027       0
GRID        5347       0-24.6153 15.4612 107.514       0
GRID        5348       0-22.2191 18.3315 103.542       0
GRID        5349       0-28.4687 20.3199 105.564       0
GRID        5350       0-24.1725 18.3428 74.4073       0
GRID        5351       0-22.2797 13.2676 75.3838       0
GRID        5352       0-24.9469 18.9847 81.7911       0
GRID        5353       0-30.6505 21.5137 75.3550       0
GRID        5354       0-28.7578 16.4385 76.3315       0
GRID        5355       0-27.9833 15.7965 68.9477       0
GRID        5356       0-22.8961 15.7352 93.1022       0
GRID        5357       0-17.7019 15.6391 94.5424       0
GRID        5358       0-20.4177 19.9710 94.0290       0
GRID        5359       0-25.1520 17.0734 97.8086       0
GRID        5360       0-19.9578 16.9772 99.2488       0
GRID        5361       0-22.4361 12.7414 98.3220       0
GRID        5362       0-10.4060 53.6580 110.718       0
GRID        5363       0-10.1755 58.7307 109.495       0
GRID        5364       0-13.6955 61.9931 110.847       0
GRID        5365       0-13.9260 56.9204 112.070       0
GRID        5366       0-16.7066 9.23322 98.3674       0
GRID        5367       0-25.3603 8.27249 96.8339       0
GRID        5368       0-21.8867 6.10241 101.586       0
GRID        5369       0-18.9625 10.5713 103.074       0
GRID        5370       0-27.6162 9.61061 101.540       0
GRID        5371       0 19.6292 7.81676 83.2068       0
GRID        5372       0 19.8805 7.89572 88.2329       0
GRID        5373       0 18.3884 11.1316 88.2329       0
GRID        5374       0-29.0537 14.7695 91.2944       0
GRID        5375       0-30.2772 19.4051 96.3206       0
GRID        5376       0-28.5938 11.7757 96.5142       0
GRID        5377       0-29.8173 16.4113 101.540       0
GRID        5378       0-17.7496-27.9604 77.2907       0
GRID        5379       0-26.3379 10.4376 91.8078       0
GRID        5380       0-28.6590 40.5014 113.374       0
GRID        5381       0-28.9194 35.0633 112.179       0
GRID        5382       0-32.2085 43.8114 112.408       0
GRID        5383       0-32.4689 38.3733 111.213       0
GRID        5384       0-26.3109 7.16723 86.3838       0
GRID        5385       0-22.2823 .358845 87.5462       0
GRID        5386       0-19.0257 7.10112 83.9300       0
GRID        5387       0-21.6172 12.6564 88.1916       0
GRID        5388       0-17.5887 5.84801 89.3540       0
GRID        5389       0-24.8739 5.91412 91.8078       0
GRID        5390       0-.877880-20.5164 106.807       0
GRID        5391       0-17.4848 21.2291 99.7620       0
GRID        5392       0-22.6790 21.3253 98.3218       0
GRID        5393       0-11.1342-37.6438 89.8516       0
GRID        5394       0-11.0085-37.2117 83.3922       0
GRID        5395       0-19.1388 16.8922 89.1184       0
GRID        5396       0-24.3330 16.9884 87.6782       0
GRID        5397       0-.358002-30.3408 75.0418       0
GRID        5398       0-3.24227-30.3164 72.3496       0
GRID        5399       0-4.90952-32.4632 75.0418       0
GRID        5400       0-13.6949 14.3243 90.4898       0
GRID        5401       0-17.6103 11.3417 84.1389       0
GRID        5402       0-16.1733 10.0886 89.5629       0
GRID        5403       0-19.2275-8.51057 82.0024       0
GRID        5404       0-17.7363-11.6729 82.0024       0
GRID        5405       0-19.4781-8.59168 87.0285       0
GRID        5406       0-16.1760-27.9754 106.302       0
GRID        5407       0-17.7496-27.9604 102.709       0
GRID        5408       0-17.3299-26.5179 102.709       0
GRID        5409       0-12.2295 15.8473 94.9245       0
GRID        5410       0-14.2282 13.4690 99.2943       0
GRID        5411       0-14.7079 11.6115 93.9976       0
GRID        5412       0-4.49171-32.5365 82.6766       0
GRID        5413       0-7.78173-35.9318 87.2793       0
GRID        5414       0-9.72082-36.7511 85.8116       0
GRID        5415       0-6.43080-33.3559 81.2089       0
GRID        5416       0-4.88950-32.5217 100.788       0
GRID        5417       0-2.88807-31.5884 103.785       0
GRID        5418       0-1.29131-30.8910 102.971       0
GRID        5419       0-3.29274-31.8242 99.9732       0
GRID        5420       0 26.1912-6.58150 88.9591       0
GRID        5421       0 25.8587-11.0141 90.1233       0
GRID        5422       0 29.0184-4.43665 91.1643       0
GRID        5423       0 25.7241-1.02868 92.7760       0
GRID        5424       0 25.3916-5.46124 93.9403       0
GRID        5425       0 22.5644-7.60609 91.7351       0
GRID        5426       0-10.9538-33.1638 107.431       0
GRID        5427       0-15.5177-29.3871 107.801       0
GRID        5428       0-14.1578-32.5585 107.997       0
GRID        5429       0-12.2626-33.6909 104.932       0
GRID        5430       0 27.4107-7.53951 84.1185       0
GRID        5431       0 25.9840-7.05160 82.4998       0
GRID        5432       0-2.17766-21.2295 103.555       0
GRID        5433       0-.176227-20.2962 100.558       0
GRID        5434       0-4.17909-22.1628 100.558       0
GRID        5435       0 28.8772-6.12436 78.9094       0
GRID        5436       0 24.4979-11.7438 82.7091       0
GRID        5437       0 29.9751-8.47888 82.5630       0
GRID        5438       0 28.5086-9.89403 87.7721       0
GRID        5439       0-52.4114 74.1644 108.933       0
GRID        5440       0-50.2458 71.1428 109.574       0
GRID        5441       0-52.0221 69.3807 107.524       0
GRID        5442       0-49.8565 66.3591 108.165       0
GRID        5443       0 31.2781-16.0056 94.7511       0
GRID        5444       0 29.1533-16.0090 88.9591       0
GRID        5445       0 25.1562-13.1555 93.7102       0
GRID        5446       0 27.9835-11.0107 95.9154       0
GRID        5447       0 31.9806-13.8641 91.1643       0
GRID        5448       0-58.7196 45.9627 77.3435       0
GRID        5449       0-58.9011 47.9544 79.3435       0
GRID        5450       0-60.5331 46.3857 78.7577       0
GRID        5451       0 35.8905-15.4462 96.2500       0
GRID        5452       0 31.9969-12.8147 94.6023       0
GRID        5453       0 35.9940-15.6681 89.8512       0
GRID        5454       0-4.02823-20.8818 108.749       0
GRID        5455       0-2.15816-26.7728 108.749       0
GRID        5456       0 18.3941-9.56917 93.2230       0
GRID        5457       0 20.5188-9.56576 99.0150       0
GRID        5458       0 24.6891-7.60269 97.5271       0
GRID        5459       0 17.9270-4.01635 97.0399       0
GRID        5460       0-.358002-30.3408 104.958       0
GRID        5461       0 1.36525-28.1679 107.650       0
GRID        5462       0 6.25583-28.8482 103.459       0
GRID        5463       0 7.97908-26.6752 106.151       0
GRID        5464       0-27.4907 55.9161 114.808       0
GRID        5465       0-31.6802 53.9625 114.112       0
GRID        5466       0-27.8090 50.8024 114.719       0
GRID        5467       0-4.90952-32.4632 104.958       0
GRID        5468       0 25.4753-20.0618 79.5811       0
GRID        5469       0 26.3214-19.7511 81.0307       0
GRID        5470       0 26.6616-19.5054 79.5259       0
GRID        5471       0 25.5169-1.49878 99.2354       0
GRID        5472       0 28.8113-4.90675 97.6236       0
GRID        5473       0 28.1088-7.04820 101.210       0
GRID        5474       0 15.0517-11.4327 77.9404       0
GRID        5475       0 16.4529-6.40226 77.5356       0
GRID        5476       0 16.3039-8.64357 82.6537       0
GRID        5477       0-8.93215-34.3454 107.833       0
GRID        5478       0-9.16549-34.4204 107.843       0
GRID        5479       0-14.1578-32.5585 72.0033       0
GRID        5480       0 31.9864-9.14410 95.9154       0
GRID        5481       0 32.6994-10.6732 91.0155       0
GRID        5482       0 3.84613-23.9729 108.749       0
GRID        5483       0 7.36954-25.3680 107.650       0
GRID        5484       0 31.3280-7.73235 97.4143       0
GRID        5485       0 21.8964-15.5560 108.749       0
GRID        5486       0 18.5857-10.3368 108.749       0
GRID        5487       0 15.4726-13.9556 108.749       0
GRID        5488       0-25.5868 120.578 72.3561       0
GRID        5489       0-22.3763 122.075 72.3561       0
GRID        5490       0-23.1756 120.987 73.4090       0
GRID        5491       0-19.9651 122.484 73.4090       0
GRID        5492       0-22.0810 118.896 73.7651       0
GRID        5493       0 8.67290 47.0760 96.8713       0
GRID        5494       0 4.24168 45.0097 95.0523       0
GRID        5495       0 3.96217 50.3962 91.8189       0
GRID        5496       0 8.91471 47.1887 91.8189       0
GRID        5497       0 4.48349 45.1224 90.0000       0
GRID        5498       0-21.7433 121.655 76.5131       0
GRID        5499       0-24.1545 121.246 75.4602       0
GRID        5500       0-24.7762 116.630 73.8832       0
GRID        5501       0-24.4386 119.389 76.6311       0
GRID        5502       0-22.3650 117.040 74.9361       0
GRID        5503       0 3.36145 44.5992 99.3513       0
GRID        5504       0 3.08194 49.9858 96.1179       0
GRID        5505       0-11.6530-34.9981 103.433       0
GRID        5506       0-7.72446-35.9186 103.642       0
GRID        5507       0-10.3189-36.6204 102.709       0
GRID        5508       0-6.92555-33.4467 101.210       0
GRID        5509       0-8.25971-31.8244 101.934       0
GRID        5510       0 3.72876 50.2874 86.6968       0
GRID        5511       0 8.68130 47.0799 86.6968       0
GRID        5512       0-23.7571 118.604 77.5895       0
GRID        5513       0-21.3766 114.512 77.5271       0
GRID        5514       0-23.1968 114.947 79.3452       0
GRID        5515       0 .466079 39.6790 88.1202       0
GRID        5516       0 4.99245 35.0338 88.1202       0
GRID        5517       0 4.05733 43.6848 90.0000       0
GRID        5518       0 .466079 39.6790 93.1566       0
GRID        5519       0 4.99245 35.0338 93.1566       0
GRID        5520       0 1.40121 31.0280 91.2768       0
GRID        5521       0-22.8623 116.252 71.3561       0
GRID        5522       0-20.4511 116.661 72.4090       0
GRID        5523       0-23.1463 114.395 72.5271       0
GRID        5524       0-20.2144 28.7108 90.4855       0
GRID        5525       0-16.8686 24.4879 89.0828       0
GRID        5526       0-18.5692 24.0977 96.8719       0
GRID        5527       0-23.7634 24.1939 95.4317       0
GRID        5528       0-22.0628 24.5841 87.6426       0
GRID        5529       0-19.5425 121.578 72.4090       0
GRID        5530       0-16.0010 118.816 72.4090       0
GRID        5531       0-18.7364 117.683 72.4090       0
GRID        5532       0-64.7060 107.198 111.136       0
GRID        5533       0-61.1564 103.888 112.101       0
GRID        5534       0-60.6682 109.081 112.932       0
GRID        5535       0-57.1186 105.770 113.898       0
GRID        5536       0-21.9537 121.169 71.3561       0
GRID        5537       0-23.4231 118.061 71.3561       0
GRID        5538       0-21.0119 118.471 72.4090       0
GRID        5539       0-34.1007 29.1794 69.1081       0
GRID        5540       0-35.4190 23.0478 71.1412       0
GRID        5541       0-35.8885 26.2966 67.7575       0
GRID        5542       0-34.0646 27.1472 65.8622       0
GRID        5543       0-33.5950 23.8983 69.2459       0
GRID        5544       0-19.4626 114.134 75.0000       0
GRID        5545       0-18.6814 116.778 77.4090       0
GRID        5546       0-42.7579 59.9928 68.8997       0
GRID        5547       0-44.6672 56.1402 71.6989       0
GRID        5548       0-46.8790 60.8835 71.6989       0
GRID        5549       0-16.0010 118.816 77.4090       0
GRID        5550       0-15.0126 116.288 75.0000       0
GRID        5551       0-10.0859 77.7043 97.6843       0
GRID        5552       0-8.11894 74.3263 96.7018       0
GRID        5553       0-8.58059 76.8762 93.4918       0
GRID        5554       0-23.2799 100.625 71.8197       0
GRID        5555       0-21.0295 95.7986 71.8197       0
GRID        5556       0-21.0798 98.4517 72.2742       0
GRID        5557       0-6.49292 72.3653 93.6375       0
GRID        5558       0-4.38957 68.3809 91.5403       0
GRID        5559       0-6.49292 72.3653 89.4430       0
GRID        5560       0-47.7724 49.8590 78.5932       0
GRID        5561       0-46.7562 45.3677 80.9511       0
GRID        5562       0-49.8291 55.3417 80.8830       0
GRID        5563       0-48.8129 50.8503 83.2409       0
GRID        5564       0-51.8729 48.1844 79.4284       0
GRID        5565       0-18.5334 9.63095 79.6919       0
GRID        5566       0-8.19822 69.3189 102.059       0
GRID        5567       0-6.89581 69.9314 98.9035       0
GRID        5568       0-9.42135 73.7138 99.8576       0
GRID        5569       0-18.2459 101.452 75.7057       0
GRID        5570       0-16.1712 100.883 79.6609       0
GRID        5571       0-18.9073 106.038 79.6812       0
GRID        5572       0-21.8181 102.843 75.1372       0
GRID        5573       0-19.7434 102.274 79.0924       0
GRID        5574       0-19.0819 97.6880 75.1169       0
GRID        5575       0-14.0240 36.4923 122.253       0
GRID        5576       0-20.2803 96.3734 78.5437       0
GRID        5577       0-20.9418 100.959 82.5192       0
GRID        5578       0-23.8525 97.7643 77.9752       0
GRID        5579       0-8.42952 38.4018 81.5230       0
GRID        5580       0-4.89928 40.0480 80.0282       0
GRID        5581       0-7.87264 38.6615 76.1443       0
GRID        5582       0-27.6053 102.817 73.1372       0
GRID        5583       0-27.4517 97.9234 71.3625       0
GRID        5584       0-26.8259 96.3778 74.0913       0
GRID        5585       0-26.9795 101.271 75.8660       0
GRID        5586       0-5.26979 67.9704 95.8392       0
GRID        5587       0-5.67321 66.1663 100.195       0
GRID        5588       0-11.3720-35.4313 104.824       0
GRID        5589       0-8.16804-36.0367 104.257       0
GRID        5590       0-25.0756 102.159 80.1769       0
GRID        5591       0-9.01456 85.4829 75.0000       0
GRID        5592       0-7.64483 88.5053 75.0000       0
GRID        5593       0-10.4320 88.5226 75.0000       0
GRID        5594       0-9.39033-34.5137 107.698       0
GRID        5595       0-7.94320-35.9434 104.402       0
GRID        5596       0-45.5789 21.7780 94.9621       0
GRID        5597       0-44.3052 22.3719 99.3216       0
GRID        5598       0 24.1536 3.09097 97.8022       0
GRID        5599       0 24.4049 3.16993 92.7760       0
GRID        5600       0-34.6696 67.2546 114.807       0
GRID        5601       0-34.3513 72.3683 114.896       0
GRID        5602       0-38.5408 70.4147 114.200       0
GRID        5603       0 30.2380-5.39466 96.0048       0
GRID        5604       0-12.7271 86.1039 92.0851       0
GRID        5605       0-13.6074 85.6935 96.3840       0
GRID        5606       0-14.8305 90.0883 94.1824       0
GRID        5607       0-20.2697 39.0967 114.715       0
GRID        5608       0-24.4592 37.1431 114.020       0
GRID        5609       0-24.3916 42.1398 114.626       0
GRID        5610       0-10.2808 81.0486 91.3945       0
GRID        5611       0-11.7862 81.8767 95.5870       0
GRID        5612       0 21.3467-3.46185 100.723       0
GRID        5613       0 18.5174-10.4990 102.013       0
GRID        5614       0 26.1074-7.98148 104.208       0
GRID        5615       0-47.4750 54.8309 75.0239       0
GRID        5616       0-49.6868 59.5742 75.0239       0
GRID        5617       0-56.0357 61.3435 70.5000       0
GRID        5618       0 20.6808 2.58387 88.9037       0
GRID        5619       0 20.5734 6.23662 92.9768       0
GRID        5620       0 18.3732-2.63934 91.6797       0
GRID        5621       0 18.2659 1.01341 95.7529       0
GRID        5622       0-56.6595 90.2589 68.7844       0
GRID        5623       0-56.2702 85.4752 70.1926       0
GRID        5624       0-53.1100 86.9489 67.8184       0
GRID        5625       0 21.9291 .293633 103.662       0
GRID        5626       0 20.5657 4.88339 102.229       0
GRID        5627       0 18.5094-.260863 99.9789       0
GRID        5628       0-33.3514 121.819 102.780       0
GRID        5629       0-32.5349 117.102 104.956       0
GRID        5630       0-36.2001 120.490 107.183       0
GRID        5631       0-26.6008 107.035 79.7613       0
GRID        5632       0-24.1793 103.955 74.1328       0
GRID        5633       0-28.5047 106.147 75.4503       0
GRID        5634       0-72.6585 85.8191 83.8053       0
GRID        5635       0-70.5203 85.1151 87.7108       0
GRID        5636       0-71.5330 87.1603 84.9546       0
GRID        5637       0-60.4512 62.4323 77.2252       0
GRID        5638       0-63.5931 66.8042 82.3281       0
GRID        5639       0-65.1935 63.2364 80.1029       0
GRID        5640       0-63.6126 57.7750 79.2415       0
GRID        5641       0-62.0122 61.3428 81.4668       0
GRID        5642       0-63.4254 77.9063 89.0485       0
GRID        5643       0-66.4966 78.5644 84.2457       0
GRID        5644       0-68.1767 80.0892 87.7108       0
GRID        5645       0-71.2479 80.7473 82.9081       0
GRID        5646       0-63.6618 82.8436 83.4260       0
GRID        5647       0 27.4505-5.63645 77.2907       0
GRID        5648       0-64.1669 77.6669 79.8818       0
GRID        5649       0-71.7531 75.5706 79.3639       0
GRID        5650       0-68.9182 79.8499 78.5442       0
GRID        5651       0-.475642 42.8099 117.254       0
GRID        5652       0-1.62601 107.381 74.0000       0
GRID        5653       0-.279826 102.373 74.0000       0
GRID        5654       0-63.6229 74.1345 84.9847       0
GRID        5655       0-68.8793 71.1407 80.1029       0
GRID        5656       0-64.1371 70.3366 77.2252       0
GRID        5657       0-58.8806 73.3304 82.1070       0
GRID        5658       0-4.54044 112.149 74.0000       0
GRID        5659       0-6.49016 117.504 72.3351       0
GRID        5660       0-2.57969 112.825 76.3351       0
GRID        5661       0-3.57574 112.736 72.3351       0
GRID        5662       0-43.1677 22.9023 103.756       0
GRID        5663       0-42.2298 23.3396 107.607       0
GRID        5664       0-40.2578 24.2592 106.358       0
GRID        5665       0-1.96308 27.1186 94.4360       0
GRID        5666       0-1.96308 27.1186 89.3996       0
GRID        5667       0 4.24984 26.9151 94.3249       0
GRID        5668       0 4.24984 26.9151 89.2886       0
GRID        5669       0 .885549 23.0056 92.4477       0
GRID        5670       0-117.125 106.031 75.5000       0
GRID        5671       0-117.519 104.667 76.9142       0
GRID        5672       0-119.550 105.863 77.1238       0
GRID        5673       0-120.094 104.005 74.0380       0
GRID        5674       0-119.700 105.370 72.6238       0
GRID        5675       0 8.54672 28.8642 98.1827       0
GRID        5676       0 11.3953 24.7512 96.1945       0
GRID        5677       0 10.2273 20.4621 101.716       0
GRID        5678       0 5.93043 18.5130 97.8586       0
GRID        5679       0 3.08179 22.6260 99.8468       0
GRID        5680       0-38.3276 25.1593 113.115       0
GRID        5681       0-.036823 41.7757 103.209       0
GRID        5682       0-3.12460 47.0916 108.022       0
GRID        5683       0 5.01481 44.1313 104.866       0
GRID        5684       0 2.93654 43.1622 99.3251       0
GRID        5685       0-.151234 48.4781 104.138       0
GRID        5686       0-62.0373 69.9087 87.6029       0
GRID        5687       0-61.8397 73.6805 91.6667       0
GRID        5688       0-59.4961 68.6546 91.6667       0
GRID        5689       0 8.19640 17.2878 93.6314       0
GRID        5690       0 3.97281 18.8891 93.4545       0
GRID        5691       0-47.9375 110.052 65.1995       0
GRID        5692       0-45.1093 105.371 65.2981       0
GRID        5693       0-43.5208 112.111 66.8094       0
GRID        5694       0 13.9872 17.3483 92.4631       0
GRID        5695       0 12.4933 19.2369 97.4892       0
GRID        5696       0 12.8893 22.8627 91.1683       0
GRID        5697       0-76.0777 107.412 86.6068       0
GRID        5698       0-76.0492 107.425 91.7298       0
GRID        5699       0-123.030 107.201 77.1238       0
GRID        5700       0-124.937 106.426 77.1238       0
GRID        5701       0-121.439 103.196 77.1238       0
GRID        5702       0-124.946 107.526 72.4994       0
GRID        5703       0-125.919 106.157 72.4994       0
GRID        5704       0-53.0896 107.624 114.837       0
GRID        5705       0-53.1572 102.628 114.230       0
GRID        5706       0-57.0510 110.767 114.504       0
GRID        5707       0-123.910 102.911 70.5000       0
GRID        5708       0-124.920 101.126 70.5000       0
GRID        5709       0-122.204 103.257 72.6238       0
GRID        5710       0-124.841 103.071 72.1238       0
GRID        5711       0-123.831 104.855 72.1238       0
GRID        5712       0-62.3902 113.243 121.284       0
GRID        5713       0-58.6244 114.999 118.091       0
GRID        5714       0-60.9222 113.927 113.898       0
GRID        5715       0-120.675 99.4383 77.5000       0
GRID        5716       0-119.408 102.000 76.9142       0
GRID        5717       0-121.360 101.444 74.6238       0
GRID        5718       0-125.852 121.170 72.4977       0
GRID        5719       0-127.842 118.836 72.4977       0
GRID        5720       0-61.3809 113.713 58.4001       0
GRID        5721       0-60.1719 114.277 62.0940       0
GRID        5722       0-65.4957 111.795 60.2824       0
GRID        5723       0-129.776 118.802 72.4992       0
GRID        5724       0-44.2779 51.3565 73.1071       0
GRID        5725       0-44.5754 46.3846 76.6764       0
GRID        5726       0-49.5188 47.6737 73.5693       0
GRID        5727       0-121.863 116.126 77.4989       0
GRID        5728       0-123.285 117.588 77.4977       0
GRID        5729       0 3.36145 44.5992 80.6487       0
GRID        5730       0 2.93654 43.1622 80.6749       0
GRID        5731       0-.689869 44.2960 76.5258       0
GRID        5732       0 4.47617 39.9492 75.7986       0
GRID        5733       0 4.90109 41.3862 75.7724       0
GRID        5734       0-10.8434 100.364 75.0000       0
GRID        5735       0-12.8357 104.636 75.0000       0
GRID        5736       0-7.29263 105.430 75.0000       0
GRID        5737       0 .266765 35.7012 79.3010       0
GRID        5738       0-3.35965 36.8350 75.1520       0
GRID        5739       0-27.3809 114.337 98.2266       0
GRID        5740       0-28.6041 118.732 96.0249       0
GRID        5741       0-31.4475 122.706 98.4694       0
GRID        5742       0-30.2244 118.312 100.671       0
GRID        5743       0 .421702-20.6641 90.1309       0
GRID        5744       0 2.20925-24.4975 92.1102       0
GRID        5745       0 2.20925-24.4975 88.1513       0
GRID        5746       0-118.975 111.015 77.4997       0
GRID        5747       0-118.955 112.788 77.4989       0
GRID        5748       0-116.539 111.723 75.0000       0
GRID        5749       0-120.447 113.302 72.4989       0
GRID        5750       0-120.467 111.528 72.4997       0
GRID        5751       0-12.8340-17.9272 91.0937       0
GRID        5752       0-11.5191-18.4470 85.7376       0
GRID        5753       0-5.45467-20.2678 91.2245       0
GRID        5754       0-4.13975-20.7876 85.8685       0
GRID        5755       0-11.4839-24.8273 90.1309       0
GRID        5756       0-54.5764 116.886 118.415       0
GRID        5757       0-55.6259 116.397 120.960       0
GRID        5758       0-52.5616 117.826 121.408       0
GRID        5759       0-51.5121 118.315 118.863       0
GRID        5760       0 6.79192-27.1699 95.7461       0
GRID        5761       0 5.24575-28.1087 91.9794       0
GRID        5762       0 .478037-29.8402 93.8976       0
GRID        5763       0-1.06814-30.7790 90.1309       0
GRID        5764       0-120.288 117.359 72.4989       0
GRID        5765       0-120.288 117.359 75.4989       0
GRID        5766       0-117.872 116.293 73.0000       0
GRID        5767       0-2.72172-31.3929 92.8501       0
GRID        5768       0 7.29621 88.2476 76.0000       0
GRID        5769       0-115.480 104.894 77.5000       0
GRID        5770       0-115.011 106.008 72.5000       0
GRID        5771       0-116.506 107.638 75.0000       0
GRID        5772       0-113.574 109.261 78.0000       0
GRID        5773       0-113.105 110.375 73.0000       0
GRID        5774       0-112.079 107.631 75.5000       0
GRID        5775       0-2.50101-21.0705 95.9374       0
GRID        5776       0-5.78271-28.2602 94.8820       0
GRID        5777       0-7.35193-17.4690 99.0174       0
GRID        5778       0-10.6336-24.6587 97.9620       0
GRID        5779       0-8.95555-23.5663 93.3418       0
GRID        5780       0-136.050 114.458 72.4993       0
GRID        5781       0-133.410 115.532 72.4993       0
GRID        5782       0 29.2415-12.1311 82.5630       0
GRID        5783       0-133.786 106.702 71.6667       0
GRID        5784       0-130.120 106.600 71.6667       0
GRID        5785       0-130.910 105.216 71.6667       0
GRID        5786       0 31.3359-7.74918 89.9772       0
GRID        5787       0 30.1127-5.12597 91.1643       0
GRID        5788       0 31.0002-7.02925 94.0952       0
GRID        5789       0-23.8142 31.9270 121.406       0
GRID        5790       0-23.7377 31.9627 116.753       0
GRID        5791       0-28.2743 29.8472 119.566       0
GRID        5792       0-28.1979 29.8828 114.912       0
GRID        5793       0-32.4816 50.8762 66.3269       0
GRID        5794       0-28.6104 47.7161 65.7203       0
GRID        5795       0-28.2921 52.8298 65.6314       0
GRID        5796       0 15.3492-13.0257 88.9591       0
GRID        5797       0 18.8403-8.19216 87.8628       0
GRID        5798       0-14.6948 80.9205 103.493       0
GRID        5799       0-17.8218 84.4275 105.603       0
GRID        5800       0-18.3533 88.8425 103.466       0
GRID        5801       0-15.2263 85.3355 101.357       0
GRID        5802       0 6.27564 45.9581 71.6204       0
GRID        5803       0 6.64606 46.1308 70.0187       0
GRID        5804       0 2.92432 44.3954 67.7575       0
GRID        5805       0 3.29474 44.5681 66.1558       0
GRID        5806       0-24.8906 31.9375 99.0375       0
GRID        5807       0-24.5344 32.1036 94.9519       0
GRID        5808       0-29.0020 30.0203 96.7555       0
GRID        5809       0 23.7643-15.3960 82.7091       0
GRID        5810       0 20.4951-13.6103 82.7091       0
GRID        5811       0-43.8580 121.884 115.716       0
GRID        5812       0-44.2156 121.718 120.406       0
GRID        5813       0-40.0013 123.683 118.094       0
GRID        5814       0 14.6004-17.3106 81.7705       0
GRID        5815       0 19.6938-21.2143 85.3012       0
GRID        5816       0 23.0521-17.9654 81.0307       0
GRID        5817       0 25.5885-17.5140 86.2398       0
GRID        5818       0 17.1367-16.8591 86.9796       0
GRID        5819       0-130.383 104.988 73.3333       0
GRID        5820       0-129.031 104.961 72.4994       0
GRID        5821       0 3.39105 28.5010 82.1054       0
GRID        5822       0 9.50640 28.4777 83.9851       0
GRID        5823       0 7.51656 31.0047 88.1202       0
GRID        5824       0 10.3652 26.8918 91.1683       0
GRID        5825       0 6.23968 24.3880 85.1534       0
GRID        5826       0-128.242 106.345 72.4994       0
GRID        5827       0-.986808 22.8217 85.9504       0
GRID        5828       0 1.00303 20.2947 81.8153       0
GRID        5829       0 1.86182 18.7088 88.9985       0
GRID        5830       0-129.675 99.2451 73.0000       0
GRID        5831       0-129.046 102.678 75.4994       0
GRID        5832       0-126.929 104.373 72.4994       0
GRID        5833       0-131.777 99.8329 73.0000       0
GRID        5834       0 11.0669 20.1234 82.9402       0
GRID        5835       0 13.2244 18.5774 78.5459       0
GRID        5836       0 5.91123 19.7602 81.9515       0
GRID        5837       0 8.06871 18.2142 77.5572       0
GRID        5838       0 10.5366 26.3371 78.9590       0
GRID        5839       0-24.8005 110.575 96.0249       0
GRID        5840       0-26.5007 114.748 93.9277       0
GRID        5841       0-.463886 19.7410 72.4473       0
GRID        5842       0 4.17149 18.4520 72.4473       0
GRID        5843       0 5.41389 24.0801 72.9851       0
GRID        5844       0 4.13848 20.3458 77.4324       0
GRID        5845       0 .778520 25.3690 72.9851       0
GRID        5846       0-26.8212 31.0372 101.030       0
GRID        5847       0-23.6610 32.5109 103.404       0
GRID        5848       0-31.9863 30.1570 105.942       0
GRID        5849       0-28.8261 31.6307 108.316       0
GRID        5850       0-27.0801 27.4404 103.187       0
GRID        5851       0-62.2941 66.3844 77.2252       0
GRID        5852       0-67.0364 67.1886 80.1029       0
GRID        5853       0-134.638 103.602 73.0000       0
GRID        5854       0-5.53649 112.061 75.0000       0
GRID        5855       0-10.5785 114.122 75.0000       0
GRID        5856       0-7.66404 109.354 75.0000       0
GRID        5857       0-45.0055 96.5594 114.788       0
GRID        5858       0-44.6871 101.673 114.877       0
GRID        5859       0-40.4918 98.6641 114.320       0
GRID        5860       0-57.2950 69.1046 84.7252       0
GRID        5861       0-56.0933 69.6649 79.7492       0
GRID        5862       0-49.2860 99.4677 114.837       0
GRID        5863       0-48.9677 104.581 114.926       0
GRID        5864       0-57.2782 64.7236 89.0485       0
GRID        5865       0-55.0771 65.1736 82.1070       0
GRID        5866       0-61.0519 65.5501 86.3919       0
GRID        5867       0-9.38706-18.8734 102.266       0
GRID        5868       0-14.1125-16.8163 102.658       0
GRID        5869       0-12.0774-15.4118 99.4096       0
GRID        5870       0-15.8416-21.3693 99.6703       0
GRID        5871       0-52.6165 59.0071 83.2409       0
GRID        5872       0-56.3902 59.8336 80.5843       0
GRID        5873       0-52.2897 61.5082 79.7492       0
GRID        5874       0-53.0030 112.655 114.829       0
GRID        5875       0-48.4893 114.760 114.361       0
GRID        5876       0-48.8811 109.612 114.918       0
GRID        5877       0-60.0904 70.0390 70.5000       0
GRID        5878       0-57.8786 65.2957 70.5000       0
GRID        5879       0-58.4597 68.8094 74.7252       0
GRID        5880       0-56.2479 64.0661 74.7252       0
GRID        5881       0-60.4815 67.2297 75.2252       0
GRID        5882       0-43.9883 111.885 113.857       0
GRID        5883       0-44.3801 106.737 114.413       0
GRID        5884       0-52.8962 66.1905 77.8324       0
GRID        5885       0-11.1118-36.9902 102.709       0
GRID        5886       0-11.2375-37.4223 96.2500       0
GRID        5887       0-125.670 98.1038 70.5000       0
GRID        5888       0-124.077 99.3131 72.5000       0
GRID        5889       0-37.9025 27.4066 69.5395       0
GRID        5890       0-37.4520 27.6166 72.9710       0
GRID        5891       0-112.514 101.523 77.5000       0
GRID        5892       0-108.911 98.6278 77.5000       0
GRID        5893       0-110.431 95.1417 77.5000       0
GRID        5894       0-114.034 98.0365 77.5000       0
GRID        5895       0-38.6810 30.5114 79.1069       0
GRID        5896       0-36.5002 31.5283 74.8322       0
GRID        5897       0-34.8601 28.8253 78.6277       0
GRID        5898       0-32.6793 29.8422 74.3530       0
GRID        5899       0-119.939 108.672 77.4997       0
GRID        5900       0-122.514 108.011 74.6235       0
GRID        5901       0-30.2354 24.9952 76.6532       0
GRID        5902       0-29.2835 28.9069 78.5145       0
GRID        5903       0-26.1233 30.3805 76.1403       0
GRID        5904       0-29.5190 31.3158 71.9788       0
GRID        5905       0-10.5006 63.5380 107.708       0
GRID        5906       0-13.6369 66.8225 109.243       0
GRID        5907       0-30.8911 21.4015 80.3811       0
GRID        5908       0-34.2868 22.3368 76.2197       0
GRID        5909       0-35.5158 25.2315 82.3556       0
GRID        5910       0-31.4644 27.8900 82.7891       0
GRID        5911       0-123.356 117.075 72.4989       0
GRID        5912       0-39.2399 24.7339 71.6204       0
GRID        5913       0-39.6903 24.5238 68.1889       0
GRID        5914       0-118.456 90.7312 77.5000       0
GRID        5915       0-123.333 93.8492 75.5000       0
GRID        5916       0-121.740 95.0584 77.5000       0
GRID        5917       0-9.58238-36.4094 100.420       0
GRID        5918       0-6.18906-33.2356 98.9213       0
GRID        5919       0-114.055 90.9208 77.5000       0
GRID        5920       0-115.595 86.9622 77.5000       0
GRID        5921       0-22.2267 32.7769 82.2401       0
GRID        5922       0-22.8338 32.4938 87.1628       0
GRID        5923       0-26.3897 30.2563 81.2992       0
GRID        5924       0-26.9967 29.9733 86.2219       0
GRID        5925       0-22.6767 26.5805 81.7555       0
GRID        5926       0-121.019 109.865 72.4997       0
GRID        5927       0-119.470 109.786 72.4997       0
GRID        5928       0-35.7563 25.1194 87.3818       0
GRID        5929       0-31.1316 21.2893 85.4073       0
GRID        5930       0-17.0713 17.7917 83.5597       0
GRID        5931       0-11.7399 20.5104 76.1759       0
GRID        5932       0-17.7228 16.6282 75.3838       0
GRID        5933       0-19.6155 21.7034 74.4073       0
GRID        5934       0-18.9641 22.8669 82.5832       0
GRID        5935       0-122.149 110.222 72.4997       0
GRID        5936       0-121.964 109.136 72.4997       0
GRID        5937       0-18.3502 20.8705 88.4703       0
GRID        5938       0-26.2258 22.0636 86.7017       0
GRID        5939       0-120.674 104.055 70.5000       0
GRID        5940       0-119.316 104.777 70.5000       0
GRID        5941       0-20.8163 26.8143 75.3482       0
GRID        5942       0-21.9604 32.9011 77.0812       0
GRID        5943       0-24.2628 30.6144 69.7330       0
GRID        5944       0-24.9792 24.2938 74.4073       0
GRID        5945       0-120.049 89.5220 75.5000       0
GRID        5946       0-121.642 88.3128 73.5000       0
GRID        5947       0-117.188 85.7530 75.5000       0
GRID        5948       0-30.8505 25.8936 88.6762       0
GRID        5949       0-30.5177 19.2930 91.2944       0
GRID        5950       0-4.39980-32.4852 97.4704       0
GRID        5951       0-3.61794-32.0368 98.9200       0
GRID        5952       0-6.66799 109.443 74.0000       0
GRID        5953       0-10.7624-36.7385 103.325       0
GRID        5954       0-29.2389 16.2141 86.3838       0
GRID        5955       0-5.68841-34.9936 103.219       0
GRID        5956       0-7.70986-35.8684 104.392       0
GRID        5957       0-10.3056-16.6663 94.3046       0
GRID        5958       0-103.537 88.9020 77.5000       0
GRID        5959       0-111.071 87.2015 77.5000       0
GRID        5960       0-107.787 82.8743 77.5000       0
GRID        5961       0-36.2092 47.4122 111.458       0
GRID        5962       0-32.4626 48.6582 113.374       0
GRID        5963       0-36.4632 52.2590 112.424       0
GRID        5964       0-6.78396 122.007 71.3858       0
GRID        5965       0-6.78396 122.007 76.3858       0
GRID        5966       0-8.82917 122.707 71.3858       0
GRID        5967       0-11.6471-35.4614 82.8429       0
GRID        5968       0-8.61474-36.5301 76.5319       0
GRID        5969       0-6.82168-28.9474 108.749       0
GRID        5970       0-3.24227-30.3164 107.650       0
GRID        5971       0 3.81288-18.4002 97.7859       0
GRID        5972       0-124.926 92.6400 70.5000       0
GRID        5973       0-127.787 96.4091 70.5000       0
GRID        5974       0-12.6688-26.0631 101.210       0
GRID        5975       0-127.787 96.4091 73.5000       0
GRID        5976       0-15.2023-14.2178 91.0937       0
GRID        5977       0-18.7925-10.2459 91.7627       0
GRID        5978       0-18.7032-17.5164 93.2109       0
GRID        5979       0-13.8957-12.6944 94.9736       0
GRID        5980       0 2.39750-29.3436 83.0153       0
GRID        5981       0 6.38660-27.4476 85.7868       0
GRID        5982       0 4.53403-23.7233 83.2694       0
GRID        5983       0-1.77985-26.3936 85.3797       0
GRID        5984       0 .072717-30.1179 87.8972       0
GRID        5985       0-126.194 97.6183 75.5000       0
GRID        5986       0-16.3349-21.2258 93.2109       0
GRID        5987       0-16.5102-22.5071 93.2109       0
GRID        5988       0-16.3849-22.7758 98.0515       0
GRID        5989       0-15.6227-24.4102 96.1418       0
GRID        5990       0-34.1672 29.1401 101.668       0
GRID        5991       0-24.3794 116.403 71.3561       0
GRID        5992       0-2.24011 19.0926 93.5656       0
GRID        5993       0-.282495 18.7165 97.9696       0
GRID        5994       0-5.36770 18.6002 97.9018       0
GRID        5995       0-16.7538 123.435 79.0000       0
GRID        5996       0-12.4121 125.460 79.0000       0
GRID        5997       0-27.5560 117.598 80.7635       0
GRID        5998       0-28.8591 113.769 78.2281       0
GRID        5999       0-29.3515 118.719 81.3218       0
GRID        6000       0-25.5527 119.724 78.1478       0
GRID        6001       0-7.06672-19.0116 75.0547       0
GRID        6002       0-3.97196-20.8997 71.2511       0
GRID        6003       0-3.81640-20.9466 77.9887       0
GRID        6004       0 2.74733 27.8021 104.157       0
GRID        6005       0 5.85746 31.5835 111.052       0
GRID        6006       0 4.51134 34.8095 103.209       0
GRID        6007       0-3.14412 31.7928 98.9012       0
GRID        6008       0-.033991 35.5743 105.797       0
GRID        6009       0-1.79800 28.5669 106.745       0
GRID        6010       0-25.4961 130.447 84.4968       0
GRID        6011       0-25.5729 130.411 83.7046       0
GRID        6012       0-5.10875 31.3130 88.3738       0
GRID        6013       0-8.47304 27.4036 91.5329       0
GRID        6014       0-5.10875 31.3130 93.4101       0
GRID        6015       0 7.51656 31.0047 93.1566       0
GRID        6016       0 12.9456-11.8924 86.9242       0
GRID        6017       0 4.75190 34.9217 98.1827       0
GRID        6018       0 7.04700 30.7619 103.209       0
GRID        6019       0-35.5158 25.2315 97.6444       0
GRID        6020       0-36.8898 25.8298 97.6706       0
GRID        6021       0-35.7563 25.1194 92.6182       0
GRID        6022       0-8.82917 122.707 76.3858       0
GRID        6023       0-13.1560 20.7743 89.9106       0
GRID        6024       0 1.64343-29.4075 101.960       0
GRID        6025       0 7.41522-28.5066 100.017       0
GRID        6026       0 2.80282-29.0660 98.5178       0
GRID        6027       0-14.8012 25.3874 83.5241       0
GRID        6028       0-9.16549-34.4204 72.1575       0
GRID        6029       0-8.93215-34.3454 72.1670       0
GRID        6030       0-21.2955 3.07161 73.2557       0
GRID        6031       0-21.6212-1.18346 73.1004       0
GRID        6032       0-20.6965-.797447 72.1527       0
GRID        6033       0-20.3708 3.45762 72.3081       0
GRID        6034       0-27.3444 20.6632 102.054       0
GRID        6035       0-28.2188 118.337 84.7209       0
GRID        6036       0-30.2210 123.278 89.3242       0
GRID        6037       0-28.1177 119.294 91.4215       0
GRID        6038       0-26.1155 114.352 86.8182       0
GRID        6039       0-16.4896 14.8233 103.587       0
GRID        6040       0-3.28531 120.190 72.3858       0
GRID        6041       0-5.60768 124.466 71.3858       0
GRID        6042       0-4.25693 120.427 71.3858       0
GRID        6043       0-26.3828 27.9769 92.1090       0
GRID        6044       0-30.8505 25.8936 93.9126       0
GRID        6045       0 20.7003-19.1518 107.650       0
GRID        6046       0 23.4725-19.2285 104.958       0
GRID        6047       0-20.8306 25.4520 101.165       0
GRID        6048       0-29.8638 128.410 81.2639       0
GRID        6049       0-36.2973 125.962 79.2349       0
GRID        6050       0-32.4786 122.226 79.2125       0
GRID        6051       0-30.5747 123.113 83.5235       0
GRID        6052       0-34.3934 126.850 83.5459       0
GRID        6053       0-28.4287 23.5318 99.1634       0
GRID        6054       0-50.2933 64.2565 73.1071       0
GRID        6055       0-51.0309 54.7813 85.8591       0
GRID        6056       0 .710117-29.9577 99.9732       0
GRID        6057       0-53.9041 49.3318 87.5258       0
GRID        6058       0-56.6830 49.3079 82.7026       0
GRID        6059       0-53.2234 48.0614 83.5809       0
GRID        6060       0-18.6879-8.82932 73.1004       0
GRID        6061       0-20.1505-5.72761 73.1004       0
GRID        6062       0-17.8462-8.29192 72.1527       0
GRID        6063       0 12.7772 48.9898 89.9027       0
GRID        6064       0-26.6083 129.928 99.5153       0
GRID        6065       0-53.7873 57.8996 75.8591       0
GRID        6066       0 3.16832-17.0179 102.057       0
GRID        6067       0-58.2384 60.5163 84.1233       0
GRID        6068       0-54.9346 59.6977 89.0485       0
GRID        6069       0-56.2477 54.3577 87.5258       0
GRID        6070       0-59.5516 55.1763 82.6006       0
GRID        6071       0 21.4711-20.1617 101.960       0
GRID        6072       0 18.0778-23.3355 103.459       0
GRID        6073       0 15.8978-24.5306 100.371       0
GRID        6074       0 19.2911-21.3569 98.8724       0
GRID        6075       0-57.9906 56.2658 78.3591       0
GRID        6076       0-.396945-30.6186 97.4704       0
GRID        6077       0-1.77985-26.3936 94.8820       0
GRID        6078       0-19.4115 87.7903 73.5917       0
GRID        6079       0-20.6008 90.3408 73.5917       0
GRID        6080       0-21.5514 89.8342 73.1372       0
GRID        6081       0 25.0499-8.57568 108.749       0
GRID        6082       0 26.5599-13.3813 108.749       0
GRID        6083       0 26.4821-9.80228 107.801       0
GRID        6084       0-3.90166 122.754 73.3351       0
GRID        6085       0-4.97374 125.240 72.3858       0
GRID        6086       0-5.60150 120.666 73.7209       0
GRID        6087       0-5.71187 119.521 77.3351       0
GRID        6088       0-5.08412 124.095 76.0000       0
GRID        6089       0 15.2587-18.7223 96.7305       0
GRID        6090       0 13.4711-14.8889 100.251       0
GRID        6091       0 10.9288 23.4884 111.052       0
GRID        6092       0 8.39312 27.5360 111.052       0
GRID        6093       0 9.89284 25.6382 106.026       0
GRID        6094       0-32.5410 27.8576 62.7978       0
GRID        6095       0-36.2590 26.1239 66.1558       0
GRID        6096       0-47.1333 120.357 117.660       0
GRID        6097       0-22.1649 105.354 84.7209       0
GRID        6098       0-16.4137 99.1251 72.8427       0
GRID        6099       0-17.5076 97.0607 72.8427       0
GRID        6100       0-19.9859 100.516 72.2742       0
GRID        6101       0-48.5944 119.676 121.608       0
GRID        6102       0-18.6914 96.1330 82.5192       0
GRID        6103       0-13.9208 96.0568 79.6609       0
GRID        6104       0-94.2973 58.9043 77.5000       0
GRID        6105       0-95.8903 57.6951 75.5000       0
GRID        6106       0-94.3707 56.3948 73.5000       0
GRID        6107       0-92.7776 57.6040 75.5000       0
GRID        6108       0 3.27323 63.4591 77.7675       0
GRID        6109       0 3.66142 63.6401 77.7051       0
GRID        6110       0 1.66907 67.9127 77.7051       0
GRID        6111       0-1.45798 69.2778 75.0000       0
GRID        6112       0-3.80307 67.6735 80.7010       0
GRID        6113       0-7.49154 65.4268 75.7010       0
GRID        6114       0-2.01940 65.6661 72.7051       0
GRID        6115       0-4.36449 64.0618 78.4061       0
GRID        6116       0-10.2565 125.904 75.3858       0
GRID        6117       0-7.12933 124.795 76.0000       0
GRID        6118       0-2.36600 31.1027 73.3272       0
GRID        6119       0-5.69645 28.6756 73.3272       0
GRID        6120       0 4.10897 27.7961 72.9851       0
GRID        6121       0-1.09408 29.2805 78.3123       0
GRID        6122       0-88.2420 58.2277 70.5000       0
GRID        6123       0-91.4712 57.4466 70.5000       0
GRID        6124       0-89.0195 54.3697 72.5003       0
GRID        6125       0-88.8286 57.3911 73.0003       0
GRID        6126       0-.414148 39.2685 83.8213       0
GRID        6127       0-3.94439 37.6223 85.3160       0
GRID        6128       0-3.08392 31.8075 82.4474       0
GRID        6129       0-10.4543 37.9073 87.4494       0
GRID        6130       0-14.8228 35.8703 89.4622       0
GRID        6131       0-12.7979 36.3648 83.5358       0
GRID        6132       0-9.59388 32.0925 84.5807       0
GRID        6133       0-15.2758 34.8051 69.0375       0
GRID        6134       0-12.2985 36.5977 74.3646       0
GRID        6135       0-10.5464 30.7944 73.3272       0
GRID        6136       0-10.8500 36.8689 70.8171       0
GRID        6137       0-15.0663 30.3495 86.6017       0
GRID        6138       0-18.2703 34.6218 85.5568       0
GRID        6139       0-13.0414 30.8440 80.6754       0
GRID        6140       0-90.4288 60.8396 75.5000       0
GRID        6141       0-91.9484 62.1399 77.5000       0
GRID        6142       0-87.3208 64.8614 77.5000       0
GRID        6143       0-4.84365 26.3509 85.2962       0
GRID        6144       0-11.3536 26.6359 87.4295       0
GRID        6145       0-9.32878 27.1304 81.5031       0
GRID        6146       0 .384923-30.1702 98.9200       0
GRID        6147       0-12.4388 36.5323 78.4730       0
GRID        6148       0-16.4880 34.6441 75.0601       0
GRID        6149       0-88.1448 60.0630 70.5000       0
GRID        6150       0-16.4494 89.7303 99.1551       0
GRID        6151       0-19.0299 93.4922 101.357       0
GRID        6152       0-4.35110 18.9123 89.1096       0
GRID        6153       0-7.23166 18.1446 85.0061       0
GRID        6154       0-8.20794 22.4415 88.4553       0
GRID        6155       0-4.06430 37.5664 90.4225       0
GRID        6156       0 6.80567-27.1994 98.5178       0
GRID        6157       0-5.74896 33.0315 73.3272       0
GRID        6158       0-6.05255 39.1060 70.8171       0
GRID        6159       0-3.66323 42.9095 72.6419       0
GRID        6160       0-1.53955 37.2795 69.8248       0
GRID        6161       0-12.6664 81.4662 99.8860       0
GRID        6162       0-12.0018 77.4757 102.059       0
GRID        6163       0 4.75190 34.9217 83.0941       0
GRID        6164       0 3.81677 43.5726 84.9738       0
GRID        6165       0-96.0328 66.6025 77.5000       0
GRID        6166       0-97.1582 62.6734 77.5000       0
GRID        6167       0-94.2912 63.2979 77.5000       0
GRID        6168       0 6.77002 18.1743 89.1347       0
GRID        6169       0 .745051-20.8232 71.2511       0
GRID        6170       0-2.15816-26.7728 71.2511       0
GRID        6171       0 3.84613-23.9729 71.2511       0
GRID        6172       0-8.60963 38.3312 98.0469       0
GRID        6173       0-9.65408 32.0778 95.9982       0
GRID        6174       0-10.5743 37.8514 92.5558       0
GRID        6175       0-4.06430 37.5664 95.4588       0
GRID        6176       0-.414148 39.2685 97.4556       0
GRID        6177       0-14.3155 51.8347 113.347       0
GRID        6178       0-18.3098 54.9791 114.051       0
GRID        6179       0-1.01170 35.2539 106.745       0
GRID        6180       0-90.3260 54.5271 77.5003       0
GRID        6181       0-87.9772 57.7627 77.5003       0
GRID        6182       0-2.57969 112.825 73.3351       0
GRID        6183       0-2.21322 117.705 73.3351       0
GRID        6184       0-29.1812 110.797 77.5596       0
GRID        6185       0-24.2628 30.6144 110.267       0
GRID        6186       0-22.5766 29.6423 106.294       0
GRID        6187       0-21.4325 23.5555 108.027       0
GRID        6188       0-27.6820 25.5439 110.049       0
GRID        6189       0-21.0961 104.044 72.8630       0
GRID        6190       0-21.8337 105.625 72.8630       0
GRID        6191       0-20.3998 105.539 72.8630       0
GRID        6192       0-7.82182-36.1603 76.5319       0
GRID        6193       0-7.80722-36.1102 75.7819       0
GRID        6194       0-8.04056-36.1852 75.7724       0
GRID        6195       0-24.4153 110.180 84.7209       0
GRID        6196       0-26.9957 113.942 82.5192       0
GRID        6197       0-26.2787 110.007 80.4298       0
GRID        6198       0-33.5939 22.6516 104.076       0
GRID        6199       0 7.94937-26.6097 83.8992       0
GRID        6200       0-7.33026 27.2147 106.745       0
GRID        6201       0-10.6066 30.7797 106.745       0
GRID        6202       0-13.7178 27.5705 102.772       0
GRID        6203       0-16.6350 25.7926 108.027       0
GRID        6204       0-13.3586 22.2276 108.027       0
GRID        6205       0-11.4565 26.2162 98.4793       0
GRID        6206       0-6.54874 23.2744 102.367       0
GRID        6207       0-10.3158 16.9330 99.3571       0
GRID        6208       0-12.5771 18.2873 103.650       0
GRID        6209       0-24.8450 108.132 71.8586       0
GRID        6210       0-24.1949 106.737 71.8586       0
GRID        6211       0-24.8051 105.501 71.4040       0
GRID        6212       0-14.8022 30.4391 99.8819       0
GRID        6213       0-20.9236 107.080 72.8630       0
GRID        6214       0-18.9544 106.647 72.8630       0
GRID        6215       0-8.26540-36.2784 75.9166       0
GRID        6216       0-19.4654 32.8515 110.267       0
GRID        6217       0-39.8280 123.764 112.738       0
GRID        6218       0-39.8500 123.753 108.957       0
GRID        6219       0-35.5793 125.745 109.493       0
GRID        6220       0-9.94304 16.1702 72.3944       0
GRID        6221       0-9.29162 17.3336 80.5703       0
GRID        6222       0-15.2745 13.4515 79.7781       0
GRID        6223       0-25.2193 130.576 89.5052       0
GRID        6224       0-28.9983 16.3263 81.3576       0
GRID        6225       0-76.4014 76.2838 79.3639       0
GRID        6226       0-76.6999 71.8220 78.0390       0
GRID        6227       0-72.0516 71.1088 78.0390       0
GRID        6228       0-15.4526 24.2240 75.3482       0
GRID        6229       0 6.38660-27.4476 89.7457       0
GRID        6230       0-22.2765 5.24704 78.2819       0
GRID        6231       0-22.7688 2.71721 82.5200       0
GRID        6232       0-26.7973 9.52559 81.3576       0
GRID        6233       0-76.6129 64.5532 77.5000       0
GRID        6234       0-74.9025 67.4914 78.0390       0
GRID        6235       0-78.5729 68.7563 77.5000       0
GRID        6236       0-11.6274 15.2238 84.9310       0
GRID        6237       0-27.2871 11.8943 76.3315       0
GRID        6238       0-85.5024 73.4960 77.5000       0
GRID        6239       0-82.3303 77.2900 77.5000       0
GRID        6240       0-86.7784 78.4707 77.5000       0
GRID        6241       0-5.78988-35.2387 76.9790       0
GRID        6242       0-80.0897 62.2804 70.5000       0
GRID        6243       0-16.7668 29.9593 94.3908       0
GRID        6244       0-13.4211 25.7364 92.9882       0
GRID        6245       0-.488854-30.6700 82.6766       0
GRID        6246       0-2.81363-31.4442 87.5586       0
GRID        6247       0-5.78271-28.2602 85.3797       0
GRID        6248       0-60.8070 44.7990 76.1488       0
GRID        6249       0-65.7640 44.3474 74.9142       0
GRID        6250       0-62.1765 44.6742 71.9142       0
GRID        6251       0-15.3228 35.6371 95.2019       0
GRID        6252       0-20.4709 33.9984 99.0856       0
GRID        6253       0-13.3581 36.1169 100.693       0
GRID        6254       0-81.7766 61.0884 70.5000       0
GRID        6255       0-83.2937 62.2487 70.5000       0
GRID        6256       0-7.93284 38.6468 103.928       0
GRID        6257       0-12.3587 36.5830 105.707       0
GRID        6258       0 3.96026-28.5058 81.1276       0
GRID        6259       0 .904805-29.9101 80.7743       0
GRID        6260       0-15.2758 34.8051 110.963       0
GRID        6261       0-10.4784 37.0422 110.963       0
GRID        6262       0-5.80916 33.0168 106.745       0
GRID        6263       0-88.6721 73.8106 77.5000       0
GRID        6264       0-91.2934 70.8177 77.5000       0
GRID        6265       0-87.3961 68.8359 77.5000       0
GRID        6266       0-32.1546 109.411 73.6756       0
GRID        6267       0-32.1071 114.881 77.9011       0
GRID        6268       0-35.0805 113.495 74.0172       0
GRID        6269       0-28.6303 112.915 74.0587       0
GRID        6270       0-11.0512-33.4056 72.7435       0
GRID        6271       0-28.8006 120.837 77.8209       0
GRID        6272       0-35.2342 118.388 75.7919       0
GRID        6273       0-75.6468 60.3211 70.5000       0
GRID        6274       0-8.35706-32.0661 78.2402       0
GRID        6275       0-35.9097 120.626 73.1372       0
GRID        6276       0-35.6195 120.761 73.3876       0
GRID        6277       0-31.9416 119.372 71.9959       0
GRID        6278       0-32.2317 119.237 71.7456       0
GRID        6279       0-9.07273-31.6554 89.9824       0
GRID        6280       0-2.89218-31.5918 76.2388       0
GRID        6281       0-6.16612-33.1563 90.1309       0
GRID        6282       0-30.7640 118.634 72.2001       0
GRID        6283       0-31.1966 118.382 72.1148       0
GRID        6284       0-71.1548 64.1838 78.0390       0
GRID        6285       0-69.7681 61.1318 78.0259       0
GRID        6286       0-73.5158 64.4394 78.0259       0
GRID        6287       0-6.82168-28.9474 71.2511       0
GRID        6288       0 3.18782-22.5612 107.250       0
GRID        6289       0-23.2848 108.192 71.8586       0
GRID        6290       0-23.3432 107.719 74.7216       0
GRID        6291       0-21.9590 108.776 72.8630       0
GRID        6292       0-24.3202 109.888 71.8586       0
GRID        6293       0-25.9630 110.529 71.8586       0
GRID        6294       0-26.4608 111.597 71.8586       0
GRID        6295       0-24.9856 111.575 71.8586       0
GRID        6296       0-25.7378 105.208 103.030       0
GRID        6297       0-28.2588 104.222 106.861       0
GRID        6298       0-25.0318 100.699 105.144       0
GRID        6299       0-32.3851 104.338 72.4526       0
GRID        6300       0-31.4857 101.007 70.1395       0
GRID        6301       0-22.6698 101.861 72.2742       0
GRID        6302       0 1.93034 87.8121 75.0000       0
GRID        6303       0-4.23308 88.3486 75.0000       0
GRID        6304       0-2.24074 84.0761 75.0000       0
GRID        6305       0-90.1183 95.7577 75.0000       0
GRID        6306       0-22.0696 1.99209 92.0855       0
GRID        6307       0-17.3759 7.48126 93.8933       0
GRID        6308       0-24.2396 105.923 80.7657       0
GRID        6309       0-89.7543 95.0076 70.5000       0
GRID        6310       0-41.9556 38.0000 78.0710       0
GRID        6311       0-40.9394 33.5086 80.4288       0
GRID        6312       0-39.6972 35.0027 76.7490       0
GRID        6313       0-9.83843-34.8110 72.5333       0
GRID        6314       0-41.8789 23.5033 91.8189       0
GRID        6315       0-41.6371 23.6160 96.8713       0
GRID        6316       0-.657287 19.2836 107.622       0
GRID        6317       0-2.00341 22.5096 99.7790       0
GRID        6318       0-79.5097 105.260 81.2737       0
GRID        6319       0-81.7143 104.232 77.5516       0
GRID        6320       0-82.9891 103.637 82.7507       0
GRID        6321       0 6.74174 32.3946 78.9590       0
GRID        6322       0-93.4164 94.5429 75.5000       0
GRID        6323       0-92.2139 91.7625 77.5000       0
GRID        6324       0-96.3698 93.8629 77.5000       0
GRID        6325       0-17.9111 34.7893 80.4940       0
GRID        6326       0-21.2282 92.5420 105.144       0
GRID        6327       0-24.3641 91.2526 108.551       0
GRID        6328       0-24.8781 95.8053 106.919       0
GRID        6329       0-28.0140 94.5158 110.325       0
GRID        6330       0-10.2754 21.5420 94.0140       0
GRID        6331       0-6.50841 27.8834 97.0240       0
GRID        6332       0-14.1432-30.7562 73.1264       0
GRID        6333       0-70.6336 94.5897 83.1459       0
GRID        6334       0-73.0438 98.3445 86.7540       0
GRID        6335       0-72.1675 98.7531 82.0487       0
GRID        6336       0-19.9709 34.2316 93.3459       0
GRID        6337       0-88.7384 82.6738 77.5000       0
GRID        6338       0-90.2540 87.5594 77.5000       0
GRID        6339       0-85.9211 85.9112 77.5000       0
GRID        6340       0-25.6396 118.978 75.3196       0
GRID        6341       0-25.3555 120.834 74.1487       0
GRID        6342       0-25.5753 108.316 71.7403       0
GRID        6343       0-25.3155 115.744 72.5271       0
GRID        6344       0-24.6635 114.546 72.5271       0
GRID        6345       0-25.0314 117.600 71.3561       0
GRID        6346       0-15.3175 106.196 75.0000       0
GRID        6347       0-15.5130 103.829 75.0000       0
GRID        6348       0-17.3451 106.156 77.8630       0
GRID        6349       0-19.1499 104.280 72.8630       0
GRID        6350       0-7.45617 23.2190 76.1759       0
GRID        6351       0-9.98020 25.9670 73.3272       0
GRID        6352       0-25.4288 109.383 71.8586       0
GRID        6353       0-27.0555 110.327 71.4040       0
GRID        6354       0 32.0994-15.2555 72.9170       0
GRID        6355       0 32.8311-14.9910 73.2929       0
GRID        6356       0 32.9908-14.8394 72.5333       0
GRID        6357       0 32.2591-15.1039 72.1575       0
GRID        6358       0-70.5314 45.7591 70.5000       0
GRID        6359       0-72.1474 48.4802 70.5000       0
GRID        6360       0 3.11533 33.5285 74.8099       0
GRID        6361       0-19.8713 108.862 72.8630       0
GRID        6362       0-39.6234 50.7853 110.050       0
GRID        6363       0-82.9788 92.1556 74.0961       0
GRID        6364       0-79.8427 91.1112 70.5000       0
GRID        6365       0-84.6528 92.8348 70.5000       0
GRID        6366       0-73.9294 87.3913 78.2642       0
GRID        6367       0-72.3037 87.0066 75.1549       0
GRID        6368       0-69.9557 88.2312 78.6991       0
GRID        6369       0-70.7611 83.8020 78.5442       0
GRID        6370       0-71.5814 88.6159 81.8083       0
GRID        6371       0-29.4999 17.9051 111.052       0
GRID        6372       0-7.28142 17.5144 93.4692       0
GRID        6373       0-83.4511 87.5124 78.0898       0
GRID        6374       0-79.4429 85.7737 80.2611       0
GRID        6375       0-78.3657 88.5705 78.2642       0
GRID        6376       0-10.1620 16.7468 89.3658       0
GRID        6377       0-75.3994 107.176 73.7197       0
GRID        6378       0-71.7971 108.856 73.8730       0
GRID        6379       0-71.1906 104.174 75.7898       0
GRID        6380       0-72.7588 108.959 77.9778       0
GRID        6381       0-56.9590 110.810 65.4732       0
GRID        6382       0-60.5761 109.123 67.0458       0
GRID        6383       0-57.0266 105.813 66.0798       0
GRID        6384       0-28.3083 115.887 74.7272       0
GRID        6385       0-28.8876 120.091 74.9927       0
GRID        6386       0 18.9876 8.76995 101.895       0
GRID        6387       0 20.3221 6.15766 98.0030       0
GRID        6388       0-33.5347 77.3679 114.893       0
GRID        6389       0-29.5296 74.3547 114.474       0
GRID        6390       0-29.1378 79.5026 113.918       0
GRID        6391       0-33.1430 82.5158 114.337       0
GRID        6392       0-18.9099-8.97108 78.1265       0
GRID        6393       0-28.5030 29.7406 60.5825       0
GRID        6394       0-24.3882 31.6593 58.7002       0
GRID        6395       0-58.9131 115.416 66.8735       0
GRID        6396       0-62.5302 113.729 68.4460       0
GRID        6397       0-25.3824 111.803 74.3856       0
GRID        6398       0-26.7386 114.834 72.4637       0
GRID        6399       0-27.0606 111.862 71.7952       0
GRID        6400       0-29.9865 115.947 72.1368       0
GRID        6401       0-79.7194 105.162 96.3127       0
GRID        6402       0-76.2093 106.799 97.2011       0
GRID        6403       0-74.6236 102.573 94.5829       0
GRID        6404       0-23.0212 110.691 75.3900       0
GRID        6405       0-23.9981 112.859 72.5271       0
GRID        6406       0-64.3680 84.8592 100.854       0
GRID        6407       0-66.7852 87.4235 96.6427       0
GRID        6408       0-66.5636 90.3941 101.615       0
GRID        6409       0-67.1701 95.0765 103.532       0
GRID        6410       0-69.3510 94.0595 99.2570       0
GRID        6411       0-70.3672 98.5509 101.615       0
GRID        6412       0-63.8576 92.2784 105.972       0
GRID        6413       0-61.0499 93.5877 109.297       0
GRID        6414       0-60.2078 88.4477 107.797       0
GRID        6415       0-63.0156 87.1384 104.472       0
GRID        6416       0-29.9814 114.411 71.7456       0
GRID        6417       0-23.6413 47.5816 114.871       0
GRID        6418       0-28.5913 45.4981 113.980       0
GRID        6419       0-72.9094 108.889 101.756       0
GRID        6420       0-37.5181 31.0536 103.146       0
GRID        6421       0-39.6989 30.0367 98.8719       0
GRID        6422       0-37.7770 27.4568 105.303       0
GRID        6423       0-17.7589 8.98902 72.3081       0
GRID        6424       0-26.0228 8.88366 73.9738       0
GRID        6425       0-25.0419 6.70823 68.9477       0
GRID        6426       0-4.95948 40.0333 100.044       0
GRID        6427       0-75.2618 102.275 89.3723       0
GRID        6428       0-73.4704 98.8607 92.4017       0
GRID        6429       0-27.7749 11.6907 86.3838       0
GRID        6430       0-33.3533 22.7638 109.102       0
GRID        6431       0-29.5767 16.5235 106.567       0
GRID        6432       0-83.8655 103.229 87.4560       0
GRID        6433       0-80.3575 104.864 91.1020       0
GRID        6434       0-83.7029 103.304 92.5155       0
GRID        6435       0-8.25217-18.4453 106.807       0
GRID        6436       0-12.9776-16.3882 107.199       0
GRID        6437       0-14.5000 12.8095 72.3944       0
GRID        6438       0-73.4219 103.133 99.5589       0
GRID        6439       0 12.6053 79.1983 75.0000       0
GRID        6440       0 9.07531 82.9503 76.0000       0
GRID        6441       0 8.36707 82.2443 75.0000       0
GRID        6442       0-5.65930 18.8788 72.3944       0
GRID        6443       0-3.59934 19.6898 76.8302       0
GRID        6444       0 4.12712 92.7813 76.0000       0
GRID        6445       0-18.1660 20.6843 108.027       0
GRID        6446       0-37.1316 25.7170 92.6182       0
GRID        6447       0 14.6505 78.4981 75.0000       0
GRID        6448       0-17.7194 28.6612 105.137       0
GRID        6449       0-9.51339-26.5873 72.1988       0
GRID        6450       0-54.0910 46.8310 76.0693       0
GRID        6451       0-52.2784 47.6762 74.0693       0
GRID        6452       0-56.1477 52.3136 78.3591       0
GRID        6453       0-54.3351 53.1588 76.3591       0
GRID        6454       0-33.1488 33.0911 70.9693       0
GRID        6455       0-29.9886 34.5647 68.5952       0
GRID        6456       0-58.9936 44.3760 74.7346       0
GRID        6457       0-42.6330 23.1516 77.8323       0
GRID        6458       0-39.4817 24.6211 76.6728       0
GRID        6459       0-42.3912 23.2644 72.7799       0
GRID        6460       0-16.9157-12.6608 77.7774       0
GRID        6461       0 27.9152-14.4542 73.1264       0
GRID        6462       0 28.6814-18.4343 77.2907       0
GRID        6463       0 28.6336-18.4132 76.5407       0
GRID        6464       0 32.0516-15.2344 72.1670       0
GRID        6465       0-61.7697 53.8228 79.2415       0
GRID        6466       0 8.10171 16.3204 72.5720       0
GRID        6467       0-62.4218 47.6337 79.3435       0
GRID        6468       0-25.1037 76.4185 112.695       0
GRID        6469       0-88.8978 47.2645 72.5006       0
GRID        6470       0-88.8592 52.0854 72.5006       0
GRID        6471       0 15.9497 11.8499 72.5720       0
GRID        6472       0 14.2603 16.4276 73.5197       0
GRID        6473       0 13.3702 15.9674 72.5720       0
GRID        6474       0-19.2003-5.42011 72.1527       0
GRID        6475       0 9.06984 26.3411 68.9477       0
GRID        6476       0 10.6824 23.7271 72.9851       0
GRID        6477       0 9.03684 28.2349 73.9328       0
GRID        6478       0-20.8983 87.9108 107.085       0
GRID        6479       0-37.3383 85.5247 114.893       0
GRID        6480       0-36.6911 90.5816 114.373       0
GRID        6481       0-32.4958 87.5727 113.817       0
GRID        6482       0-24.4950 81.4406 111.716       0
GRID        6483       0-20.7446 83.0172 108.860       0
GRID        6484       0-20.8193 78.2503 110.574       0
GRID        6485       0 5.39156 77.1334 75.0000       0
GRID        6486       0-.558615 78.6947 75.0000       0
GRID        6487       0 4.71785 75.1654 75.0000       0
GRID        6488       0-15.3534 41.3892 114.715       0
GRID        6489       0-19.5194 44.5385 114.960       0
GRID        6490       0-17.3299-26.5179 77.2907       0
GRID        6491       0-16.1760-27.9754 73.6977       0
GRID        6492       0-73.6907 107.973 65.6988       0
GRID        6493       0-69.9727 109.707 62.3408       0
GRID        6494       0-20.4011-5.80872 78.1265       0
GRID        6495       0-79.1655 105.420 104.282       0
GRID        6496       0-10.6186 68.9339 73.5917       0
GRID        6497       0-4.23839 71.7718 76.8182       0
GRID        6498       0-9.71051 73.6746 80.4099       0
GRID        6499       0-6.58347 70.1675 82.5192       0
GRID        6500       0-74.2243 107.724 113.709       0
GRID        6501       0-17.5076 88.6781 77.9027       0
GRID        6502       0-15.3174 92.3638 72.8427       0
GRID        6503       0-17.6999 92.6114 80.7454       0
GRID        6504       0-19.6038 91.7236 76.4344       0
GRID        6505       0-73.5190 57.4914 70.5000       0
GRID        6506       0-16.6937-12.5191 72.7512       0
GRID        6507       0-13.1412-16.2274 71.8035       0
GRID        6508       0-15.8520-11.9817 71.8035       0
GRID        6509       0-75.4262 58.3542 70.5000       0
GRID        6510       0-74.8902 57.4915 73.0008       0
GRID        6511       0-75.7171 54.0621 72.5008       0
GRID        6512       0-16.8969 75.2887 71.3625       0
GRID        6513       0-17.1275 70.2160 70.1395       0
GRID        6514       0-21.1891 75.9299 68.6240       0
GRID        6515       0-21.4197 70.8572 67.4010       0
GRID        6516       0-75.6545 51.8886 77.5007       0
GRID        6517       0-73.6945 47.6854 77.5007       0
GRID        6518       0-15.0967-15.6676 80.5692       0
GRID        6519       0-14.2761-16.6555 76.3442       0
GRID        6520       0-11.0258-18.5905 79.2783       0
GRID        6521       0 17.0192 12.5199 78.5459       0
GRID        6522       0 16.7960 12.3801 73.5197       0
GRID        6523       0-6.15768 85.4413 75.0000       0
GRID        6524       0-7.34500 81.9025 75.0000       0
GRID        6525       0-4.16533 81.1687 75.0000       0
GRID        6526       0-5.35266 77.6299 75.0000       0
GRID        6527       0-46.5824 41.9724 94.8797       0
GRID        6528       0-45.7245 43.9572 99.7202       0
GRID        6529       0-42.9371 40.2917 102.078       0
GRID        6530       0-43.7951 38.3070 97.2376       0
GRID        6531       0-42.7789 33.8156 94.8797       0
GRID        6532       0-40.8364 29.5063 94.4372       0
GRID        6533       0-44.9968 37.7466 92.2615       0
GRID        6534       0-43.0544 33.4373 91.8189       0
GRID        6535       0-42.4336 97.4103 65.6097       0
GRID        6536       0-40.9140 102.362 65.8547       0
GRID        6537       0-38.2340 97.3611 65.9178       0
GRID        6538       0 28.6470-14.1897 73.5022       0
GRID        6539       0-54.1600 93.2517 67.2701       0
GRID        6540       0-52.4109 89.5319 67.2663       0
GRID        6541       0-47.2018 42.2892 91.6667       0
GRID        6542       0-46.5210 41.0188 87.7219       0
GRID        6543       0-40.5076 87.8314 65.0444       0
GRID        6544       0-44.6719 88.1755 65.6048       0
GRID        6545       0-42.8254 92.2624 65.0531       0
GRID        6546       0-48.1066 45.2447 85.1036       0
GRID        6547       0-45.3193 41.5792 82.7458       0
GRID        6548       0-20.5677-4.08348 82.5200       0
GRID        6549       0-36.2994 95.7294 113.817       0
GRID        6550       0-35.9195 100.754 112.861       0
GRID        6551       0-32.2653 92.6454 112.594       0
GRID        6552       0-31.8854 97.6700 111.638       0
GRID        6553       0-61.1710 81.3848 102.771       0
GRID        6554       0-59.8185 83.6640 106.389       0
GRID        6555       0-28.2986 89.5973 111.716       0
GRID        6556       0-21.9047 97.1918 103.035       0
GRID        6557       0-66.8271 95.2219 75.7620       0
GRID        6558       0-69.0079 94.2050 80.0367       0
GRID        6559       0-70.0241 98.6963 77.6788       0
GRID        6560       0-7.84420-34.2486 94.7511       0
GRID        6561       0-10.7508-32.7477 94.6027       0
GRID        6562       0-77.3926 106.247 77.6208       0
GRID        6563       0-73.1837 103.244 79.6909       0
GRID        6564       0-64.4642 96.9608 107.889       0
GRID        6565       0-74.8759 107.972 81.6307       0
GRID        6566       0-74.3854 102.684 84.6669       0
GRID        6567       0-51.9728 118.100 59.0137       0
GRID        6568       0-48.0162 119.945 59.5670       0
GRID        6569       0-45.9487 76.7374 112.853       0
GRID        6570       0-46.2027 81.5841 113.819       0
GRID        6571       0-42.3315 78.4241 114.426       0
GRID        6572       0-57.2653 115.632 59.2471       0
GRID        6573       0-13.1222-18.1129 72.7512       0
GRID        6574       0-12.4121 125.460 71.0000       0
GRID        6575       0-10.2565 125.904 72.3858       0
GRID        6576       0 35.4786-15.2647 77.2907       0
GRID        6577       0-15.3273 120.784 72.4090       0
GRID        6578       0-15.3273 120.784 77.4090       0
GRID        6579       0-44.1497 22.4444 88.0838       0
GRID        6580       0-22.6021 .991972 78.1265       0
GRID        6581       0 .249800 96.6090 75.0000       0
GRID        6582       0-4.73688 96.8845 75.0000       0
GRID        6583       0-6.17282 102.226 75.0000       0
GRID        6584       0-1.18613 101.951 75.0000       0
GRID        6585       0 3.41888 92.0753 75.0000       0
GRID        6586       0-72.2993 61.1807 76.0259       0
GRID        6587       0 23.8088-19.3398 97.3234       0
GRID        6588       0 20.9375-20.6983 96.9847       0
GRID        6589       0 21.1534-15.0221 93.7102       0
GRID        6590       0 22.8155-18.8352 91.1927       0
GRID        6591       0 25.6869-17.4766 91.5313       0
GRID        6592       0-79.8395 63.2537 75.5000       0
GRID        6593       0-75.3965 61.2945 75.5000       0
GRID        6594       0 30.2380-5.39466 86.3237       0
GRID        6595       0-70.9054 57.0425 77.5000       0
GRID        6596       0-69.7940 51.7902 77.5000       0
GRID        6597       0-71.7790 52.0354 75.5000       0
GRID        6598       0 33.0500-5.86858 74.4163       0
GRID        6599       0-75.6346 53.6620 77.5008       0
GRID        6600       0-6.18955 17.9315 107.622       0
GRID        6601       0-79.0151 59.3265 77.5023       0
GRID        6602       0-15.6226 123.963 71.0000       0
GRID        6603       0-12.4121 125.460 74.0000       0
GRID        6604       0-63.8836 43.9305 70.5000       0
GRID        6605       0-62.1233 44.0909 70.2500       0
GRID        6606       0 32.8281-4.37560 77.2907       0
GRID        6607       0 19.0999-6.74356 104.952       0
GRID        6608       0 28.0463-18.8628 79.5798       0
GRID        6609       0 34.0417-10.0827 72.0033       0
GRID        6610       0 34.4518-14.0634 75.1765       0
GRID        6611       0 25.1034-20.1743 78.5279       0
GRID        6612       0 26.6641-19.3994 77.7134       0
GRID        6613       0 26.2310-19.6636 78.7896       0
GRID        6614       0 27.1694-14.6885 72.7500       0
GRID        6615       0 11.5725 24.1873 73.9328       0
GRID        6616       0 23.0752-21.2042 79.9833       0
GRID        6617       0-11.3253 72.8259 104.169       0
GRID        6618       0-14.0182 76.2708 105.603       0
GRID        6619       0-56.1780 57.1110 76.3591       0
GRID        6620       0-58.6386 63.2775 75.2252       0
GRID        6621       0-6.81076 39.8558 118.653       0
GRID        6622       0-9.22649 38.7294 116.753       0
GRID        6623       0-9.15007 38.7650 121.406       0
GRID        6624       0 11.0488-13.2993 77.9404       0
GRID        6625       0 12.8128-13.4771 72.7500       0
GRID        6626       0-18.5705-10.1042 96.7889       0
GRID        6627       0-18.4812-17.3746 98.2371       0
GRID        6628       0 11.7072-14.7110 79.4393       0
GRID        6629       0-1.81497-20.0133 80.9865       0
GRID        6630       0-5.81783-21.8799 80.9865       0
GRID        6631       0 7.76492 30.0571 68.9477       0
GRID        6632       0-15.5900-15.5241 87.0285       0
GRID        6633       0-17.9583-11.8147 87.0285       0
GRID        6634       0-16.7521-12.8216 101.225       0
GRID        6635       0 2.74648-19.8899 79.7489       0
GRID        6636       0-13.1620-25.9196 85.2489       0
GRID        6637       0 11.6934-14.6816 82.2109       0
GRID        6638       0-69.8190 47.8323 75.5000       0
GRID        6639       0-72.5894 45.5035 75.0000       0
GRID        6640       0-72.4080 43.5118 73.0000       0
GRID        6641       0-69.6376 45.8405 73.5000       0
GRID        6642       0-38.1621 25.2364 109.944       0
GRID        6643       0-34.7260 23.3626 109.154       0
GRID        6644       0-35.6813 28.4340 108.889       0
GRID        6645       0-4.78905 49.3232 71.3625       0
GRID        6646       0-2.04687 47.5942 73.5422       0
GRID        6647       0 .926492 48.9807 77.4261       0
GRID        6648       0-1.81568 50.7097 75.2465       0
GRID        6649       0-40.4996 24.1465 101.306       0
GRID        6650       0-34.9679 23.2498 104.102       0
GRID        6651       0-73.2326 52.4356 73.0008       0
GRID        6652       0-73.2525 50.6621 73.0007       0
GRID        6653       0-40.7151 34.5281 101.230       0
GRID        6654       0-16.7485-29.0900 74.4163       0
GRID        6655       0-35.4224 32.0309 106.732       0
GRID        6656       0-32.0796 33.5897 109.805       0
GRID        6657       0-32.3386 29.9928 111.962       0
GRID        6658       0-16.0902-30.5018 72.9174       0
GRID        6659       0-24.6854 31.5207 111.267       0
GRID        6660       0 .497736 56.7537 84.7209       0
GRID        6661       0-.417679 58.9361 90.6226       0
GRID        6662       0 1.85882 54.3806 89.7216       0
GRID        6663       0-36.5726 42.2512 109.731       0
GRID        6664       0-67.4712 43.6036 73.5000       0
GRID        6665       0-67.6526 45.5954 75.5000       0
GRID        6666       0-65.9455 46.3391 76.9142       0
GRID        6667       0-132.380 119.884 75.4992       0
GRID        6668       0-133.670 118.583 75.4993       0
GRID        6669       0-132.470 116.610 77.4992       0
GRID        6670       0-133.760 115.309 77.4993       0
GRID        6671       0 2.08343 60.1459 75.6132       0
GRID        6672       0 2.00388 61.7638 73.7051       0
GRID        6673       0 3.43705 62.4321 76.8091       0
GRID        6674       0 1.85882 54.3806 93.9162       0
GRID        6675       0 .721324 53.8502 98.3509       0
GRID        6676       0 1.94445 49.4553 100.553       0
GRID        6677       0-103.629 64.5821 70.5000       0
GRID        6678       0-106.490 68.3512 70.5000       0
GRID        6679       0-.417679 58.9361 94.8172       0
GRID        6680       0-1.97911 57.7404 99.8671       0
GRID        6681       0-4.55955 61.5023 102.069       0
GRID        6682       0-2.99812 62.6981 97.0189       0
GRID        6683       0-3.18485 117.941 72.3351       0
GRID        6684       0-29.2671 29.3843 65.8622       0
GRID        6685       0-72.0468 50.6303 70.5000       0
GRID        6686       0-35.6608 22.9350 76.1935       0
GRID        6687       0-71.8614 52.4354 70.5000       0
GRID        6688       0 16.4541 11.2750 107.869       0
GRID        6689       0 17.7836 8.39165 107.869       0
GRID        6690       0-75.3934 46.1787 77.5003       0
GRID        6691       0-80.7686 45.6889 77.5003       0
GRID        6692       0-24.6854 31.5207 68.7330       0
GRID        6693       0-19.8880 33.7578 68.7330       0
GRID        6694       0 22.5059-16.8631 72.7500       0
GRID        6695       0 23.2395-13.2109 72.7500       0
GRID        6696       0 27.9030-11.0363 72.7500       0
GRID        6697       0-29.7766 22.0567 74.4073       0
GRID        6698       0 35.4786-15.2647 102.709       0
GRID        6699       0-2.11789 63.1085 92.7199       0
GRID        6700       0-39.5683 38.3987 74.7818       0
GRID        6701       0-41.4596 41.9309 75.0239       0
GRID        6702       0-50.3656 62.5900 105.959       0
GRID        6703       0-46.9460 62.7351 109.048       0
GRID        6704       0-45.5080 21.8110 84.7805       0
GRID        6705       0-41.4037 23.7249 81.6444       0
GRID        6706       0-17.3953 94.1200 96.8302       0
GRID        6707       0-56.2218 67.2007 100.663       0
GRID        6708       0-53.0248 63.7262 102.580       0
GRID        6709       0-55.9255 70.2714 103.542       0
GRID        6710       0-52.7285 66.7970 105.459       0
GRID        6711       0-28.5291 84.5247 112.939       0
GRID        6712       0-24.6487 86.3341 109.941       0
GRID        6713       0-41.6455 23.6121 86.6968       0
GRID        6714       0 11.3953 24.7512 86.1422       0
GRID        6715       0-40.6030 29.6151 84.0785       0
GRID        6716       0-40.8364 29.5063 89.2007       0
GRID        6717       0-37.1316 25.7170 87.3818       0
GRID        6718       0 18.7363 8.69099 106.921       0
GRID        6719       0-5.71187 119.521 72.3351       0
GRID        6720       0-21.2195 73.3162 111.928       0
GRID        6721       0-21.4500 68.2435 113.151       0
GRID        6722       0-25.3343 71.3458 113.918       0
GRID        6723       0 2.74648-19.8899 85.2489       0
GRID        6724       0 18.8581 9.33269 98.0030       0
GRID        6725       0 17.5236 11.9450 101.895       0
GRID        6726       0 16.2881 13.1794 97.4892       0
GRID        6727       0 2.74648-19.8899 94.7511       0
GRID        6728       0-10.9969 16.3882 107.622       0
GRID        6729       0-22.6107 101.701 100.920       0
GRID        6730       0-19.9758 97.8820 99.0319       0
GRID        6731       0-21.1713 102.005 96.0911       0
GRID        6732       0-40.1848 103.728 113.857       0
GRID        6733       0-20.2911 102.415 91.7921       0
GRID        6734       0-22.3944 106.400 93.8894       0
GRID        6735       0 7.18737 46.3833 111.220       0
GRID        6736       0 7.29359 46.4328 106.358       0
GRID        6737       0 5.19791 45.4556 109.944       0
GRID        6738       0-10.6543 68.4316 105.934       0
GRID        6739       0-13.7905 71.7161 107.468       0
GRID        6740       0-3.57574 112.736 77.3351       0
GRID        6741       0 13.7288 18.0025 101.895       0
GRID        6742       0 4.42792 19.4000 107.690       0
GRID        6743       0-32.0391 102.564 109.863       0
GRID        6744       0 31.4534-3.76988 102.709       0
GRID        6745       0-28.7314 108.946 104.956       0
GRID        6746       0-35.8971 105.692 111.598       0
GRID        6747       0-32.0167 107.502 108.600       0
GRID        6748       0 20.8717-.300571 108.203       0
GRID        6749       0 19.3617 4.50509 108.203       0
GRID        6750       0 27.8117-17.4732 97.3234       0
GRID        6751       0 22.3309-19.9190 99.2257       0
GRID        6752       0 26.3337-18.0524 99.2257       0
GRID        6753       0-71.2525 94.9297 89.7834       0
GRID        6754       0-71.2525 94.9297 95.0199       0
GRID        6755       0 15.4726-13.9556 103.249       0
GRID        6756       0 15.2882-23.2234 98.8724       0
GRID        6757       0-124.926 92.6400 73.5000       0
GRID        6758       0-60.3630 44.2513 70.5000       0
GRID        6759       0-83.0648 103.602 97.7261       0
GRID        6760       0 29.6857-16.5145 98.7911       0
GRID        6761       0-81.7912 104.196 102.086       0
GRID        6762       0 8.43949 46.9671 81.6444       0
GRID        6763       0 12.5438 48.8810 84.7805       0
GRID        6764       0-77.7813 106.066 101.363       0
GRID        6765       0-66.4280 111.360 119.488       0
GRID        6766       0-106.490 68.3512 73.5000       0
GRID        6767       0-103.629 64.5821 73.5000       0
GRID        6768       0 21.7929-2.08485 82.4443       0
GRID        6769       0 20.4295 2.50491 83.8775       0
GRID        6770       0 22.0000-1.61475 88.9037       0
GRID        6771       0-5.17407-32.7312 80.5400       0
GRID        6772       0-3.09805-31.7767 80.7743       0
GRID        6773       0-16.2753 34.3391 105.948       0
GRID        6774       0 1.64343-29.4075 78.0395       0
GRID        6775       0-12.6688-26.0631 78.7895       0
GRID        6776       0-36.3382 26.0870 111.839       0
GRID        6777       0-35.8314 26.3233 114.182       0
GRID        6778       0-18.9403 34.1997 116.753       0
GRID        6779       0 16.9208-22.5354 94.2130       0
GRID        6780       0 16.9208-22.5354 90.2541       0
GRID        6781       0 17.1367-16.8591 90.9385       0
GRID        6782       0 .745051-20.8232 76.7511       0
GRID        6783       0 19.0814 9.47253 92.9768       0
GRID        6784       0-12.1142-29.8240 84.0620       0
GRID        6785       0-10.4361-28.7316 88.9440       0
GRID        6786       0-32.4886 27.8821 117.254       0
GRID        6787       0-10.6673-25.1298 75.7918       0
GRID        6788       0 5.43972 45.5683 104.892       0
GRID        6789       0 7.53540 46.5456 101.306       0
GRID        6790       0 3.81677 43.5726 95.0262       0
GRID        6791       0 27.7040-10.0802 107.083       0
GRID        6792       0 24.0553-18.3862 88.9591       0
GRID        6793       0 34.1541-16.2849 85.6810       0
GRID        6794       0 30.1407-14.4809 86.9941       0
GRID        6795       0-132.120 116.834 72.4992       0
GRID        6796       0-132.380 119.884 72.4992       0
GRID        6797       0 20.3144 4.80443 107.255       0
GRID        6798       0-137.308 115.371 73.0000       0
GRID        6799       0-134.928 119.496 73.0000       0
GRID        6800       0-28.7975 26.1354 69.2459       0
GRID        6801       0-129.192 119.137 77.4992       0
GRID        6802       0-125.852 121.170 75.4977       0
GRID        6803       0-127.258 119.172 77.4977       0
GRID        6804       0 16.5113 13.3192 92.4631       0
GRID        6805       0-127.786 121.135 75.4992       0
GRID        6806       0-43.9688 41.7023 78.5932       0
GRID        6807       0-124.778 118.537 72.4977       0
GRID        6808       0-121.710 118.820 75.4977       0
GRID        6809       0-120.781 120.067 73.0000       0
GRID        6810       0-40.0366 123.666 61.7075       0
GRID        6811       0-26.1388 114.568 72.5271       0
GRID        6812       0-20.6389 16.4324 107.514       0
GRID        6813       0-6.07033-35.4448 78.2824       0
GRID        6814       0-7.32707-36.0695 78.9513       0
GRID        6815       0-26.3271 117.438 71.3561       0
GRID        6816       0-26.7835 118.416 71.3561       0
GRID        6817       0-29.8592 116.694 72.2001       0
GRID        6818       0-30.3155 117.673 72.2001       0
GRID        6819       0-28.0242 117.743 73.5562       0
GRID        6820       0-33.1724 22.9920 70.2459       0
GRID        6821       0-34.0462 22.4490 71.1935       0
GRID        6822       0-109.774 72.6784 73.5000       0
GRID        6823       0-108.181 73.8876 75.5000       0
GRID        6824       0-104.897 69.5604 75.5000       0
GRID        6825       0-18.0793 60.0518 112.828       0
GRID        6826       0-112.635 76.4475 73.5000       0
GRID        6827       0-111.042 77.6567 75.5000       0
GRID        6828       0-18.9403 34.1997 122.253       0
GRID        6829       0-112.635 76.4475 70.5000       0
GRID        6830       0-77.7831 43.0220 73.0000       0
GRID        6831       0-14.0240 36.4923 116.753       0
GRID        6832       0-80.5871 43.6972 75.5003       0
GRID        6833       0-82.7701 42.5358 73.0000       0
GRID        6834       0-82.7087 46.3403 72.5003       0
GRID        6835       0-80.5871 43.6972 72.5003       0
GRID        6836       0-25.2291 31.2672 63.6470       0
GRID        6837       0 34.0762-14.3273 75.7918       0
GRID        6838       0-24.3385 47.2719 65.1346       0
GRID        6839       0-25.8829 41.4444 65.7734       0
GRID        6840       0-77.7218 46.8265 72.5003       0
GRID        6841       0-20.4316 33.5043 63.6470       0
GRID        6842       0-25.9506 36.4477 66.3799       0
GRID        6843       0-76.0229 48.3333 72.5007       0
GRID        6844       0-57.2782 64.7236 94.2849       0
GRID        6845       0 7.36954-25.3680 72.3496       0
GRID        6846       0 1.36525-28.1679 72.3496       0
GRID        6847       0-59.6600 71.3396 95.5865       0
GRID        6848       0-57.4420 67.4086 98.2047       0
GRID        6849       0 5.22926 34.1047 68.9477       0
GRID        6850       0 6.50118 32.2824 73.9328       0
GRID        6851       0-55.2056 62.7093 98.3055       0
GRID        6852       0 .206567 35.6865 100.771       0
GRID        6853       0 15.2745-23.1940 96.1007       0
GRID        6854       0-1.09662-30.8434 77.7765       0
GRID        6855       0-40.0127 55.5690 111.458       0
GRID        6856       0 7.96312-26.6392 81.1276       0
GRID        6857       0-1.25509 41.3431 109.183       0
GRID        6858       0-6.05255 39.1060 109.183       0
GRID        6859       0-6.47517 40.0123 110.183       0
GRID        6860       0 7.97908-26.6752 73.8485       0
GRID        6861       0 19.8218 6.81256 68.9477       0
GRID        6862       0 22.6977 3.81125 68.9477       0
GRID        6863       0 20.3272 4.66726 73.7333       0
GRID        6864       0 17.3176 .401210 72.7856       0
GRID        6865       0-23.8338 106.096 98.7186       0
GRID        6866       0 8.57266-27.9464 79.6287       0
GRID        6867       0-46.7202 50.6728 103.040       0
GRID        6868       0-43.5437 44.9741 103.995       0
GRID        6869       0-43.6401 49.9783 106.888       0
GRID        6870       0 11.2632 18.3123 106.743       0
GRID        6871       0 10.3732 17.8521 107.690       0
GRID        6872       0 13.8746 15.3925 107.869       0
GRID        6873       0 14.7647 15.8527 106.921       0
GRID        6874       0-.277381 41.6635 108.235       0
GRID        6875       0 4.77425 44.0191 109.892       0
GRID        6876       0 3.79655 43.6987 110.839       0
GRID        6877       0-28.1060 11.9793 106.567       0
GRID        6878       0-32.4794 23.3068 110.049       0
GRID        6879       0-3.27827 51.9851 106.248       0
GRID        6880       0-6.52563 55.4675 107.721       0
GRID        6881       0-3.88302 56.8526 104.178       0
GRID        6882       0-1.42353 42.3679 111.839       0
GRID        6883       0-6.46740 45.5328 111.095       0
GRID        6884       0-4.76633 40.8092 114.912       0
GRID        6885       0-32.9021 24.2131 111.049       0
GRID        6886       0-32.3953 24.4495 113.392       0
GRID        6887       0-20.0789 96.3052 72.2742       0
GRID        6888       0-73.5960 79.5228 79.3639       0
GRID        6889       0-75.0066 84.5946 80.2611       0
GRID        6890       0-78.0323 80.7019 79.3639       0
GRID        6891       0-20.3122-7.02295 91.7627       0
GRID        6892       0-17.6681 79.5340 107.377       0
GRID        6893       0-17.4404 74.9793 109.243       0
GRID        6894       0 18.8661-11.0653 72.7500       0
GRID        6895       0 16.0327-9.58026 72.7500       0
GRID        6896       0-15.6985 35.7114 68.0375       0
GRID        6897       0-21.7611 38.4013 65.6844       0
GRID        6898       0-17.8116 40.2430 65.0375       0
GRID        6899       0-16.4821 35.3460 63.0000       0
GRID        6900       0-12.1142-29.8240 93.5642       0
GRID        6901       0-13.3373-27.2009 94.7511       0
GRID        6902       0-12.4499-29.1041 97.6820       0
GRID        6903       0 25.3078-17.0033 107.650       0
GRID        6904       0 28.0241-17.1061 104.958       0
GRID        6905       0-19.3172-4.71592 107.459       0
GRID        6906       0-17.0425-9.27065 107.199       0
GRID        6907       0-15.6884-12.1425 107.199       0
GRID        6908       0-75.9224 50.4834 72.5007       0
GRID        6909       0-16.5301-12.6799 106.251       0
GRID        6910       0 28.0719-17.1271 104.208       0
GRID        6911       0 30.0733-16.1938 101.210       0
GRID        6912       0 34.6857-15.6345 102.709       0
GRID        6913       0-9.53244-24.7017 71.2511       0
GRID        6914       0-44.7024 37.1946 87.5287       0
GRID        6915       0-51.0053 50.4460 91.6667       0
GRID        6916       0-48.7874 46.5150 89.0485       0
GRID        6917       0-48.7874 46.5150 94.2849       0
GRID        6918       0-117.339 95.2480 77.5000       0
GRID        6919       0-117.369 102.227 77.5000       0
GRID        6920       0-105.661 95.3360 77.5000       0
GRID        6921       0-104.085 98.6459 77.5000       0
GRID        6922       0 34.2981-15.9551 100.290       0
GRID        6923       0-32.9797 126.957 67.8391       0
GRID        6924       0-36.6977 125.223 64.4810       0
GRID        6925       0-20.2673-5.02342 106.512       0
GRID        6926       0-17.9926-9.57815 106.251       0
GRID        6927       0-45.5631 121.089 63.2857       0
GRID        6928       0-34.8995 126.062 71.0913       0
GRID        6929       0 28.0612-17.1580 100.763       0
GRID        6930       0 26.0597-18.0912 103.761       0
GRID        6931       0 1.15611 97.0316 74.0000       0
GRID        6932       0 35.0613-15.3706 76.6754       0
GRID        6933       0-71.8904 88.9635 73.1549       0
GRID        6934       0-76.7400 88.1858 75.1549       0
GRID        6935       0-20.3549-2.45024 97.1117       0
GRID        6936       0-21.7763-2.49951 91.7627       0
GRID        6937       0-20.0616-6.94184 96.7889       0
GRID        6938       0 4.53403-23.7233 96.7305       0
GRID        6939       0-2.21322 117.705 76.3351       0
GRID        6940       0-6.29657 105.519 74.0000       0
GRID        6941       0 3.82663-18.4297 100.558       0
GRID        6942       0-12.5191 114.871 75.0000       0
GRID        6943       0-20.8134-.093259 107.459       0
GRID        6944       0-64.9600 112.044 112.101       0
GRID        6945       0-19.4654 32.8515 69.7330       0
GRID        6946       0-16.0188 29.0514 75.3482       0
GRID        6947       0-9.53244-24.7017 108.749       0
GRID        6948       0-36.2276 87.3759 65.3890       0
GRID        6949       0-34.0004 91.7677 66.8259       0
GRID        6950       0-38.6258 92.2132 65.3612       0
GRID        6951       0-25.5467 7.59051 106.026       0
GRID        6952       0-24.5657 5.41508 111.052       0
GRID        6953       0 34.4518-14.0634 104.824       0
GRID        6954       0 35.0613-15.3706 103.325       0
GRID        6955       0 14.6960-21.9516 107.650       0
GRID        6956       0 15.3055-23.2588 106.151       0
GRID        6957       0-53.9095 44.8392 74.0693       0
GRID        6958       0-54.6263 43.8253 80.4128       0
GRID        6959       0 33.0789-18.5310 105.064       0
GRID        6960       0 32.8311-14.9910 106.707       0
GRID        6961       0 34.0417-10.0827 107.997       0
GRID        6962       0 34.0762-14.3273 104.208       0
GRID        6963       0-13.2120-27.4696 80.4083       0
GRID        6964       0 18.2319 9.26592 73.5197       0
GRID        6965       0 24.3123-.699542 72.5407       0
GRID        6966       0 21.9419 .156468 77.3263       0
GRID        6967       0 22.8689-9.19879 72.7500       0
GRID        6968       0 22.8262-5.39171 72.7500       0
GRID        6969       0 17.3603-3.40587 72.7856       0
GRID        6970       0 20.4558-4.53569 77.5356       0
GRID        6971       0 20.3068-6.77701 82.6537       0
GRID        6972       0-3.45286 65.7520 86.8182       0
GRID        6973       0 12.5608 18.2348 87.9664       0
GRID        6974       0 15.8643 15.1607 88.2329       0
GRID        6975       0 14.8617 14.0659 82.9402       0
GRID        6976       0 18.1652 10.9918 83.2068       0
GRID        6977       0-6.85074 60.2748 105.934       0
GRID        6978       0-7.52727 64.9245 103.824       0
GRID        6979       0-39.3803 40.9419 106.406       0
GRID        6980       0-38.6194 35.5053 104.816       0
GRID        6981       0 2.83529 40.4229 68.8248       0
GRID        6982       0 4.23562 39.8370 70.7724       0
GRID        6983       0 3.25791 39.5166 69.8248       0
GRID        6984       0 .031131 43.0463 114.912       0
GRID        6985       0 10.2035 47.7897 103.756       0
GRID        6986       0-2.71218 55.2569 76.4999       0
GRID        6987       0-3.97619 55.9201 74.1961       0
GRID        6988       0-3.68796 59.4121 76.2968       0
GRID        6989       0 .819421 60.8091 73.3094       0
GRID        6990       0-116.656 107.145 70.5000       0
GRID        6991       0-53.3489 55.4719 91.6667       0
GRID        6992       0-51.1189 53.5868 96.1469       0
GRID        6993       0-49.9172 54.1472 101.123       0
GRID        6994       0-52.1472 56.0323 96.6427       0
GRID        6995       0-120.089 108.179 72.9997       0
GRID        6996       0-51.9809 52.6481 70.5000       0
GRID        6997       0-51.5755 53.1563 75.8591       0
GRID        6998       0-54.9346 59.6977 94.2849       0
GRID        6999       0-118.206 105.999 70.5000       0
GRID        7000       0-36.3712 34.9243 72.8650       0
GRID        7001       0-36.7605 39.7080 71.4568       0
GRID        7002       0-58.4582 71.8999 100.563       0
GRID        7003       0-16.4821 35.3460 57.5000       0
GRID        7004       0-20.4316 33.5043 58.1470       0
GRID        7005       0-3.90166 122.754 76.3351       0
GRID        7006       0-5.08412 124.095 79.0000       0
GRID        7007       0-49.9797 119.030 61.6758       0
GRID        7008       0-12.5326 37.1877 63.6470       0
GRID        7009       0 114.410 213.287 90.0000       0
GRID        7010       0 106.844 216.555 90.0000       0
GRID        7011       0 99.1725 219.568 90.0000       0
GRID        7012       0 91.4036 222.320 90.0000       0
GRID        7013       0 83.5468 224.809 90.0000       0
GRID        7014       0 75.6112 227.033 90.0000       0
GRID        7015       0 67.6056 228.988 90.0000       0
GRID        7016       0 59.5390 230.673 90.0000       0
GRID        7017       0 51.4204 232.086 90.0000       0
GRID        7018       0 43.2582 233.225 90.0000       0
GRID        7019       0 35.0621 234.088 90.0000       0
GRID        7020       0 26.8410 234.676 90.0000       0
GRID        7021       0 18.6037 234.987 90.0000       0
GRID        7022       0 10.3596 235.020 90.0000       0
GRID        7023       0 2.12751 234.777 90.0000       0
GRID        7024       0-6.09757 234.256 90.0000       0
GRID        7025       0-14.3003 233.460 90.0000       0
GRID        7026       0-22.4717 232.387 90.0000       0
GRID        7027       0-30.6024 231.041 90.0000       0
GRID        7028       0-38.6832 229.422 90.0000       0
GRID        7029       0-46.7047 227.532 90.0000       0
GRID        7030       0-46.7047 227.532-90.0000       0
GRID        7031       0-38.6831 229.422-90.0000       0
GRID        7032       0-30.6025 231.041-90.0000       0
GRID        7033       0-22.4720 232.387-90.0000       0
GRID        7034       0-14.3009 233.459-90.0000       0
GRID        7035       0-6.09830 234.256-90.0000       0
GRID        7036       0 2.12659 234.777-90.0000       0
GRID        7037       0 10.3644 235.020-90.0000       0
GRID        7038       0 18.6060 234.987-90.0000       0
GRID        7039       0 26.8418 234.676-90.0000       0
GRID        7040       0 35.0625 234.088-90.0000       0
GRID        7041       0 43.2586 233.225-90.0000       0
GRID        7042       0 51.4201 232.086-90.0000       0
GRID        7043       0 59.5383 230.673-90.0000       0
GRID        7044       0 67.6037 228.988-90.0000       0
GRID        7045       0 75.6056 227.034-90.0000       0
GRID        7046       0 83.5488 224.809-90.0000       0
GRID        7047       0 91.4054 222.319-90.0000       0
GRID        7048       0 99.1735 219.567-90.0000       0
GRID        7049       0 106.845 216.555-90.0000       0
GRID        7050       0 114.410 213.287-90.0000       0
GRID        7051       0 7.01421 65.0069 90.0000       0
GRID        7052       0 28.6073 75.0759 90.0000       0
GRID        7053       0-20.4560 123.917 90.0000       0
GRID        7054       0-10.7822 150.495 90.0000       0
GRID        7055       0 53.3780 195.621 90.0000       0
GRID        7056       0 22.8521 143.376 90.0000       0
GRID        7057       0-6.62467 119.333 90.0000       0
GRID        7058       0 14.5062 74.0174 90.0000       0
GRID        7059       0 35.5005 145.890 77.1042       0
GRID        7060       0 56.5806 189.333 82.9428       0
GRID        7061       0 47.7981 84.0247 70.0000       0
GRID        7062       0 28.6073 75.0759-90.0000       0
GRID        7063       0 22.8521 143.376-90.0000       0
GRID        7064       0 53.3780 195.621-90.0000       0
GRID        7065       0-10.7822 150.495-90.0000       0
GRID        7066       0-20.4560 123.917-90.0000       0
GRID        7067       0 7.01421 65.0069-90.0000       0
GRID        7068       0-6.62467 119.333-90.0000       0
GRID        7069       0 14.5062 74.0174-90.0000       0
GRID        7070       0 56.5806 189.333-82.9428       0
GRID        7071       0 35.5005 145.890-77.1042       0
GRID        7072       0 47.7981 84.0247-70.0000       0
GRID        7073       0 17.8108 70.0414 90.0000       0
GRID        7074       0-16.5317 115.501 90.0000       0
GRID        7075       0-12.6074 107.085 90.0000       0
GRID        7076       0-8.68304 98.6697 90.0000       0
GRID        7077       0-4.75873 90.2540 90.0000       0
GRID        7078       0-.834414 81.8383 90.0000       0
GRID        7079       0 3.08990 73.4226 90.0000       0
GRID        7080       0-8.98444 140.300 90.0000       0
GRID        7081       0-12.5253 130.572 90.0000       0
GRID        7082       0-43.0718 219.741 90.0000       0
GRID        7083       0-39.4008 211.868 90.0000       0
GRID        7084       0-35.6560 203.837 90.0000       0
GRID        7085       0-31.8071 195.584 90.0000       0
GRID        7086       0-27.8330 187.061 90.0000       0
GRID        7087       0-23.7256 178.253 90.0000       0
GRID        7088       0-19.4937 169.177 90.0000       0
GRID        7089       0-15.1647 159.894 90.0000       0
GRID        7090       0 62.7357 199.021 90.0000       0
GRID        7091       0 71.9912 202.129 90.0000       0
GRID        7092       0 81.0025 204.919 90.0000       0
GRID        7093       0 89.7059 207.395 90.0000       0
GRID        7094       0 98.1173 209.588 90.0000       0
GRID        7095       0 106.314 211.539 90.0000       0
GRID        7096       0 22.6421 152.656 90.0000       0
GRID        7097       0 24.0876 161.823 90.0000       0
GRID        7098       0 27.1667 170.575 90.0000       0
GRID        7099       0 31.8008 178.612 90.0000       0
GRID        7100       0 37.8533 185.640 90.0000       0
GRID        7101       0 45.1297 191.389 90.0000       0
GRID        7102       0 27.7852 84.8330 90.0000       0
GRID        7103       0 26.9630 94.5902 90.0000       0
GRID        7104       0 26.1408 104.347 90.0000       0
GRID        7105       0 25.3186 114.104 90.0000       0
GRID        7106       0 24.4965 123.862 90.0000       0
GRID        7107       0 23.6743 133.619 90.0000       0
GRID        7108       0-9.87473 116.606 90.0000       0
GRID        7109       0-12.6018 119.856 90.0000       0
GRID        7110       0-9.35182 122.583 90.0000       0
GRID        7111       0 11.2562 71.2902 90.0000       0
GRID        7112       0 8.52907 74.5403 90.0000       0
GRID        7113       0 11.7791 77.2674 90.0000       0
GRID        7114       0 34.7860 155.747 78.2201       0
GRID        7115       0 36.5734 165.682 79.3601       0
GRID        7116       0 40.9134 175.048 80.5260       0
GRID        7117       0 47.6862 183.158 81.7195       0
GRID        7118       0 33.4743 145.487 87.9342       0
GRID        7119       0 45.7485 94.3356 71.1840       0
GRID        7120       0 43.6989 104.646 72.3681       0
GRID        7121       0 41.6493 114.957 73.5521       0
GRID        7122       0 39.5997 125.268 74.7361       0
GRID        7123       0 37.5501 135.579 75.9201       0
GRID        7124       0 36.7555 78.8755 89.6861       0
GRID        7125       0 44.4541 82.4654 87.1210       0
GRID        7126       0 47.4480 83.8614 78.9861       0
GRID        7127       0 65.3106 193.645 84.0395       0
GRID        7128       0 73.9944 197.677 85.1178       0
GRID        7129       0 82.4956 201.384 86.1624       0
GRID        7130       0 90.7498 204.761 87.1669       0
GRID        7131       0 98.7674 207.840 88.1342       0
GRID        7132       0 106.618 210.664 89.0740       0
GRID        7133       0 27.7852 84.8330-90.0000       0
GRID        7134       0 26.9630 94.5902-90.0000       0
GRID        7135       0 26.1408 104.347-90.0000       0
GRID        7136       0 25.3186 114.104-90.0000       0
GRID        7137       0 24.4965 123.862-90.0000       0
GRID        7138       0 23.6743 133.619-90.0000       0
GRID        7139       0 22.6421 152.656-90.0000       0
GRID        7140       0 24.0876 161.823-90.0000       0
GRID        7141       0 27.1667 170.575-90.0000       0
GRID        7142       0 31.8008 178.612-90.0000       0
GRID        7143       0 37.8533 185.640-90.0000       0
GRID        7144       0 45.1297 191.389-90.0000       0
GRID        7145       0 62.7359 199.021-90.0000       0
GRID        7146       0 71.9916 202.130-90.0000       0
GRID        7147       0 81.0029 204.919-90.0000       0
GRID        7148       0 89.7063 207.395-90.0000       0
GRID        7149       0 98.1177 209.588-90.0000       0
GRID        7150       0 106.314 211.539-90.0000       0
GRID        7151       0-43.0718 219.741-90.0000       0
GRID        7152       0-39.4007 211.868-90.0000       0
GRID        7153       0-35.6559 203.837-90.0000       0
GRID        7154       0-31.8070 195.583-90.0000       0
GRID        7155       0-27.8329 187.061-90.0000       0
GRID        7156       0-23.7256 178.253-90.0000       0
GRID        7157       0-19.4937 169.177-90.0000       0
GRID        7158       0-15.1646 159.894-90.0000       0
GRID        7159       0-8.98444 140.300-90.0000       0
GRID        7160       0-12.5253 130.572-90.0000       0
GRID        7161       0-16.5317 115.501-90.0000       0
GRID        7162       0-12.6074 107.085-90.0000       0
GRID        7163       0-8.68304 98.6697-90.0000       0
GRID        7164       0-4.75873 90.2540-90.0000       0
GRID        7165       0-.834414 81.8383-90.0000       0
GRID        7166       0 3.08990 73.4226-90.0000       0
GRID        7167       0 17.8108 70.0414-90.0000       0
GRID        7168       0-9.87473 116.606-90.0000       0
GRID        7169       0-12.6018 119.856-90.0000       0
GRID        7170       0-9.35182 122.583-90.0000       0
GRID        7171       0 11.2562 71.2902-90.0000       0
GRID        7172       0 8.52907 74.5403-90.0000       0
GRID        7173       0 11.7791 77.2674-90.0000       0
GRID        7174       0 33.4743 145.487-87.9342       0
GRID        7175       0 34.7860 155.747-78.2201       0
GRID        7176       0 36.5734 165.682-79.3601       0
GRID        7177       0 40.9134 175.048-80.5260       0
GRID        7178       0 47.6862 183.158-81.7195       0
GRID        7179       0 36.7555 78.8755-89.6861       0
GRID        7180       0 44.4541 82.4654-87.1210       0
GRID        7181       0 47.4480 83.8614-78.9861       0
GRID        7182       0 45.7485 94.3356-71.1840       0
GRID        7183       0 43.6989 104.646-72.3681       0
GRID        7184       0 41.6493 114.957-73.5521       0
GRID        7185       0 39.5997 125.268-74.7361       0
GRID        7186       0 37.5501 135.579-75.9201       0
GRID        7187       0 65.3108 193.645-84.0395       0
GRID        7188       0 73.9947 197.677-85.1179       0
GRID        7189       0 82.4960 201.384-86.1624       0
GRID        7190       0 90.7502 204.762-87.1669       0
GRID        7191       0 98.7677 207.840-88.1342       0
GRID        7192       0 106.618 210.664-89.0740       0
GRID        7193       0 14.0104 120.681 90.0000       0
GRID        7194       0 44.1857 207.875 90.0000       0
GRID        7195       0 42.6846 216.326 90.0000       0
GRID        7196       0 42.7227 224.543 90.0000       0
GRID        7197       0 82.2338 215.196 90.0000       0
GRID        7198       0 65.5862 219.095 90.0000       0
GRID        7199       0 63.5918 209.134 90.0000       0
GRID        7200       0 53.3943 210.016 90.0000       0
GRID        7201       0 48.6895 216.620 90.0000       0
GRID        7202       0 57.1273 220.826 90.0000       0
GRID        7203       0 49.9900 223.519 90.0000       0
GRID        7204       0 74.0207 217.432 90.0000       0
GRID        7205       0-9.85034 169.510 90.0000       0
GRID        7206       0 .285789 169.875 90.0000       0
GRID        7207       0 10.6389 170.250 90.0000       0
GRID        7208       0 .841903 150.530 90.0000       0
GRID        7209       0 11.8861 151.372 90.0000       0
GRID        7210       0 12.6211 130.775 90.0000       0
GRID        7211       0 12.1309 141.358 90.0000       0
GRID        7212       0 1.16424 139.908 90.0000       0
GRID        7213       0-5.88923 130.109 90.0000       0
GRID        7214       0 1.09588 160.352 90.0000       0
GRID        7215       0 11.9271 160.949 90.0000       0
GRID        7216       0 20.3431 179.423 90.0000       0
GRID        7217       0 19.2252 188.910 90.0000       0
GRID        7218       0 18.4862 198.862 90.0000       0
GRID        7219       0 18.8231 207.881 90.0000       0
GRID        7220       0 18.8708 216.787 90.0000       0
GRID        7221       0 18.7554 225.788 90.0000       0
GRID        7222       0 35.8402 207.147 90.0000       0
GRID        7223       0 27.4203 207.313 90.0000       0
GRID        7224       0 26.9101 225.508 90.0000       0
GRID        7225       0 27.0857 216.467 90.0000       0
GRID        7226       0 34.9592 225.100 90.0000       0
GRID        7227       0 35.1424 216.260 90.0000       0
GRID        7228       0 36.6131 197.137 90.0000       0
GRID        7229       0 27.9310 197.760 90.0000       0
GRID        7230       0-13.8214 224.589 90.0000       0
GRID        7231       0-13.3812 215.922 90.0000       0
GRID        7232       0-12.8272 207.256 90.0000       0
GRID        7233       0-12.5448 198.510 90.0000       0
GRID        7234       0-11.8026 188.715 90.0000       0
GRID        7235       0-11.5319 178.970 90.0000       0
GRID        7236       0-21.3937 207.097 90.0000       0
GRID        7237       0-23.0214 199.175 90.0000       0
GRID        7238       0-29.8004 223.176 90.0000       0
GRID        7239       0-30.9085 215.818 90.0000       0
GRID        7240       0-22.0102 223.941 90.0000       0
GRID        7241       0-21.9234 215.694 90.0000       0
GRID        7242       0-1.55181 189.198 90.0000       0
GRID        7243       0 8.85352 189.670 90.0000       0
GRID        7244       0 9.77164 179.687 90.0000       0
GRID        7245       0-.756571 179.432 90.0000       0
GRID        7246       0 10.6367 225.871 90.0000       0
GRID        7247       0 2.61311 225.675 90.0000       0
GRID        7248       0-5.55458 225.223 90.0000       0
GRID        7249       0 10.8166 217.021 90.0000       0
GRID        7250       0 3.23973 216.896 90.0000       0
GRID        7251       0-4.91232 216.441 90.0000       0
GRID        7252       0-3.95403 207.812 90.0000       0
GRID        7253       0-2.52232 199.107 90.0000       0
GRID        7254       0 19.2222 82.1858 90.0000       0
GRID        7255       0 20.7786 77.0930 90.0000       0
GRID        7256       0-.685549 102.562 90.0000       0
GRID        7257       0 3.63852 93.5598 90.0000       0
GRID        7258       0 12.0666 98.0725 90.0000       0
GRID        7259       0 16.5459 89.5499 90.0000       0
GRID        7260       0 16.8528 110.991 90.0000       0
GRID        7261       0 7.57631 107.180 90.0000       0
GRID        7262       0-5.27408 110.837 90.0000       0
GRID        7263       0 7.93163 83.3511 90.0000       0
GRID        7264       0-8.67533 160.063 90.0000       0
GRID        7265       0-21.5957 188.301 90.0000       0
GRID        7266       0-27.7449 206.482 90.0000       0
GRID        7267       0-35.6160 222.039 90.0000       0
GRID        7268       0 90.3652 213.625 90.0000       0
GRID        7269       0 72.6515 208.404 90.0000       0
GRID        7270       0 44.8266 198.006 90.0000       0
GRID        7271       0 29.2026 187.730 90.0000       0
GRID        7272       0 20.5591 170.518 90.0000       0
GRID        7273       0 20.5058 102.000 90.0000       0
GRID        7274       0 2.07131 117.095 90.0000       0
GRID        7275       0 .668548 127.444 90.0000       0
GRID        7276       0 7.95465 200.944 90.0000       0
GRID        7277       0 10.5090 208.590 90.0000       0
GRID        7278       0 4.43734 208.560 90.0000       0
GRID        7279       0 35.2790 167.149 88.3131       0
GRID        7280       0 39.1344 175.084 88.4664       0
GRID        7281       0 49.6558 186.456 88.7380       0
GRID        7282       0 44.4341 181.877 88.6166       0
GRID        7283       0 33.2671 159.189 88.1710       0
GRID        7284       0 32.8041 153.320 88.0695       0
GRID        7285       0 36.1713 130.518 87.6588       0
GRID        7286       0 37.4322 123.523 87.5294       0
GRID        7287       0 39.0508 114.547 87.3628       0
GRID        7288       0 40.8083 104.776 87.1858       0
GRID        7289       0 42.6431 94.3446 87.0376       0
GRID        7290       0 33.3657 133.778 89.0404       0
GRID        7291       0 34.0092 124.267 89.2400       0
GRID        7292       0 35.1853 114.796 89.2600       0
GRID        7293       0 36.5358 105.105 89.2418       0
GRID        7294       0 37.8025 95.2671 89.2449       0
GRID        7295       0 40.9425 114.720 83.5480       0
GRID        7296       0 36.8688 134.074 85.5284       0
GRID        7297       0 38.9852 124.451 84.2792       0
GRID        7298       0 42.9300 104.691 82.8970       0
GRID        7299       0 45.0375 94.3769 81.9113       0
GRID        7300       0 38.4654 85.7113 89.3531       0
GRID        7301       0 1.11421 117.756-90.0000       0
GRID        7302       0 13.1916 121.317-90.0000       0
GRID        7303       0 43.1158 224.718-90.0000       0
GRID        7304       0 43.4942 216.125-90.0000       0
GRID        7305       0 43.4628 207.081-90.0000       0
GRID        7306       0 73.1556 217.429-90.0000       0
GRID        7307       0 82.0039 215.195-90.0000       0
GRID        7308       0 62.7005 208.365-90.0000       0
GRID        7309       0 53.0496 206.951-90.0000       0
GRID        7310       0 62.7971 219.274-90.0000       0
GRID        7311       0 52.6521 216.737-90.0000       0
GRID        7312       0 51.2641 224.597-90.0000       0
GRID        7313       0 57.8665 224.848-90.0000       0
GRID        7314       0 14.9870 159.661-90.0000       0
GRID        7315       0 6.82553 155.800-90.0000       0
GRID        7316       0-2.61738 152.718-90.0000       0
GRID        7317       0-.533239 141.788-90.0000       0
GRID        7318       0 11.5837 132.267-90.0000       0
GRID        7319       0 11.4150 145.143-90.0000       0
GRID        7320       0 16.3480 152.487-90.0000       0
GRID        7321       0 12.2459 227.742-90.0000       0
GRID        7322       0 15.9858 220.622-90.0000       0
GRID        7323       0 19.5085 212.119-90.0000       0
GRID        7324       0 23.2031 203.624-90.0000       0
GRID        7325       0 26.1964 194.504-90.0000       0
GRID        7326       0 28.7042 187.079-90.0000       0
GRID        7327       0 24.7684 224.920-90.0000       0
GRID        7328       0 34.4196 224.922-90.0000       0
GRID        7329       0 18.5401 229.216-90.0000       0
GRID        7330       0 35.3382 196.347-90.0000       0
GRID        7331       0 22.0562 181.096-90.0000       0
GRID        7332       0 10.7424 178.318-90.0000       0
GRID        7333       0 .540914 175.609-90.0000       0
GRID        7334       0-9.65404 172.877-90.0000       0
GRID        7335       0 3.51971 165.685-90.0000       0
GRID        7336       0-5.97909 162.793-90.0000       0
GRID        7337       0 12.6877 168.543-90.0000       0
GRID        7338       0 10.7258 209.067-90.0000       0
GRID        7339       0 1.84388 206.197-90.0000       0
GRID        7340       0-6.83511 203.431-90.0000       0
GRID        7341       0-15.3170 200.953-90.0000       0
GRID        7342       0-23.3496 198.519-90.0000       0
GRID        7343       0 14.0777 200.237-90.0000       0
GRID        7344       0 17.5014 190.967-90.0000       0
GRID        7345       0 4.80879 197.289-90.0000       0
GRID        7346       0 7.65024 188.034-90.0000       0
GRID        7347       0-4.41767 194.698-90.0000       0
GRID        7348       0-2.47806 185.568-90.0000       0
GRID        7349       0-18.0228 209.388-90.0000       0
GRID        7350       0-20.4789 217.637-90.0000       0
GRID        7351       0-21.4441 224.814-90.0000       0
GRID        7352       0-26.8233 207.063-90.0000       0
GRID        7353       0-29.4165 223.673-90.0000       0
GRID        7354       0-30.2947 216.515-90.0000       0
GRID        7355       0-12.3212 219.823-90.0000       0
GRID        7356       0-5.86102 224.152-90.0000       0
GRID        7357       0 3.96404 226.093-90.0000       0
GRID        7358       0-1.56576 214.991-90.0000       0
GRID        7359       0-9.68620 211.909-90.0000       0
GRID        7360       0 7.27747 217.693-90.0000       0
GRID        7361       0 7.60546 86.8364-90.0000       0
GRID        7362       0 3.12876 94.9691-90.0000       0
GRID        7363       0-5.62981 111.160-90.0000       0
GRID        7364       0 15.5793 111.388-90.0000       0
GRID        7365       0 6.59044 107.982-90.0000       0
GRID        7366       0 19.1692 83.2010-90.0000       0
GRID        7367       0 20.7609 77.4314-90.0000       0
GRID        7368       0-1.14841 103.195-90.0000       0
GRID        7369       0 21.4996 170.509-90.0000       0
GRID        7370       0 44.3272 197.610-90.0000       0
GRID        7371       0 72.2126 208.211-90.0000       0
GRID        7372       0 90.3083 213.625-90.0000       0
GRID        7373       0-13.4818 225.562-90.0000       0
GRID        7374       0-35.3665 222.338-90.0000       0
GRID        7375       0-1.94249 128.993-90.0000       0
GRID        7376       0 32.9509 207.635-90.0000       0
GRID        7377       0 27.9899 215.159-90.0000       0
GRID        7378       0 34.7136 215.960-90.0000       0
GRID        7379       0-13.7083 183.940-90.0000       0
GRID        7380       0-19.5209 190.507-90.0000       0
GRID        7381       0-13.2410 192.525-90.0000       0
GRID        7382       0 16.3558 93.2737-90.0000       0
GRID        7383       0 10.8242 99.5936-90.0000       0
GRID        7384       0 17.2250 102.151-90.0000       0
GRID        7385       0 35.2790 167.149-88.3131       0
GRID        7386       0 39.1344 175.084-88.4664       0
GRID        7387       0 49.6558 186.456-88.7380       0
GRID        7388       0 44.4341 181.877-88.6166       0
GRID        7389       0 32.8039 153.304-88.0692       0
GRID        7390       0 33.2671 159.189-88.1710       0
GRID        7391       0 42.6425 94.3472-87.0377       0
GRID        7392       0 40.8077 104.779-87.1860       0
GRID        7393       0 39.0506 114.549-87.3628       0
GRID        7394       0 37.4325 123.523-87.5292       0
GRID        7395       0 36.1720 130.515-87.6585       0
GRID        7396       0 33.3660 133.777-89.0404       0
GRID        7397       0 34.0094 124.266-89.2400       0
GRID        7398       0 35.1853 114.797-89.2600       0
GRID        7399       0 36.5355 105.107-89.2418       0
GRID        7400       0 37.8022 95.2684-89.2449       0
GRID        7401       0 40.9424 114.721-83.5479       0
GRID        7402       0 36.8690 134.073-85.5282       0
GRID        7403       0 38.9853 124.451-84.2791       0
GRID        7404       0 42.9298 104.693-82.8971       0
GRID        7405       0 45.0373 94.3778-81.9115       0
GRID        7406       0 38.4653 85.7116-89.3531       0
GRID        7407       0-56.7587 121.719 90.0000       0
GRID        7408       0-105.360 225.945 90.0000       0
GRID        7409       0-186.268 399.454 90.0000       0
GRID        7410       0-56.7587 121.719-90.0000       0
GRID        7411       0-105.360 225.945-90.0000       0
GRID        7412       0-186.268 399.454-90.0000       0
GRID        7413       0-81.0592 173.832 90.0000       0
GRID        7414       0-125.587 269.322 90.0000       0
GRID        7415       0-145.814 312.699 90.0000       0
GRID        7416       0-166.041 356.077 90.0000       0
GRID        7417       0-81.0592 173.832-90.0000       0
GRID        7418       0-125.587 269.322-90.0000       0
GRID        7419       0-145.814 312.699-90.0000       0
GRID        7420       0-166.041 356.077-90.0000       0
GRID        7421       0 5.15-11 2.50-11-68.0000       0
GRID        7422       0     0.0     0.0     0.0      23
GRID        7423       0 5.15-11 2.50-11 68.0000       0
GRID        7424       0 2.57-11 1.25-11-34.0000       0
GRID        7425       0 2.57-11 1.25-11 34.0000       0
GRID        7426       0-217.121 385.067-1.58-13      23
GRID        7427       0-301.644 566.329-5.37-14      23
GRID        7428       0-238.251 430.383-1.32-13       0
GRID        7429       0-259.382 475.698-1.06-13       0
GRID        7430       0-280.513 521.013-7.98-14       0
GRID        7431       0-270.792 580.715-90.0000       0
GRID        7432       0-270.792 580.715 90.0000       0
GRID        7433       0-186.268 399.454 45.0000       0
GRID        7434       0-186.268 399.454     0.0       0
GRID        7435       0-186.268 399.454-45.0000       0
GRID        7436       0-201.694 392.261-45.0000       0
GRID        7437       0-201.694 392.261 45.0000       0
GRID        7438       0-270.792 580.715 45.0000       0
GRID        7439       0-270.792 580.715     0.0       0
GRID        7440       0-270.792 580.715-45.0000       0
GRID        7441       0-278.505 577.119-67.5000       0
GRID        7442       0-286.218 573.522-45.0000       0
GRID        7443       0-293.931 569.925-22.5000      23
GRID        7444       0-293.931 569.925 22.5000      23
GRID        7445       0-286.218 573.522 45.0000       0
GRID        7446       0-278.505 577.119 67.5000       0
GRID        7447       0-207.399 444.769 90.0000       0
GRID        7448       0-228.530 490.085 90.0000       0
GRID        7449       0-249.661 535.400 90.0000       0
GRID        7450       0-207.399 444.769-90.0000       0
GRID        7451       0-228.530 490.085-90.0000       0
GRID        7452       0-249.661 535.400-90.0000       0
GRID        7453       0 138.548 220.305 70.7443       0
GRID        7454       0-75.3759 248.733 79.9349       0
GRID        7455       0-51.5880 238.004 85.9875       0
GRID        7456       0-75.3759 248.733-79.9349       0
GRID        7457       0-51.5880 238.004-85.9875       0
GRID        7458       0 138.548 220.305-70.7443       0
GRID        7459       0 129.929 225.483 72.0206       0
GRID        7460       0 121.107 230.323 73.2237       0
GRID        7461       0 112.094 234.817 74.3517       0
GRID        7462       0 102.904 238.959 75.4030       0
GRID        7463       0 93.5523 242.743 76.3758       0
GRID        7464       0 84.0533 246.163 77.2686       0
GRID        7465       0 74.4219 249.212 78.0800       0
GRID        7466       0 64.6732 251.887 78.8087       0
GRID        7467       0 54.8226 254.182 79.4536       0
GRID        7468       0 44.8855 256.096 80.0137       0
GRID        7469       0 34.8776 257.623 80.4880       0
GRID        7470       0 24.8144 258.763 80.8760       0
GRID        7471       0 14.7117 259.513 81.1768       0
GRID        7472       0 4.58529 259.872 81.3902       0
GRID        7473       0-5.54896 259.839 81.5157       0
GRID        7474       0-15.6751 259.416 81.5531       0
GRID        7475       0-25.7774 258.601 81.5025       0
GRID        7476       0-35.8397 257.397 81.3637       0
GRID        7477       0-45.8462 255.806 81.1372       0
GRID        7478       0-55.7813 253.829 80.8232       0
GRID        7479       0-65.6296 251.471 80.4223       0
GRID        7480       0 121.882 215.460 84.0399       0
GRID        7481       0 129.911 217.794 77.6349       0
GRID        7482       0-65.8718 249.179 81.0407       0
GRID        7483       0-57.3085 245.240 83.1726       0
GRID        7484       0-65.8718 249.179-81.0407       0
GRID        7485       0-57.3085 245.240-83.1726       0
GRID        7486       0 121.882 215.460-84.0400       0
GRID        7487       0 129.910 217.794-77.6350       0
GRID        7488       0 129.929 225.483-72.0206       0
GRID        7489       0 121.107 230.323-73.2237       0
GRID        7490       0 112.094 234.817-74.3517       0
GRID        7491       0 102.904 238.959-75.4030       0
GRID        7492       0 93.5523 242.743-76.3758       0
GRID        7493       0 84.0533 246.163-77.2686       0
GRID        7494       0 74.4219 249.212-78.0800       0
GRID        7495       0 64.6732 251.887-78.8087       0
GRID        7496       0 54.8226 254.182-79.4536       0
GRID        7497       0 44.8855 256.096-80.0137       0
GRID        7498       0 34.8776 257.623-80.4880       0
GRID        7499       0 24.8144 258.763-80.8760       0
GRID        7500       0 14.7117 259.513-81.1768       0
GRID        7501       0 4.58529 259.872-81.3902       0
GRID        7502       0-5.54896 259.839-81.5157       0
GRID        7503       0-15.6751 259.416-81.5531       0
GRID        7504       0-25.7774 258.601-81.5025       0
GRID        7505       0-35.8397 257.397-81.3637       0
GRID        7506       0-45.8462 255.806-81.1372       0
GRID        7507       0-55.7813 253.829-80.8232       0
GRID        7508       0-65.6296 251.471-80.4223       0
GRID        7509       0 43.6774 238.840 87.5587       0
GRID        7510       0 44.0976 244.523 85.0783       0
GRID        7511       0 44.5011 250.287 82.5573       0
GRID        7512       0 53.9621 248.561 82.1318       0
GRID        7513       0 53.0997 243.008 84.7813       0
GRID        7514       0 52.2569 237.526 87.3985       0
GRID        7515       0 113.222 219.019 85.0843       0
GRID        7516       0 119.325 221.365 80.3477       0
GRID        7517       0 123.813 223.064 76.8630       0
GRID        7518       0 63.3288 246.492 81.6373       0
GRID        7519       0 62.0114 241.165 84.4405       0
GRID        7520       0 60.7634 235.900 87.2197       0
GRID        7521       0 104.981 222.316 85.7233       0
GRID        7522       0 110.574 225.010 81.4900       0
GRID        7523       0 115.732 227.561 77.4898       0
GRID        7524       0 72.5459 244.092 81.0799       0
GRID        7525       0 70.7457 239.021 84.0605       0
GRID        7526       0 69.1182 233.991 87.0208       0
GRID        7527       0 97.1121 225.325 86.1236       0
GRID        7528       0 102.355 228.422 82.2042       0
GRID        7529       0 107.272 231.573 78.3040       0
GRID        7530       0 79.1816 236.624 83.6492       0
GRID        7531       0 87.1500 234.071 83.2104       0
GRID        7532       0 94.5356 231.460 82.7499       0
GRID        7533       0 77.1718 231.857 86.8046       0
GRID        7534       0 89.8815 227.903 86.3980       0
GRID        7535       0 84.5262 229.659 86.5792       0
GRID        7536       0 81.5626 241.388 80.4618       0
GRID        7537       0 90.3024 238.409 79.7962       0
GRID        7538       0 98.7915 235.176 79.0786       0
GRID        7539       0-20.9434 252.446 83.6482       0
GRID        7540       0-16.0028 246.334 85.7835       0
GRID        7541       0-11.0436 240.282 87.8976       0
GRID        7542       0-19.6396 239.461 87.8376       0
GRID        7543       0-25.1067 245.475 85.6657       0
GRID        7544       0-30.6702 251.479 83.4902       0
GRID        7545       0-28.1569 238.446 87.7207       0
GRID        7546       0-34.1652 244.391 85.4675       0
GRID        7547       0-40.7659 250.252 83.1983       0
GRID        7548       0-52.3818 248.900 82.5981       0
GRID        7549       0-42.6607 243.145 85.2132       0
GRID        7550       0-36.3204 237.360 87.5287       0
GRID        7551       0-43.7030 236.633 87.1702       0
GRID        7552       0-47.8825 241.712 85.1937       0
GRID        7553       0 35.1425 239.877 87.6763       0
GRID        7554       0 35.1366 245.733 85.3102       0
GRID        7555       0 35.0320 251.663 82.9078       0
GRID        7556       0-11.4006 253.165 83.6927       0
GRID        7557       0-7.02503 246.976 85.8135       0
GRID        7558       0-2.50594 240.864 87.9106       0
GRID        7559       0 26.8199 240.602 87.7664       0
GRID        7560       0 26.3614 246.597 85.4941       0
GRID        7561       0 25.6376 252.666 83.1914       0
GRID        7562       0 1.75938 247.306 85.7931       0
GRID        7563       0 10.1453 247.345 85.7278       0
GRID        7564       0 17.9844 247.126 85.6298       0
GRID        7565       0 5.82714 241.152 87.8971       0
GRID        7566       0 19.1523 241.023 87.8270       0
GRID        7567       0 13.5126 241.173 87.8616       0
GRID        7568       0-1.97219 253.557 83.6594       0
GRID        7569       0 7.28938 253.598 83.5633       0
GRID        7570       0 16.3976 253.310 83.4069       0
GRID        7571       0 44.4591 250.240-82.5822       0
GRID        7572       0 44.0622 244.476-85.1016       0
GRID        7573       0 43.6699 238.821-87.5673       0
GRID        7574       0 52.2509 237.480-87.4205       0
GRID        7575       0 53.0853 242.967-84.8020       0
GRID        7576       0 53.9459 248.549-82.1394       0
GRID        7577       0 123.060 222.785-77.4440       0
GRID        7578       0 116.888 220.374-82.2869       0
GRID        7579       0 112.540 218.738-85.6272       0
GRID        7580       0 60.7501 235.855-87.2439       0
GRID        7581       0 62.0007 241.132-84.4585       0
GRID        7582       0 63.3253 246.490-81.6389       0
GRID        7583       0 115.235 227.353-77.8507       0
GRID        7584       0 109.692 224.570-82.1724       0
GRID        7585       0 104.587 222.104-86.0371       0
GRID        7586       0 69.0947 233.958-87.0425       0
GRID        7587       0 70.7338 238.997-84.0755       0
GRID        7588       0 72.5498 244.090-81.0802       0
GRID        7589       0 106.989 231.454-78.4886       0
GRID        7590       0 101.975 228.220-82.4754       0
GRID        7591       0 96.9233 225.205-86.2699       0
GRID        7592       0 94.3382 231.360-82.8733       0
GRID        7593       0 87.0748 234.023-83.2592       0
GRID        7594       0 79.1683 236.602-83.6644       0
GRID        7595       0 77.1471 231.835-86.8221       0
GRID        7596       0 89.7769 227.835-86.4711       0
GRID        7597       0 84.4771 229.623-86.6133       0
GRID        7598       0 98.6489 235.108-79.1673       0
GRID        7599       0 90.2507 238.375-79.8307       0
GRID        7600       0 81.5585 241.376-80.4693       0
GRID        7601       0-11.0048 240.223-87.9180       0
GRID        7602       0-15.9696 246.278-85.8026       0
GRID        7603       0-20.9369 252.425-83.6551       0
GRID        7604       0-30.6366 251.417-83.5113       0
GRID        7605       0-25.0797 245.420-85.6842       0
GRID        7606       0-19.6363 239.446-87.8428       0
GRID        7607       0-52.3613 248.872-82.6084       0
GRID        7608       0-40.7361 250.203-83.2152       0
GRID        7609       0-34.1429 244.348-85.4823       0
GRID        7610       0-28.1562 238.435-87.7245       0
GRID        7611       0-36.3045 237.336-87.5375       0
GRID        7612       0-42.6481 243.122-85.2212       0
GRID        7613       0-43.6954 236.622-87.1741       0
GRID        7614       0-47.8754 241.701-85.1977       0
GRID        7615       0 34.9652 251.611-82.9346       0
GRID        7616       0 35.0785 245.689-85.3323       0
GRID        7617       0 35.1273 239.867-87.6812       0
GRID        7618       0-2.48104 240.814-87.9276       0
GRID        7619       0-7.00327 246.940-85.8258       0
GRID        7620       0-11.3960 253.163-83.6935       0
GRID        7621       0 25.5703 252.614-83.2159       0
GRID        7622       0 26.3003 246.546-85.5166       0
GRID        7623       0 26.8024 240.587-87.7727       0
GRID        7624       0 17.9376 247.065-85.6537       0
GRID        7625       0 10.1378 247.302-85.7430       0
GRID        7626       0 1.77240 247.286-85.8000       0
GRID        7627       0 5.83532 241.126-87.9060       0
GRID        7628       0 19.1362 240.995-87.8373       0
GRID        7629       0 13.5096 241.148-87.8702       0
GRID        7630       0 16.3614 253.266-83.4246       0
GRID        7631       0 7.28324 253.571-83.5729       0
GRID        7632       0-1.96568 253.551-83.6614       0
GRID        7633       0-118.692 254.536 60.1727       0
GRID        7634       0-88.5942 244.362 74.0009       0
GRID        7635       0-122.354 261.548 56.1787       0
GRID        7636       0-79.7845 247.361 79.6842       0
GRID        7637       0-176.445 210.279 60.7155       0
GRID        7638       0-109.865 235.607 62.0000       0
GRID        7639       0-159.635 205.230 61.9998       0
GRID        7640       0-173.437 206.694 61.1354       0
GRID        7641       0-181.740 216.590 57.3715       0
GRID        7642       0-88.5942 244.362-74.0009       0
GRID        7643       0-79.7845 247.361-79.6842       0
GRID        7644       0-122.354 261.548-56.1787       0
GRID        7645       0-118.692 254.536-60.1727       0
GRID        7646       0-173.437 206.694-61.1354       0
GRID        7647       0-176.445 210.279-60.7155       0
GRID        7648       0-159.635 205.230-61.9998       0
GRID        7649       0-109.865 235.607-62.0000       0
GRID        7650       0-181.740 216.590-57.3715       0
GRID        7651       0 206.054 231.607     0.0       0
GRID        7652       0-199.264 237.474     0.0       0
GRID        7653       0-110.753 256.956 61.4243       0
GRID        7654       0-102.525 255.803 64.8706       0
GRID        7655       0-95.0331 251.362 69.4237       0
GRID        7656       0-87.6535 257.179 72.6392       0
GRID        7657       0-97.6894 263.573 64.9222       0
GRID        7658       0-109.769 265.225 58.6153       0
GRID        7659       0-166.221 220.653 60.5442       0
GRID        7660       0-155.180 230.256 60.4340       0
GRID        7661       0-143.528 239.103 60.3385       0
GRID        7662       0-131.343 247.197 60.2525       0
GRID        7663       0-114.279 245.071 61.0864       0
GRID        7664       0-122.936 229.077 62.0000       0
GRID        7665       0-135.610 221.826 62.0000       0
GRID        7666       0-147.854 213.871 62.0000       0
GRID        7667       0-166.843 203.178 61.7476       0
GRID        7668       0-97.9831 240.773 65.1757       0
GRID        7669       0-135.363 254.284 56.2436       0
GRID        7670       0-147.905 246.180 56.3739       0
GRID        7671       0-159.896 237.224 56.5846       0
GRID        7672       0-171.232 227.388 56.8953       0
GRID        7673       0-87.6535 257.179-72.6392       0
GRID        7674       0-97.6894 263.573-64.9222       0
GRID        7675       0-109.769 265.225-58.6153       0
GRID        7676       0-110.753 256.956-61.4243       0
GRID        7677       0-102.525 255.803-64.8706       0
GRID        7678       0-95.0331 251.362-69.4237       0
GRID        7679       0-166.843 203.178-61.7476       0
GRID        7680       0-122.936 229.077-62.0000       0
GRID        7681       0-135.610 221.826-62.0000       0
GRID        7682       0-147.854 213.871-62.0000       0
GRID        7683       0-114.279 245.071-61.0864       0
GRID        7684       0-166.221 220.653-60.5442       0
GRID        7685       0-155.180 230.256-60.4340       0
GRID        7686       0-143.528 239.103-60.3385       0
GRID        7687       0-131.343 247.197-60.2525       0
GRID        7688       0-97.9831 240.773-65.1757       0
GRID        7689       0-135.363 254.284-56.2436       0
GRID        7690       0-147.905 246.180-56.3739       0
GRID        7691       0-159.896 237.224-56.5846       0
GRID        7692       0-171.232 227.388-56.8953       0
GRID        7693       0 201.967 231.260 19.7502       0
GRID        7694       0 192.463 230.281 35.4243       0
GRID        7695       0 181.146 228.817 46.9619       0
GRID        7696       0 169.888 227.031 55.3642       0
GRID        7697       0 159.180 225.026 61.6719       0
GRID        7698       0 148.865 222.810 66.6387       0
GRID        7699       0-189.687 226.061 44.5320       0
GRID        7700       0-196.309 233.952 25.6794       0
GRID        7701       0-179.857 252.490     0.0       0
GRID        7702       0-159.323 265.925     0.0       0
GRID        7703       0-137.790 277.694     0.0       0
GRID        7704       0-115.393 287.723     0.0       0
GRID        7705       0-92.2744 295.948     0.0       0
GRID        7706       0-68.5785 302.319     0.0       0
GRID        7707       0-44.4522 306.796     0.0       0
GRID        7708       0-20.0456 309.351     0.0       0
GRID        7709       0 4.48659 309.968     0.0       0
GRID        7710       0 28.9900 308.642     0.0       0
GRID        7711       0 53.3114 305.382     0.0       0
GRID        7712       0 77.2989 300.208     0.0       0
GRID        7713       0 100.803 293.153     0.0       0
GRID        7714       0 123.675 284.261     0.0       0
GRID        7715       0 145.773 273.588     0.0       0
GRID        7716       0 166.956 261.201     0.0       0
GRID        7717       0 187.090 247.179     0.0       0
GRID        7718       0-189.687 226.061-44.5320       0
GRID        7719       0-196.309 233.952-25.6794       0
GRID        7720       0 201.967 231.260-19.7502       0
GRID        7721       0 192.463 230.281-35.4243       0
GRID        7722       0 181.146 228.817-46.9619       0
GRID        7723       0 169.888 227.031-55.3642       0
GRID        7724       0 159.180 225.026-61.6719       0
GRID        7725       0 148.865 222.810-66.6387       0
GRID        7726       0-127.124 238.128 61.1276       0
GRID        7727       0-151.444 222.243 61.2075       0
GRID        7728       0-162.747 213.792 61.2218       0
GRID        7729       0-139.532 230.498 61.1684       0
GRID        7730       0-99.2278 246.515 65.3134       0
GRID        7731       0-110.106 249.720 61.4395       0
GRID        7732       0-105.335 247.027 62.6723       0
GRID        7733       0-127.124 238.128-61.1276       0
GRID        7734       0-151.444 222.243-61.2075       0
GRID        7735       0-162.747 213.792-61.2218       0
GRID        7736       0-139.532 230.498-61.1684       0
GRID        7737       0-101.962 246.071-63.8961       0
GRID        7738       0-135.083 275.671 22.3320       0
GRID        7739       0-127.305 266.427 47.6919       0
GRID        7740       0-156.697 265.122 18.0753       0
GRID        7741       0-155.472 260.091 32.9376       0
GRID        7742       0-152.498 253.674 45.5646       0
GRID        7743       0-178.144 236.017 44.5248       0
GRID        7744       0-165.706 245.214 44.9174       0
GRID        7745       0-170.197 251.345 31.2273       0
GRID        7746       0-173.933 254.535 16.3183       0
GRID        7747       0-186.319 245.791 15.4125       0
GRID        7748       0-183.381 242.541 29.5361       0
GRID        7749       0-139.214 260.887 46.5799       0
GRID        7750       0-140.466 267.285 35.7244       0
GRID        7751       0-89.8468 267.351 64.3937       0
GRID        7752       0-97.9155 286.863 34.1298       0
GRID        7753       0-90.5304 293.121 23.6757       0
GRID        7754       0 46.6627 265.643 74.4957       0
GRID        7755       0 48.5342 274.302 67.8725       0
GRID        7756       0 50.6553 281.827 60.3975       0
GRID        7757       0 53.3932 288.006 52.3749       0
GRID        7758       0 55.5480 301.791 23.4116       0
GRID        7759       0 106.411 246.731 71.1594       0
GRID        7760       0 109.998 253.847 65.9495       0
GRID        7761       0 113.874 260.140 59.8159       0
GRID        7762       0 118.284 265.513 52.7006       0
GRID        7763       0 123.664 269.722 44.4647       0
GRID        7764       0 121.747 283.006 17.6366       0
GRID        7765       0 143.645 271.424 21.2033       0
GRID        7766       0 132.750 263.038 46.9791       0
GRID        7767       0 127.436 259.536 53.8694       0
GRID        7768       0 127.024 244.142 65.4471       0
GRID        7769       0 123.945 237.735 69.6897       0
GRID        7770       0 115.446 242.262 70.4627       0
GRID        7771       0 118.948 248.963 65.7193       0
GRID        7772       0 139.742 257.206 49.0317       0
GRID        7773       0 147.104 251.866 49.7786       0
GRID        7774       0 155.130 245.271 50.8049       0
GRID        7775       0 162.992 236.992 52.6826       0
GRID        7776       0 131.799 233.526 68.7664       0
GRID        7777       0 133.893 239.674 65.1798       0
GRID        7778       0 137.665 244.113 61.0163       0
GRID        7779       0 142.381 248.074 55.8797       0
GRID        7780       0 154.598 234.122 59.1474       0
GRID        7781       0 148.943 241.730 57.1399       0
GRID        7782       0 146.516 231.731 64.0112       0
GRID        7783       0 139.005 230.631 67.3735       0
GRID        7784       0 143.057 238.621 61.9268       0
GRID        7785       0 135.221 253.758 54.9883       0
GRID        7786       0 130.811 249.380 60.5756       0
GRID        7787       0 165.607 259.448 18.0437       0
GRID        7788       0 150.419 255.957 42.8867       0
GRID        7789       0 149.840 262.131 34.3644       0
GRID        7790       0 160.558 249.323 42.7750       0
GRID        7791       0 171.261 240.166 44.1546       0
GRID        7792       0 184.295 246.427 17.8899       0
GRID        7793       0 178.704 243.541 32.7822       0
GRID        7794       0 164.177 254.274 32.2715       0
GRID        7795       0 58.9489 271.819 67.8249       0
GRID        7796       0 69.2804 269.150 67.5345       0
GRID        7797       0 79.6988 266.113 67.1026       0
GRID        7798       0 90.1231 262.541 66.6571       0
GRID        7799       0 100.312 258.404 66.2770       0
GRID        7800       0 77.1302 257.993 73.1287       0
GRID        7801       0 87.1310 254.651 72.5076       0
GRID        7802       0 96.9313 250.868 71.8543       0
GRID        7803       0 67.0463 260.884 73.6986       0
GRID        7804       0 56.9115 263.409 74.1660       0
GRID        7805       0 60.9646 279.076 60.7932       0
GRID        7806       0 71.2642 276.443 60.5893       0
GRID        7807       0 82.0205 273.418 60.1563       0
GRID        7808       0 93.0240 269.679 59.8051       0
GRID        7809       0 103.803 265.178 59.6992       0
GRID        7810       0 79.5446 297.584 18.3897       0
GRID        7811       0 72.2262 288.397 45.3421       0
GRID        7812       0 72.5906 282.772 53.1197       0
GRID        7813       0 62.8627 284.914 53.6466       0
GRID        7814       0 64.3440 288.794 47.8118       0
GRID        7815       0 83.7899 279.996 52.3112       0
GRID        7816       0 95.7394 276.126 51.8572       0
GRID        7817       0 107.519 271.178 52.0034       0
GRID        7818       0 111.637 276.335 42.8948       0
GRID        7819       0 98.1008 281.962 42.5187       0
GRID        7820       0 84.4282 286.075 43.3873       0
GRID        7821       0 100.914 291.306 16.9339       0
GRID        7822       0 99.8950 287.181 31.1480       0
GRID        7823       0 83.0241 292.046 32.5957       0
GRID        7824       0 116.445 280.413 31.7925       0
GRID        7825       0-18.5103 269.512 75.4870       0
GRID        7826       0-22.0823 278.891 67.9169       0
GRID        7827       0-15.3990 299.592 41.5967       0
GRID        7828       0-17.9940 306.862 21.6946       0
GRID        7829       0 25.6592 269.027 74.8694       0
GRID        7830       0 26.6850 278.358 67.5737       0
GRID        7831       0 27.9492 286.548 59.1938       0
GRID        7832       0 29.1192 293.527 49.8959       0
GRID        7833       0 28.3849 300.078 38.4401       0
GRID        7834       0 29.9461 306.038 21.1092       0
GRID        7835       0 36.2669 267.518 74.7292       0
GRID        7836       0 37.8130 276.515 67.7666       0
GRID        7837       0 39.6667 284.451 59.7459       0
GRID        7838       0 42.1116 291.309 50.6120       0
GRID        7839       0 6.19140 307.354 21.5528       0
GRID        7840       0 8.19415 299.571 42.1104       0
GRID        7841       0 3.83860 290.505 56.3243       0
GRID        7842       0 3.30761 280.943 66.7374       0
GRID        7843       0 3.80935 270.764 74.9302       0
GRID        7844       0-7.48970 270.591 75.0950       0
GRID        7845       0-9.66002 280.724 66.8880       0
GRID        7846       0-12.2921 290.410 56.2188       0
GRID        7847       0 14.8673 270.128 74.9266       0
GRID        7848       0 15.2909 279.803 67.2660       0
GRID        7849       0 16.2705 288.163 58.5413       0
GRID        7850       0 17.9202 294.183 50.3995       0
GRID        7851       0-38.2826 265.900 76.3070       0
GRID        7852       0-40.6979 273.231 70.7540       0
GRID        7853       0-42.7510 278.367 66.0143       0
GRID        7854       0-39.1101 295.849 44.4585       0
GRID        7855       0-42.2473 304.285 22.4026       0
GRID        7856       0-28.7422 267.750 76.0051       0
GRID        7857       0-32.2942 275.861 69.6153       0
GRID        7858       0-27.7901 287.639 58.2981       0
GRID        7859       0-37.5293 282.389 62.8462       0
GRID        7860       0-49.9728 278.981 64.1647       0
GRID        7861       0-60.4271 278.079 62.8064       0
GRID        7862       0-71.2859 275.538 62.5066       0
GRID        7863       0-81.1205 271.787 63.1924       0
GRID        7864       0-61.2773 285.911 53.5612       0
GRID        7865       0-61.9738 293.935 40.5334       0
GRID        7866       0-66.2586 300.062 21.9459       0
GRID        7867       0-47.1194 286.370 56.6083       0
GRID        7868       0-80.2761 289.297 40.6170       0
GRID        7869       0-92.5461 283.613 43.8833       0
GRID        7870       0-75.0669 282.795 53.0506       0
GRID        7871       0-86.8192 278.186 54.3051       0
GRID        7872       0-57.1429 262.391 75.9331       0
GRID        7873       0-58.8392 270.368 70.0237       0
GRID        7874       0-49.3630 271.941 70.4908       0
GRID        7875       0-47.7170 264.236 76.2053       0
GRID        7876       0-65.9576 260.167 75.7281       0
GRID        7877       0-68.1364 267.944 69.9394       0
GRID        7878       0-76.1256 264.645 70.5171       0
GRID        7879       0-82.3268 259.838 72.3052       0
GRID        7880       0-72.5986 258.040 75.6743       0
GRID        7881       0-116.443 271.906 47.3348       0
GRID        7882       0-104.446 278.152 45.6326       0
GRID        7883       0-97.9161 272.704 56.0273       0
GRID        7884       0-110.022 282.270 34.2754       0
GRID        7885       0-113.355 285.952 20.2654       0
GRID        7886       0-123.303 275.622 36.2110       0
GRID        7887       0-130.508 270.049 39.9915       0
GRID        7888       0 46.0704 297.273 39.4582       0
GRID        7889       0 122.883 254.730 60.1966       0
GRID        7890       0 138.706 236.384 64.9407       0
GRID        7891       0 67.3507 294.392 36.6298       0
GRID        7892       0 57.8614 292.495 44.2280       0
GRID        7893       0 139.448 264.499 40.1322       0
GRID        7894       0 131.143 272.202 34.6393       0
GRID        7895       0 143.294 259.359 44.1003       0
GRID        7896       0-138.409 261.562-46.2956       0
GRID        7897       0-139.833 268.384-34.2837       0
GRID        7898       0-138.903 274.630-19.2539       0
GRID        7899       0-165.644 244.319-45.9939       0
GRID        7900       0-170.822 249.400-33.9362       0
GRID        7901       0-177.476 251.057-19.7608       0
GRID        7902       0-177.618 234.944-46.1074       0
GRID        7903       0-182.067 240.012-35.4824       0
GRID        7904       0-155.994 259.532-33.3886       0
GRID        7905       0-158.721 263.843-18.3102       0
GRID        7906       0-152.427 253.473-45.8685       0
GRID        7907       0-116.423 283.751-23.6327       0
GRID        7908       0-112.876 271.479-50.0295       0
GRID        7909       0 51.6144 302.295-24.1386       0
GRID        7910       0 39.4802 298.296-39.3956       0
GRID        7911       0 47.4305 282.059-60.8373       0
GRID        7912       0 46.6946 273.772-68.6337       0
GRID        7913       0 45.8575 265.117-74.9505       0
GRID        7914       0 119.809 283.396-19.4027       0
GRID        7915       0 114.596 278.915-36.4273       0
GRID        7916       0 108.645 273.617-48.4662       0
GRID        7917       0 105.929 265.812-58.2448       0
GRID        7918       0 105.602 256.825-65.5332       0
GRID        7919       0 104.564 247.953-71.1110       0
GRID        7920       0 124.163 239.490-68.8439       0
GRID        7921       0 127.541 248.353-62.6935       0
GRID        7922       0 130.688 257.658-53.9028       0
GRID        7923       0 131.368 268.463-40.6985       0
GRID        7924       0 139.438 273.662-21.1267       0
GRID        7925       0 114.512 244.062-69.9167       0
GRID        7926       0 116.682 253.019-63.9986       0
GRID        7927       0 118.408 261.572-56.5177       0
GRID        7928       0 157.417 262.961-22.9206       0
GRID        7929       0 169.838 252.516-28.3964       0
GRID        7930       0 181.371 242.338-31.4292       0
GRID        7931       0 187.240 244.497-16.8750       0
GRID        7932       0 175.380 253.648-15.3346       0
GRID        7933       0 132.876 234.289-68.0799       0
GRID        7934       0 137.736 241.858-62.3765       0
GRID        7935       0 143.940 249.833-53.5680       0
GRID        7936       0 149.523 258.347-40.4828       0
GRID        7937       0 156.099 238.960-55.2458       0
GRID        7938       0 145.675 233.614-63.4577       0
GRID        7939       0 139.143 229.556-67.7385       0
GRID        7940       0 162.777 248.018-42.4776       0
GRID        7941       0 173.396 239.122-43.4968       0
GRID        7942       0 166.678 235.352-51.6467       0
GRID        7943       0 94.6529 259.282-67.5205       0
GRID        7944       0 87.4106 258.877-69.9371       0
GRID        7945       0 81.5123 263.596-68.4312       0
GRID        7946       0 70.7663 268.170-67.9181       0
GRID        7947       0 58.8467 271.544-68.0667       0
GRID        7948       0 77.3765 256.825-73.7305       0
GRID        7949       0 67.4461 260.247-73.9915       0
GRID        7950       0 56.7866 263.055-74.4064       0
GRID        7951       0 85.9529 253.378-73.4940       0
GRID        7952       0 94.7691 251.037-72.3727       0
GRID        7953       0 90.3145 269.347-61.0935       0
GRID        7954       0 74.9827 275.927-59.9723       0
GRID        7955       0 60.8958 279.761-60.1064       0
GRID        7956       0 77.3316 284.311-49.2863       0
GRID        7957       0 78.1285 291.774-36.2967       0
GRID        7958       0 76.9190 297.882-20.0916       0
GRID        7959       0 61.9394 287.650-50.2982       0
GRID        7960       0 60.5048 294.855-38.8604       0
GRID        7961       0 99.0391 291.483-18.9887       0
GRID        7962       0 96.6802 286.320-35.5456       0
GRID        7963       0 93.5074 279.180-49.0419       0
GRID        7964       0-20.3423 307.025-20.3861       0
GRID        7965       0-19.2424 300.930-38.3950       0
GRID        7966       0-16.1769 293.560-51.6608       0
GRID        7967       0-14.8321 285.464-61.9077       0
GRID        7968       0-14.9811 277.057-69.9338       0
GRID        7969       0-15.3922 268.417-76.3554       0
GRID        7970       0 26.3994 306.503-20.5449       0
GRID        7971       0 21.5144 301.169-37.3799       0
GRID        7972       0 22.8257 274.692-71.0027       0
GRID        7973       0 24.4459 266.914-76.3489       0
GRID        7974       0 34.9403 266.417-75.5972       0
GRID        7975       0 34.4974 274.953-69.5254       0
GRID        7976       0 33.4271 283.548-61.7294       0
GRID        7977       0 35.0359 291.822-51.3486       0
GRID        7978       0 5.97777 267.937-76.7579       0
GRID        7979       0 8.81903 275.484-71.2695       0
GRID        7980       0 16.7093 283.227-63.8960       0
GRID        7981       0 1.50332 302.195-36.9140       0
GRID        7982       0 3.00278 307.838-19.6762       0
GRID        7983       0-4.47104 268.583-76.4737       0
GRID        7984       0-2.71262 277.053-70.2198       0
GRID        7985       0-9.059-3 285.649-62.0691       0
GRID        7986       0 .929178 294.517-50.8543       0
GRID        7987       0 15.1734 266.881-77.0287       0
GRID        7988       0 15.6046 272.488-73.2128       0
GRID        7989       0-44.4245 303.950-22.4895       0
GRID        7990       0-41.2370 296.278-43.1473       0
GRID        7991       0-38.2662 281.200-63.9520       0
GRID        7992       0-37.4100 274.011-70.5495       0
GRID        7993       0-36.6290 265.977-76.4329       0
GRID        7994       0-26.1863 267.483-76.3749       0
GRID        7995       0-26.6663 275.863-70.1609       0
GRID        7996       0-27.7923 283.640-62.7873       0
GRID        7997       0-93.4318 292.786-21.5692       0
GRID        7998       0-70.2635 298.287-25.0305       0
GRID        7999       0-62.5023 292.512-42.9841       0
GRID        8000       0-60.9342 284.545-55.4225       0
GRID        8001       0-59.4530 276.608-64.4732       0
GRID        8002       0-57.8298 268.916-71.3386       0
GRID        8003       0-56.5364 261.480-76.5903       0
GRID        8004       0-46.7629 264.021-76.4692       0
GRID        8005       0-47.6889 271.900-70.7923       0
GRID        8006       0-47.5815 287.247-55.4016       0
GRID        8007       0-48.3509 279.567-63.8948       0
GRID        8008       0-70.0746 271.937-66.1853       0
GRID        8009       0-79.6338 265.514-68.9582       0
GRID        8010       0-65.3952 258.353-76.9033       0
GRID        8011       0-67.1434 264.631-72.5856       0
GRID        8012       0-71.9282 255.258-77.3824       0
GRID        8013       0-74.7853 258.420-74.9805       0
GRID        8014       0-101.930 275.174-51.1724       0
GRID        8015       0-89.3390 281.259-49.1452       0
GRID        8016       0-76.5342 286.760-46.7853       0
GRID        8017       0-92.6390 287.459-36.7134       0
GRID        8018       0-80.0538 291.450-36.4106       0
GRID        8019       0-85.3056 273.049-60.5829       0
GRID        8020       0-73.4140 279.568-57.5732       0
GRID        8021       0-124.705 267.772-47.6370       0
GRID        8022       0-124.275 274.672-37.1629       0
GRID        8023       0 48.5515 289.437-51.7031       0
GRID        8024       0 49.5685 294.548-43.4612       0
GRID        8025       0 119.634 268.315-48.7932       0
GRID        8026       0 18.5625 293.531-51.2944       0
GRID        8027       0-39.0577 286.544-57.9596       0
GRID        8028       0-31.1191 290.538-54.1631       0
GRID        8029       0-114.738 276.152-42.0804       0
GRID        8030       0-106.722 281.376-38.7008       0
GRID       10001       0-9.61326 119.594 85.0000       0
GRID       10002       0 11.5177 74.2788 85.0000       0
GRID       10003       0-9.61326 119.594-85.0000       0
GRID       10004       0 11.5177 74.2788-85.0000       0
GRID       10005       0-9.61326 119.594 85.0000       0
GRID       10006       0 11.5177 74.2788 85.0000       0
GRID       10007       0-9.61326 119.594-85.0000       0
GRID       10008       0 11.5177 74.2788-85.0000       0
GRID       10009       0-127.557 112.646 80.0000      22
GRID       10010       0-81.7827 52.3411 80.0000      22
$*
$*  ELEMENT CARDS
$*
CTETRA         1       1    5299     867    4792    4766    5644    5642+ 
+           5646     958    1012    4931
CTETRA         2       1    5323     144     145    4769    2218     933+ 
+           6277    6272    2216    6276
CTETRA         3       1    2088     537    3403     534    2561    3427+ 
+           5325    2086     535    3426
CTETRA         4       1    1937    4467    4326     882    4494      64+ 
+           4393    4392    6601    4390
CTETRA         5       1    2550     540     264    5317    2554    5326+ 
+           5329    5330    5327    5328
CTETRA         6       1    1468     144     194    1697    3472    1170+ 
+           3471    3633     322     319
CTETRA         7       1    2492     233    5282     234    5335    5331+ 
+           5333    5334    1266    5332
CTETRA         8       1    4518    1981    4467    1983    4643    4498+ 
+           1932    4640    1982    4497
CTETRA         9       1     248     537    5317    1306    3428    5336+ 
+           5338    1308    3429    5337
CTETRA        10       1    5193    2058    4769    5192    5281    4895+ 
+            329    5222    5214    6049
CTETRA        11       1    1755    2188     340    2185    5340    2201+ 
+           3646    5339    2220    2217
CTETRA        12       1     683     680    1870     116     681    3776+ 
+           3778     612    1279    1277
CTETRA        13       1    2606    2607    2071    2613    2640    5341+ 
+           5343    2642    2641    5342
CTETRA        14       1    5193    4769     145     144     329    6276+ 
+            327     315    2216     933
CTETRA        15       1    5283    5284    2188    5285    5349    5344+ 
+           5347    5348    5345    5346
CTETRA        16       1    4321    2980     843     841    1704    3006+ 
+           1707    1715    3001     842
CTETRA        17       1     293    2770    5314    5289    5355    5350+ 
+           5353    5354    5351    5352
CTETRA        18       1     194    5193    5192    1697     317    5222+ 
+           6048     319    5220    5221
CTETRA        19       1    5283    5286    5287    5288    5361    5356+ 
+           5359    5360    5357    5358
CTETRA        20       1    5299     867      79    2917    5644     866+ 
+           5635    5645    2920    2919
CTETRA        21       1    3853    4807    4813    3852    5365    4956+ 
+           5364    4197    5362    5363
CTETRA        22       1    2722      69    2732    2564    2755    2757+ 
+           2756    2121    6462    6612
CTETRA        23       1    5283    5286    2264    3669    5361    5366+ 
+           5369    5370    5367    5368
CTETRA        24       1    4330    2980     783     890    1725    2997+ 
+           2232    4336    2230    6338
CTETRA        25       1     270    2243    1392     271    5373    5371+ 
+           3387    1362    5372    1394
CTETRA        26       1    1488    1458    5194    1711    3506    2235+ 
+           6219    2239    3623    5228
CTETRA        27       1    5283    5287    1782    1788    5359    5374+ 
+           5376    5377    5375    3673
CTETRA        28       1    2981    4327    4322    4323    6264    4399+ 
+           2092    1735    4411    4407
CTETRA        29       1     254     247     246      44    1317    1302+ 
+           1316    2114    3412    5378
CTETRA        30       1    1485    1458    1706    5194    3509    3625+ 
+            778     775    2235    5226
CTETRA        31       1    5283    1782    5286    3669    5376    5379+ 
+           5361    5370    3679    5367
CTETRA        32       1    4715    2018    3871    4724    4857    5380+ 
+           6418    4858    4853    5382
CTETRA        33       1    4724    2018    3871    1613    4853    5380+ 
+           5382    5383    5381    4054
CTETRA        34       1    1458    1706    5194    1709    3625    5226+ 
+           2235    3626    1708    5225
CTETRA        35       1    5286    1785    5289    2270    5389    5384+ 
+           5387    5388    5385    5386
CTETRA        36       1    4523     646     104     101    5773    5774+ 
+           5770    1019    2248     748
CTETRA        37       1    2277       5     372     330    2282     370+ 
+           2284    5390    2189    2190
CTETRA        38       1    1706    1485    1460    1458     778    3508+ 
+           3624    3625    3509    1459
CTETRA        39       1    5283    5288    5287    5285    5360    5358+ 
+           5359    5348    5391    5392
CTETRA        40       1    4328     838    4329     709    5919    5959+ 
+           4376    4372    5920    4374
CTETRA        41       1      67    3403     248      55    5394    3425+ 
+           1309     592    5393    3398
CTETRA        42       1    1711    1458    1455    1488    3623    1457+ 
+           3621    2239    3506    3507
CTETRA        43       1    5289    5286    5288    5287    5387    5357+ 
+           5395    5396    5356    5358
CTETRA        44       1    1140    1142    4819    3900    1141    2254+ 
+           1088    3988    3987    1086
CTETRA        45       1      50    2550     562    2579    5399    5397+ 
+            563    2586    5398    2590
CTETRA        46       1    1711    5194    1488    5191    5228    6219+ 
+           2239    5230    5231    6217
CTETRA        47       1    2261    5286    5288    5289    5402    5357+ 
+           5400    5401    5387    5395
CTETRA        48       1     646     101    1919     648    2248    2100+ 
+           4318     647    2257    4317
CTETRA        49       1    2276     274    1402    1406    5405    1403+ 
+           5403    5404    3390    3389
CTETRA        50       1    2051    2048    5201    4776    2050    5277+ 
+           5276    4885    4886    1001
CTETRA        51       1    5286    5289    2261    2270    5387    5401+ 
+           5402    5388    5386    2404
CTETRA        52       1    4728    3871    3860    3859    5962    4238+ 
+           5465    5963    4237    4234
CTETRA        53       1     237     233     221      38    1283    3325+ 
+           1285    5408    5406    5407
CTETRA        54       1    1514    1734    5199    1737    2266    5255+ 
+           6377    1696    1736    5254
CTETRA        55       1    5286    2267    5288    2264    5411    5409+ 
+           5357    5366    2413    5410
CTETRA        56       1    4780     314    1884    3797    1484    1883+ 
+           6557     985    3942    3941
CTETRA        57       1    2688    2088    3403    2686    5415    5325+ 
+           5414    2707    5412    5413
CTETRA        58       1    4728    4716    4732    3860    4945    4951+ 
+           4955    5465    5464    2269
CTETRA        59       1    5286    5288    2267    2261    5357    5409+ 
+           5411    5402    5400    2400
CTETRA        60       1    1501    1438    1724    5190    3496    3612+ 
+            675     670    6495    5245
CTETRA        61       1    2611    2071    2614    2492    5419    5416+ 
+           2622    5418    2503    5417
CTETRA        62       1    1514    1734    1429    1512    2266    3603+ 
+           3487    1513    6319    3490
CTETRA        63       1    5290    5291     275    5292    5425    5420+ 
+           5423    5424    5421    5422
CTETRA        64       1    4771    5202    2044    2046    5698    5272+ 
+           4880    4879    5271    2045
CTETRA        65       1     506    5282     233     214    5429    5331+ 
+           5427    5428    5426    3326
CTETRA        66       1    1514    5201    1737    5199     999    5258+ 
+           1696    6377    5259    5254
CTETRA        67       1    5291     266     275     252    5431    1409+ 
+           5420    5430    3399    3400
CTETRA        68       1    1491    4753    1493    5197     708    5875+ 
+           1492    6096    2275    5759
CTETRA        69       1    2071    2277    2492    2074    5434    5432+ 
+           2503    2073    5433    2493
CTETRA        70       1     652      77     785    1917    2835    2278+ 
+           1663    2283    4311    2281
CTETRA        71       1    3437     252    2095    5291    3450    5435+ 
+           5437    5438    5430    5436
CTETRA        72       1    1429    1734    1732    1512    3603    1733+ 
+           3606    3490    6319    6320
CTETRA        73       1    4738    4742    3848    3835    5027    5439+ 
+           5441    5442    5440    4160
CTETRA        74       1    4330     785     783    2980    2068     784+ 
+           2232    1725    2996    2997
CTETRA        75       1    5292      63    2077    5291    5447    5443+ 
+           5446    5421    5444    5445
CTETRA        76       1    5200    4778    1520    1524    6395    6381+ 
+           5721     565     567    1522
CTETRA        77       1    2902     110     114     740    2904     754+ 
+           2903    5450    5448    5449
CTETRA        78       1     785    4330    4329     841    2068    4410+ 
+           5958    3000    1717    5960
CTETRA        79       1    3436      63     517    2077    5453    5451+ 
+           3454    5452    5443    2519
CTETRA        80       1    2003    1633    1807    1630    6842    6836+ 
+           6692    6455    1631    6684
CTETRA        81       1    2492     330    2277     372    5455    5390+ 
+           5432    5454    2190    2284
CTETRA        82       1     832     843     841     716    2898     842+ 
+           2900    6823    2288    2290
CTETRA        83       1    5290    5291    2077    2252    5425    5445+ 
+           5458    5459    5456    5457
CTETRA        84       1    4775    1520    3813    3814    6383    4032+ 
+            513     487    4029    4033
CTETRA        85       1     499    2492     524    2524    2502    5460+ 
+           5462    5463    5461    2532
CTETRA        86       1    1034    5300    1046     183    5660    6740+ 
+           3041    1033    6939    3040
CTETRA        87       1    4715    4716    4728    3860    4947    4945+ 
+           4946    5466    5464    5465
CTETRA        88       1    4764    4765     314    1896    5087    1552+ 
+           1486    1502    1498    1898
CTETRA        89       1    2614      40     524    2492    2621     526+ 
+           2620    5417    5467    5460
CTETRA        90       1     716     832     686     712    6823    6822+ 
+           2854     714    6827    2857
CTETRA        91       1    5292    5290    5291    2077    5424    5425+ 
+           5421    5446    5458    5445
CTETRA        92       1    4778    1520    1524    3813    6381    1522+ 
+            567     510    4032    4031
CTETRA        93       1    2724    2725    2726    2564    2765    2752+ 
+           2764    5470    5468    5469
CTETRA        94       1    1865     832     686     828     619    6822+ 
+           3783    6678     830    6766
CTETRA        95       1    2077    5290     236    5292    5458    5471+ 
+           5473    5446    5424    5472
CTETRA        96       1    4752    4759    4753    3876    5049    5057+ 
+           5055    5883     397    5882
CTETRA        97       1    2251    2250    2242    2097    2363    2351+ 
+           2365    5476    5474    5475
CTETRA        98       1     683     116     115     680     612     755+ 
+           1861     681    1279    6105
CTETRA        99       1     234     235      40    1271    5478    1268+ 
+           5477    1270    1272    3319
CTETRA       100       1    1499    3840    4754    3842    4019     469+ 
+           5533    4015    4020     360
CTETRA       101       1     251    1304    1306     540    3341    1305+ 
+           3342    5479    3417    3435
CTETRA       102       1     843     828     683     716    2897    6767+ 
+           2298    2288    6824    2855
CTETRA       103       1    5292    3436     515    2077    5481    3453+ 
+           5480    5446    5452    2076
CTETRA       104       1    3836    3837    4742    3845    4166    2301+ 
+            371    4168    4167     734
CTETRA       105       1    2524     501    2492     330    5483    2501+ 
+           5461    2528    5482    5455
CTETRA       106       1    4319     646     657     655    5772    2838+ 
+           4358    4363    2840     656
CTETRA       107       1    5292      39    2077     515    5484    2515+ 
+           5446    5480     514    2076
CTETRA       108       1    4808    4815    1145    3895    5173    2128+ 
+           1210    1214    2309    3994
CTETRA       109       1    2507      17     366     391    5487    2215+ 
+           5485    5486     392    2213
CTETRA       110       1    4788    4787    3830    2001    4841    2312+ 
+           1410    4837    4840    1971
CTETRA       111       1    5293    5294     148     943    5492    5488+ 
+           5490    5491    5489     944
CTETRA       112       1    4774     635    4766      79    2177     990+ 
+           4928    1007     636     992
CTETRA       113       1     301    1818    1596     324    1819    5493+ 
+           5496    5497    5494    5495
CTETRA       114       1    4321     716     843    4323    4378    2288+ 
+           1707    4382    4380    1391
CTETRA       115       1    5295    5293    5294     190    5502    5492+ 
+           5500    5501    5498    5499
CTETRA       116       1    1740    1517    1424    1520    6493    3486+ 
+           3601    5722    1518    3484
CTETRA       117       1     324    2027    1818    1596    2028    5503+ 
+           5494    5495    5504    5493
CTETRA       118       1    4465    4512    4513     323    1719    4590+ 
+           6908    4477    4591    4589
CTETRA       119       1    2071    5282     508      58    5509    5505+ 
+           2506    5508    5506    5507
CTETRA       120       1    2492     234    5282      40    5334    5332+ 
+           5333    5467    5477    5956
CTETRA       121       1     301     324    1596    1593    5497    5495+ 
+           5496    5511    5510    1595
CTETRA       122       1    2142      93    4464    2145    1269    6832+ 
+           4509    2144     687    4482
CTETRA       123       1    1149     192    1155    5295    3096    3095+ 
+           3098    5514    5512    5513
CTETRA       124       1    3844    4749    2169    4747    6554    4912+ 
+           6415    6414    4916    4914
CTETRA       125       1    5303    5304     324     294    5520    5515+ 
+           5518    5519    5516    5517
CTETRA       126       1    5297    4816    4815    4809    6504    5176+ 
+           6503    5576    5175    5172
CTETRA       127       1    5295    3148    5294    5293    5523    5521+ 
+           5500    5502    5522    5492
CTETRA       128       1    4778    4777    3813    1524    5103    1994+ 
+            510     567    5691    4031
CTETRA       129       1    5287    5315    5320    5288    5528    5524+ 
+           5527    5358    5525    5526
CTETRA       130       1    5297    3155    1106    1109    1103    3212+ 
+           6502    1198    3211    1107
CTETRA       131       1    5293    3149     947    1202    5531    3168+ 
+           5529    5530    3187    2104
CTETRA       132       1    4760    3896    4722    4721    2174     219+ 
+           4989    4988    6734    4987
CTETRA       133       1    1495    1499    2173    4754    1497    5532+ 
+           5534    5535    5533    4918
CTETRA       134       1    1106    5297    1162    3156    6502    1187+ 
+           5593    3209    1101    5592
CTETRA       135       1    5293    5294     947    3150    5492    5536+ 
+           5529    5538    5537    3163
CTETRA       136       1    1890    4801    3821    4802    5548    5546+ 
+           4075    6054    4940     103
CTETRA       137       1     296    5313    1630     297    5543    5539+ 
+           5542    1800    5540    5541
CTETRA       138       1    5297    3155    3156    1106    1103    3213+ 
+           1101    6502    3212    3209
CTETRA       139       1    5293    5295    3148    1155    5502    5523+ 
+           5522    5545    5513    5544
CTETRA       140       1    4732    3867    3865    3863     213    4244+ 
+           1070    5600    4246    4221
CTETRA       141       1    1890    3821    4801    1888    4075    5546+ 
+           5548    1889    4076    5547
CTETRA       142       1    3152    5297    3153    3151    1098    1063+ 
+           3194    3257    1065    3256
CTETRA       143       1    1155    1184    1202    5293    3128    3292+ 
+           5550    5545    5549    5530
CTETRA       144       1    4773    2173    1501    2171    4878    2327+ 
+           2331    4922    2172    2329
CTETRA       145       1    4818    3900    3898    3901    5553    4299+ 
+           5551    5552    4300    4293
CTETRA       146       1      93     310     311    4511    1851    1852+ 
+           3773    6833    4599    4598
CTETRA       147       1    1112    1083    1085    5296    3078    1084+ 
+           3077    5556    5554    5555
CTETRA       148       1    1501    5198    2042    5190     672    5268+ 
+           2335     670    5246    5270
CTETRA       149       1    4819    3902    4818    4811    5559    5557+ 
+           5179    5142    5558    5177
CTETRA       150       1    4464     310    4511    1991    6835    4599+ 
+           6834    4508    4604    4603
CTETRA       151       1    2492    5282     508    2071    5333    5505+ 
+           2505    2503    5509    2506
CTETRA       152       1    4529     121     107    4531    4537     764+ 
+           5707    4539    4534    5708
CTETRA       153       1    5312    1901    2159    4731    5564    5560+ 
+           5562    5563    5561    4900
CTETRA       154       1    1904    1906     119      96    1905    6604+ 
+           1834    4301    4304    6664
CTETRA       155       1    5289    2270    2271    2261    5386    2407+ 
+           5565    5401    2404    2393
CTETRA       156       1    2181    1524    1527    4768    7007    1526+ 
+           6927     555     557    2339
CTETRA       157       1    4818    3892    4812    3901    5568    5566+ 
+           5178    5552    4288    5567
CTETRA       158       1     310    4510    1993    4464    4600    4601+ 
+           4602    6835    6840    4507
CTETRA       159       1    5296    5297    5298    1147    5574    5569+ 
+           5572    5573    5570    5571
CTETRA       160       1    4531    4416    4530    4532    5832    5826+ 
+           4672    4547    5820    4544
CTETRA       161       1    1557    1609    1554    1660    3532    3533+ 
+           1555    3573    5575    3574
CTETRA       162       1    4748    3837    3841    3845     706    4175+ 
+           2345     758    4167    4178
CTETRA       163       1    5296    4809    5297    1147    5578    5576+ 
+           5574    5573    5577    5570
CTETRA       164       1    2136     698      88      86    2348    2848+ 
+           2143    2147     699     678
CTETRA       165       1    5307    1999    4679    1997    5581    4686+ 
+           5579    5580    1998    4681
CTETRA       166       1    2902      97     120     119    6666     736+ 
+           2906    2905    6665     761
CTETRA       167       1    5296    4761    1083    4810    5585    5582+ 
+           5554    5584    5068    5583
CTETRA       168       1    5311    2163    4798    2165    5865    4933+ 
+           5861    5860    2164    4932
CTETRA       169       1    3891    4812    3901    3902    5587    5567+ 
+           4289    4287    5586    4290
CTETRA       170       1    1927    2145      94    1929    2146     689+ 
+           4354    1928    4485    4348
CTETRA       171       1    5282     217     214     506    5589    1229+ 
+           5426    5429    5588    5428
CTETRA       172       1     791    1917    1919     648    2358    1918+ 
+           2354    2356    4310    4317
CTETRA       173       1    4812    3901    3902    4818    5567    4290+ 
+           5586    5178    5552    5557
CTETRA       174       1    3837    4742    3845    4748    2301     734+ 
+           4167     706    5035     758
CTETRA       175       1    4761    4760    4809    5296    5060    5063+ 
+           5062    5585    5590    5578
CTETRA       176       1     102     104    4523    4319     747    5770+ 
+           6990    5670    5769    5771
CTETRA       177       1    1106    1162    1104    3156    5593    5591+ 
+           1105    3209    5592    3208
CTETRA       178       1    2564    2727     547     551    6608    1562+ 
+           2577    2578    1843     549
CTETRA       179       1    5282     235     234     217    5595    5478+ 
+           5332    5589    1288    5594
CTETRA       180       1     841     834     709     838    2899    5947+ 
+            660     839    2895    5920
CTETRA       181       1    1671    1570    1622    1675    3583    3544+ 
+           5597    1673    3586    5596
CTETRA       182       1      69    2564    2727     547    6462    6608+ 
+           2744     976    2577    1562
CTETRA       183       1    5290     271    1365     275    5599    1366+ 
+           5598    5423    1376    3375
CTETRA       184       1     908    1917     910     791    4631    4630+ 
+            909    2961    2358    2957
CTETRA       185       1    4737    4732    4736    3863    5015    4962+ 
+           5017    5602    5600    5601
CTETRA       186       1     551    3436    2727     547    3462    6793+ 
+           1843     549    3459    1562
CTETRA       187       1     275    5292     222     236    5422    5603+ 
+           3382    1378    5472    3381
CTETRA       188       1     101     791     648     787     789    2356+ 
+           2257    2876    2877    2372
CTETRA       189       1    3899    4814    4817    4821    5606    5182+ 
+           5604    5605    4977    5184
CTETRA       190       1    2727    5291    3437    2564    2376    5438+ 
+           1845    6608    5809    5782
CTETRA       191       1    4715    2021    1611    2018    4856    5607+ 
+           5609    4857    2019    5608
CTETRA       192       1     787     655     648     101    1674    2839+ 
+           2372    2876    2379    2257
CTETRA       193       1    4817    3898    4818    3900    5611    5551+ 
+           5188    5610    4299    5553
CTETRA       194       1    4787    4788    3830    4794    4841    1410+ 
+           2312    5145    5144    1415
CTETRA       195       1    2507    2077    2252     236    2512    5457+ 
+           5613    5614    5473    5612
CTETRA       196       1    1685    1683    1807    1633    1684    3708+ 
+           3742    6394    6393    6836
CTETRA       197       1    1890    4801    2159    1888    5548    4938+ 
+           5616    1889    5547    5615
CTETRA       198       1    3830    1585    2001     285    3936    1973+ 
+           1971    3937    1584    6898
CTETRA       199       1      58     217     235    5282    1230    1288+ 
+           1273    5506    5589    5595
CTETRA       200       1    4514     321    1978    4422    4621    1979+ 
+           4620    5935    4430    4431
CTETRA       201       1    1890     899     896     818    4625     897+ 
+           4566    5617    2955    2951
CTETRA       202       1    4794    4795    4788    3825    5148    5147+ 
+           5144    1417    1435    1412
CTETRA       203       1    5290     271    2251    2249    5599    5618+ 
+           5620    5621    5619    2375
CTETRA       204       1    3141    3153    1157    3154    3245    5735+ 
+           6346    3241    3247    6347
CTETRA       205       1    4790    4764    3809    4791    5083    5622+ 
+           5624    5092    5090    5623
CTETRA       206       1    4788    3824    3830    3825    1964    4039+ 
+           1410    1412    4130    4143
CTETRA       207       1    5290     236    1365    2247    5471    3374+ 
+           5598    5627    5625    5626
CTETRA       208       1    1204     943     153     947    6602    3015+ 
+           3170    3169    3014     949
CTETRA       209       1    1488    1485    3885    4756    1487    4004+ 
+           4003    5630    5628    5629
CTETRA       210       1    4788    1585    3824    1999    1966    4038+ 
+           1964    4836    2072    2391
CTETRA       211       1    5290    2247    2252     236    5627    2320+ 
+           5459    5471    5625    5612
CTETRA       212       1    1182     943     186    1204     625    3267+ 
+           5996    2110    6602    6603
CTETRA       213       1    4761    5324    4760    5296    5633    5631+ 
+           5060    5585    5632    5590
CTETRA       214       1    2095     257     256      53     137    1326+ 
+            141    6696    3345    1325
CTETRA       215       1    5299     635     638      79    5636    2833+ 
+           5634    5635     636     637
CTETRA       216       1    1046    1186    3142    1157    3125    5855+ 
+           5856    3136    3137    2157
CTETRA       217       1    2916    5311     803    2914    5641    5637+ 
+           5640    2934    5638    5639
CTETRA       218       1    2771     571    2097      20    2784    1848+ 
+           6894    2783    2781    6625
CTETRA       219       1    5299    4792     867    2917    5646    5642+ 
+           5644    5645    5643    2920
CTETRA       220       1    1115    5298    5296    3154    6189    5572+ 
+            846    3217    6349    6100
CTETRA       221       1     252    2095    5291     266    5435    5436+ 
+           5430    3399    5647    5431
CTETRA       222       1    2242    1392    2260    2243     806    2395+ 
+           2350    2366    5371    2368
CTETRA       223       1    5299     809    4792    2917    5650    5648+ 
+           5646    5645    5649    5643
CTETRA       224       1    5293    1202    1182    1184    5530    3293+ 
+           6578    5549    3292    1183
CTETRA       225       1    1655    1554    1551    1605    3571    1553+ 
+           3572    5651    3531    2119
CTETRA       226       1     280     275    5292     222    1385    5422+ 
+           5787    1387    3382    5603
CTETRA       227       1     969    1034     972    1036    3271    5652+ 
+           3020    3274    1035    5653
CTETRA       228       1    3159    3157    3158    1164    3200    3261+ 
+           3207    6486    6304    6525
CTETRA       229       1    5311    4792     809    2914    5657    5648+ 
+           5656    5638    5654    5655
CTETRA       230       1    5292    3438     515    3437    5788    3443+ 
+           5480    5786    3464    3465
CTETRA       231       1     972    1200    1034    5300    3175    5658+ 
+           5652    5661    5659    5660
CTETRA       232       1    3803    3807    4781    4796    4103    6948+ 
+           6543    1153    1150    5112
CTETRA       233       1     307    1619    1671    1568    5664    5662+ 
+           3730    5663    3540    3584
CTETRA       234       1     515    3438    5292      39    3443    5788+ 
+           5480     514    3442    5484
CTETRA       235       1    5301    5302    5303    5304    5669    5665+ 
+           5667    5668    5666    5520
CTETRA       236       1    4332     652     785     787    4333    1663+ 
+           1666    6920    6921     786
CTETRA       237       1    5305     102    4319    2870    5674    5670+ 
+           5672    5673    2872    5671
CTETRA       238       1    1397    1771    2243     270    3682    6974+ 
+           6976    1398    1770    5373
CTETRA       239       1    2245    5303    3658    5301    5679    5675+ 
+           5677    5678    5667    5676
CTETRA       240       1    1527    3811    3805    4767    4034    4037+ 
+           3970     304    1477    1475
CTETRA       241       1    1668    1566    1665     306    3582    3579+ 
+           1667    3727    5680    3728
CTETRA       242       1    5287    1788    2013     295    5375    6019+ 
+           6044    5949    1790    6021
CTETRA       243       1    2027    2024    1779    1601    2026    5681+ 
+           5684    5685    5682    5683
CTETRA       244       1     652     785      77      81    1663    2278+ 
+           2835     651    6324     644
CTETRA       245       1     870    2165    2914     867    5688    5686+ 
+           2930     869    5687    2931
CTETRA       246       1    4729    3872    3858    3869     170    4232+ 
+           6869    6868    4061    4152
CTETRA       247       1    5301    2256    2244    2245    5690    2381+ 
+           5689    5678    2382    2378
CTETRA       248       1     652     791     648    1917    2406    2356+ 
+           2836    2283    2358    4310
CTETRA       249       1    1527    4777    1524    3811    5693    5691+ 
+           1526    4034    5692    4035
CTETRA       250       1     264      48      50    1341    1337     559+ 
+           6029    1340    3354    3353
CTETRA       251       1    5301    1771    3658    2244    5696    3665+ 
+           5676    5689    5694    5695
CTETRA       252       1    5324    4761    4770    4767    5633    5061+ 
+           6184    6266    5067    5070
CTETRA       253       1    4771    5202    2046    5203    5698    5271+ 
+           4879    5697    5253    5275
CTETRA       254       1    4725    3869    3831    1619    6529    3920+ 
+           6530    6653    4059    4063
CTETRA       255       1    5305    4320    1942    1945    5701    4403+ 
+           5699    5700    4370    1944
CTETRA       256       1    3141    3142    1157    3153    3244    2157+ 
+           6346    3245    3192    5735
CTETRA       257       1    4529    4525    1976    4416    4671    4658+ 
+           4659    5703    5702    4460
CTETRA       258       1    4730    3833    4735     100    1565    6992+ 
+           5013    6917    3918    6915
CTETRA       259       1     234     217     214    5282    5594    1229+ 
+           1286    5332    5589    5426
CTETRA       260       1     794    1917     908     791    2411    4631+ 
+           2962     793    2358    2961
CTETRA       261       1    1495    4755    3839    4754    5706    5704+ 
+           4012    5535    4921    5705
CTETRA       262       1     430    2507      29    2080    6755    2509+ 
+           2431    6090    2516    2510
CTETRA       263       1    5305    4529     107    4531    5711    5707+ 
+           5709    5710    4539    5708
CTETRA       264       1    1919     101     791     648    2100     789+ 
+           2354    4317    2257    2356
CTETRA       265       1    1495    2040    1720    5196    5714    5241+ 
+           5712    5713    5240    5235
CTETRA       266       1    2507     430      17     391    6755     429+ 
+           5487    5486    2286     392
CTETRA       267       1    5305     105    2870    4320    5717    2874+ 
+           5673    5701    5715    5716
CTETRA       268       1     843    4322    2981    2980    1700    2092+ 
+           2986    3006    1702    3007
CTETRA       269       1    4420    4516    1875    1963    5719    4646+ 
+           5718    4450    4647    4648
CTETRA       270       1    2080    2077    5291    2252    2079    5445+ 
+           6589    1670    5457    5456
CTETRA       271       1    1740    1743    5200    1520    1741    5205+ 
+           5260    5722    5720    5721
CTETRA       272       1     683     843     718     115    2298    1393+ 
+           2852    1861     844    6166
CTETRA       273       1    4419    4420    1963    4516    4448    4450+ 
+           4452    5723    5719    4647
CTETRA       274       1    2252    2507     236    2247    5613    5614+ 
+           5612    2320    6607    5625
CTETRA       275       1    1901    2159    2156    1888    5560    2158+ 
+           5725    5726    5615    5724
CTETRA       276       1     791     101    1919     910     789    2100+ 
+           2354    2957    2958    4551
CTETRA       277       1    4420    4421      85    1958    4449    5727+ 
+           5728    4446    4425    4340
CTETRA       278       1    5314    2010    4674    4675    5910    4696+ 
+           5924    5923    4694    4697
CTETRA       279       1    5306    1812    1997    1793    5733    5729+ 
+           5731    5732    3760    5730
CTETRA       280       1     791    1919    1917     910    2354    1918+ 
+           2358    2957    4551    4630
CTETRA       281       1    1046    1160    1157    3153    3134    1159+ 
+           3136    5736    5734    5735
CTETRA       282       1    2427    2080     433     430    6089     473+ 
+           2449    2448    6090     432
CTETRA       283       1    5306    5307    1793    1997    5738    5737+ 
+           5732    5731    5580    5730
CTETRA       284       1     655     646     101     104    2840    2248+ 
+           2379    1672    5774     748
CTETRA       285       1    1485    4758    4757    3889    5742    4996+ 
+           5741    4002    5739    5740
CTETRA       286       1     294     324    1818     301    5517    5494+ 
+           3756    1844    5497    1819
CTETRA       287       1    5308    2456     423    2457    5745    2483+ 
+           5743    5744    2477    2487
CTETRA       288       1     680     683     718     115     681    2852+ 
+           2853    6105    1861    6166
CTETRA       289       1    4515    4422     657    4421    5750    5746+ 
+           5748    5749    4427    5747
CTETRA       290       1    5320    5287    4674    5315    5527    6043+ 
+           5807    5524    5528    5922
CTETRA       291       1    5308     277    2279    2280    5755    5751+ 
+           5753    5754    5752    2359
CTETRA       292       1     716     843     718     683    2288    1393+ 
+            717    2855    2298    2852
CTETRA       293       1    5197    1493    1449    5196    5759    3503+ 
+           5758    5237    5756    5757
CTETRA       294       1      63     517    2077    2651    5451    2519+ 
+           5443    2669    6922    6760
CTETRA       295       1    5308    2457    2612     576    5744    5760+ 
+           5762    5763    5761    2617
CTETRA       296       1     115    4327     859    2981     792    6265+ 
+            858    2987    6264    2988
CTETRA       297       1    4515     313    4421      83    4615    5764+ 
+           5749    5766    1881    5765
CTETRA       298       1    5306     299    1812    1793    2049    1814+ 
+           5733    5732    3758    3760
CTETRA       299       1    5308    2612    2609     576    5762    2630+ 
+           5767    5763    2617    2627
CTETRA       300       1    2979     887     890    4322    6240     888+ 
+           6337    2426    4397    4398
CTETRA       301       1     963    1042     181    1039    5768    3038+ 
+           3269    3270    3039    1040
CTETRA       302       1    2777    2774    2258     408    2818    5842+ 
+           5841    2817    2816    2340
CTETRA       303       1    5308    2279     423    2280    5753    2355+ 
+           5743    5754    2359    2352
CTETRA       304       1    4330     783      81     890    2232    6323+ 
+           4335    4336    6338     892
CTETRA       305       1     646     104    4319    4523    5774    5769+ 
+           5772    5773    5770    5771
CTETRA       306       1    2253     408    2776    2777    2337    2812+ 
+           6220    6442    2817    2819
CTETRA       307       1    5309    5308    2277    2071    5779    5775+ 
+           5777    5778    5776    5434
CTETRA       308       1    1867     923     828     116    4578    2970+ 
+           6677     615    2969     827
CTETRA       309       1    4520    1879    1970    4418    4650    4655+ 
+           4654    5781    5780    4454
CTETRA       310       1    5285     347    5318    5320    6203    6201+ 
+           6202    6047    6448    6212
CTETRA       311       1    2095    2564     551    3437    2574    2578+ 
+           2566    5437    5782    3447
CTETRA       312       1    4779    1514    4780    1884    6379     978+ 
+           5107    6559    4026    6557
CTETRA       313       1    2134    4532     312    4530    5785    4546+ 
+           5783    5784    4544    4545
CTETRA       314       1     621    1768    2770     293    3656    1320+ 
+           2801    3653    1769    5355
CTETRA       315       1    5292    3438    3437     280    5788    3464+ 
+           5786    5787    3457    3463
CTETRA       316       1    4776    3797    1514    1517     988    4028+ 
+            981    1003    4027    1515
CTETRA       317       1    1613    1611    1662    1823    1612    5789+ 
+           5791    5792    5790    3741
CTETRA       318       1      73    2770     616    5314    2800    2799+ 
+            618    6697    5350    5944
CTETRA       319       1    3438    5292     222     280    5788    5603+ 
+           3441    3457    5787    1387
CTETRA       320       1    1740    1737    1517    5201    1738    6492+ 
+           6493    5257    5258     997
CTETRA       321       1    4794    4793    3828    4787    5146    5793+ 
+           5795    5145    4944    5794
CTETRA       322       1    2253    2770     405    2271    6437    2808+ 
+           2336    2338    6423    2333
CTETRA       323       1    5291    2251     433    2252    5797    2362+ 
+           5796    5456    2364    2360
CTETRA       324       1     859    4326     117     855     650      56+ 
+           2907    2908      52     856
CTETRA       325       1    3897    4821    3893    4719    5801    5798+ 
+           4281    5800    4968    5799
CTETRA       326       1    1306     250    5317      67    3337    6215+ 
+           5337    3338    3336    5968
CTETRA       327       1    1588    1590     299    1641    1589    5802+ 
+           5804    5805    5803    3711
CTETRA       328       1    2979    4327    4322    2981    6263    4399+ 
+           2426    3009    6264    2092
CTETRA       329       1    5320    2013    4673    4674    5808    4699+ 
+           5806    5807    4695    4700
CTETRA       330       1     264      50    2550    5317    6029    5399+ 
+           5329    5328    6193    5330
CTETRA       331       1    5291    2095    2564    2097    5436    2574+ 
+           5809    5810    2096    2571
CTETRA       332       1     686     828     716     683    6766    6824+ 
+           2854     685    6767    2855
CTETRA       333       1    1711    5191    1491    1713    5230    5811+ 
+           5813    1712    5229    5812
CTETRA       334       1    5310     603    1760    1762    6476    3652+ 
+           6477    6615    3649    1761
CTETRA       335       1    5291    2425    2097    2726    5818    5814+ 
+           5810    5817    5815    5816
CTETRA       336       1    1495    3839    4755    1493    4012    5704+ 
+           5706    1494    4013    5874
CTETRA       337       1    2134    2136    4532    4416    2135    5819+ 
+           5785    4461    4432    5820
CTETRA       338       1    5310    3680    1793    1774    5838    3689+ 
+           6321    5822    3690    3684
CTETRA       339       1    5301    5310    5304    1774    5825    5821+ 
+           5668    5824    5822    5823
CTETRA       340       1     115     828     683     843    2896    6767+ 
+           1861     844    2897    2298
CTETRA       341       1    4529    4416    1976    4530    5703    4460+ 
+           4659    4661    5826    4660
CTETRA       342       1    5303    1779    3658    1774    6017    3667+ 
+           5675    6015    3662    3668
CTETRA       343       1    5301    5304    5310    2255    5668    5821+ 
+           5825    5829    5827    5828
CTETRA       344       1     709     712     690     832     711    2856+ 
+           2859     662    6827    6826
CTETRA       345       1    4532     698    4531    4416    5833    5830+ 
+           4547    5820    5831    5832
CTETRA       346       1    2265     384    2186     381    2304    2236+ 
+           6600    2305     383    2237
CTETRA       347       1    5310    3680    2259    2260    5838    5834+ 
+           5836    5837    5835    2377
CTETRA       348       1     202    1186    5300     183    1188       4+ 
+           6087     629     915    6939
CTETRA       349       1    4722    4758    4721    3889    4985    4986+ 
+           4987    5840    5739    5839
CTETRA       350       1    5308    2686      55    3403    6246    2706+ 
+           6281    6279    5413    5393
CTETRA       351       1    5310    2777    2774    2258    5845    2818+ 
+           5843    5844    5841    5842
CTETRA       352       1    4753    2037    1493    5197    4869    2442+ 
+           5875    2275    5267    5759
CTETRA       353       1    5284    5320    2016    2018    5850    5846+ 
+           5848    5849    5847    2017
CTETRA       354       1    2245     386    2246     353    2307    2313+ 
+           2314    6871    2209    6872
CTETRA       355       1    2914    5311     803     807    5638    5637+ 
+           5639    5852    5851     805
CTETRA       356       1    1118    1120    5324    3143    1119    6209+ 
+           6210    3223    3224    6289
CTETRA       357       1     698      86    4532     312     699    5853+ 
+           5833    3774    1873    4546
CTETRA       358       1    2245     386     353    2183    2307    2209+ 
+           6871    6742    2231    2229
CTETRA       359       1    3142    1046    1200    1186    5856    5854+ 
+           3190    5855    3125    3291
CTETRA       360       1    4779    1514    2048    4776    6379    6378+ 
+           4883    4887     981    4886
CTETRA       361       1    4745    4746    3877    4752    5046    5857+ 
+           5859    5047    5048    5858
CTETRA       362       1    2279     272    2272    2276    5976    5977+ 
+           2422    2423    6633    2420
CTETRA       363       1    5311    4798    4792    2165    5861    4934+ 
+           5657    5860    4932    4930
CTETRA       364       1     974    1044    1160    3157    6581    3135+ 
+           6582    3196    2031    2033
CTETRA       365       1    4752    4746    3877    3839    5048    5857+ 
+           5858    5863    5862    4183
CTETRA       366       1    2276     272    1406     277    6633    1407+ 
+           5404    6632    1380    3396
CTETRA       367       1    5311     870    2163    2165    5866    5864+ 
+           5865    5860    5688    2164
CTETRA       368       1    1034     972    1036    1044    5652    5653+ 
+           1035    3043    6584    3042
CTETRA       369       1    5309    2277    2273     237    5777    2295+ 
+           5869    5870    5867    5868
CTETRA       370       1    5309     277    1368     272    5986    3378+ 
+           6627    5978    1380    1370
CTETRA       371       1    5311    2159    2163    5312    5873    2161+ 
+           5865    5872    5562    5871
CTETRA       372       1    5196    5197    1716    1449    5237    5232+ 
+           5236    5757    5758    3620
CTETRA       373       1    4752    4755    1493    4753    5056    5874+ 
+           5876    5055    4874    5875
CTETRA       374       1    2276     274    2272    2270    5405    6891+ 
+           2420    2418    2176    2414
CTETRA       375       1    5311     815    1893    1890    5881    5877+ 
+           5879    5880    5878    1891
CTETRA       376       1     887    2979    4327    4322    6240    6263+ 
+           4394    4397    2426    4399
CTETRA       377       1    4752    4753    1493    3876    5055    5875+ 
+           5876    5883    5882    4010
CTETRA       378       1    2272    1374     274    1368    6937    1375+ 
+           6891    6626    3371    3372
CTETRA       379       1    4802    2159    2163    5311    4936    2161+ 
+           4935    5884    5873    5865
CTETRA       380       1    2981    4322    2979    2980    2092    2426+ 
+           3009    3007    1702    2998
CTETRA       381       1     218      57      55     508    1232     578+ 
+           3380    3421    5885    5886
CTETRA       382       1    2276     272     274    1406    6633    1371+ 
+           5405    5404    1407    3390
CTETRA       383       1    5311     809     815     807    5656    2890+ 
+           5881    5851     808    2891
CTETRA       384       1    4468    4519    1983    1985      49    4642+ 
+           4499    4500    4583    1984
CTETRA       385       1     105     107     108    4531     749     750+ 
+            751    5888    5708    5887
CTETRA       386       1    2264    2185     381    2187    1369    2234+ 
+           2300    1899    2240    2238
CTETRA       387       1    5313    1628    1630    1577    5890    1629+ 
+           5539    5889    3547    3550
CTETRA       388       1    4755    4753    2037    1493    4874    4869+ 
+           4873    5874    5875    2442
CTETRA       389       1    4328     104    4331     787    5894    5891+ 
+           4406    5893     788    5892
CTETRA       390       1     486    2692    2456    2090    6856    6199+ 
+           2485    2091    6258    5982
CTETRA       391       1    5313    1628    2010    2007    5890    5895+ 
+           5897    5898    5896    2008
CTETRA       392       1    4752    1493    4755    3839    5876    5874+ 
+           5056    5863    4013    5704
CTETRA       393       1    5305    4319    4422    1942    5672    5899+ 
+           5900    5699    4365    4423
CTETRA       394       1    1755    1753    2185     342    1754    6952+ 
+           5339    3647    3644    2219
CTETRA       395       1    2003    5313    5314    2007    5904    5901+ 
+           5903    2005    5898    5902
CTETRA       396       1     712     841     716     832     665    2290+ 
+            714    6827    2900    6823
CTETRA       397       1    3880    3853    4813    3879    4206    5364+ 
+           5906    4208    4200    5905
CTETRA       398       1    1628    1625    1575    1836    1627    3545+ 
+           3548    6458    6705    6457
CTETRA       399       1    2010    5314    1796    5313    5910    5907+ 
+           5909    5897    5901    5908
CTETRA       400       1     709     690     692     832    2859     691+ 
+           2858     662    6826     697
CTETRA       401       1     313    4421    4517    1961    5764    5911+ 
+           4614    4617    4428    4618
CTETRA       402       1    1628    1836    2010    1625    6458    1559+ 
+           5895    1627    6705    6715
CTETRA       403       1    5313    1628    1577     297    5890    3547+ 
+           5889    5540    5912    5913
CTETRA       404       1    4330    2980     841     785    1725    3001+ 
+           1717    2068    2996    3000
CTETRA       405       1     705     105     838     108    5916     837+ 
+           5914    5915     751    2894
CTETRA       406       1    1796    2010    1836     295    5909    1559+ 
+           3772    1798    5928    3771
CTETRA       407       1    2071     508    2610      58    2506    5917+ 
+           5918    5508    5507    2624
CTETRA       408       1    5299    4792    4765    4766    5646    5096+ 
+            954     958    4931    5093
CTETRA       409       1     705    4328     709     838    4371    4372+ 
+            707    5914    5919    5920
CTETRA       410       1    1722    1724    1501    1442    1723     675+ 
+           6500    3614    3611    3495
CTETRA       411       1    5314    5315    4675    4674    5925    5921+ 
+           5923    5924    5922    4697
CTETRA       412       1     652     785     787     791    1663     786+ 
+           6921    2406    2883    2877
CTETRA       413       1     501     330       3       5    5482     331+ 
+           2459    2458    2189     326
CTETRA       414       1    4793    3823    4801    3822     167      12+ 
+           4943     411    4139     964
CTETRA       415       1    5313    2010    5314    2007    5897    5910+ 
+           5901    5898    2008    5902
CTETRA       416       1    3812    4763    3815    3810    1131     476+ 
+           4125    4116     420    4122
CTETRA       417       1    4523    4522    4422    4515    4561    5926+ 
+           5927    4554    4665    5750
CTETRA       418       1    4793    3823    2154    2156     167     162+ 
+           4942    4941       8    2155
CTETRA       419       1     295    5314    1796    2010    5929    5907+ 
+           1798    5928    5910    5909
CTETRA       420       1    1865     923     832     828    4635    2971+ 
+            619    6678    2970     830
CTETRA       421       1    4319     320    4422    1942    4359    4424+ 
+           5899    4365    1941    4423
CTETRA       422       1    4783    4784    1104    4820    5123    2463+ 
+           2468    5126    5127    2466
CTETRA       423       1    5314    5316    5289    2776    5934    5930+ 
+           5352    5933    5931    5932
CTETRA       424       1    4790    3803    4781    4796     425    6543+ 
+           5085    5115    1153    5112
CTETRA       425       1    4522    4422    4514    4527    5926    5935+ 
+           4666    4667    5936    4663
CTETRA       426       1    1104    4783    1091    4784    2468    6512+ 
+           3086    2463    5123      21
CTETRA       427       1    5314    5316    5287    5289    5934    5937+ 
+           5938    5352    5930    5396
CTETRA       428       1    4775    3813    4778    4777     513     510+ 
+           5109    5084    1994    5103
CTETRA       429       1     773    4528     914    4526    5940    4557+ 
+           2966    5939    4632    4535
CTETRA       430       1    4783    4820    1104    4816    5126    2466+ 
+           2468    5120    5129    2475
CTETRA       431       1    5314    5315     616    2003    5925    5941+ 
+           5944    5903    5942    5943
CTETRA       432       1     283    2181     287    5200    6567    5204+ 
+           3596    6572    5207    5206
CTETRA       433       1     709     838     834     695    5920    2895+ 
+           5947    2860    5945    5946
CTETRA       434       1      51     255     256      69    1319    6357+ 
+           6464     596    1318    6354
CTETRA       435       1    5314    5287    2010     295    5938    5948+ 
+           5910    5929    5949    5928
CTETRA       436       1    1488    4756    4759    4753    5630    5058+ 
+            715     713    4871    5057
CTETRA       437       1    4328     787     838     104    5893    2984+ 
+           5919    5894     788    2983
CTETRA       438       1    1091    4783    4804    4784    6512    5125+ 
+           6513      21    5123    5124
CTETRA       439       1    5314    2770     616    2776    5350    2799+ 
+           5944    5933    2814    2828
CTETRA       440       1     781     890    2979     887    6339    6337+ 
+           2994     906     888    6240
CTETRA       441       1    2071    2607    2609    2608    5341    2644+ 
+           5950    5951    2645    2631
CTETRA       442       1    5322     994     163     165    1797     993+ 
+           6672    1594    3031    1002
CTETRA       443       1    3142     972    1200    1034    3191    3175+ 
+           3190    5952    5652    5658
CTETRA       444       1    5194    4756    1488    2034    2481    5630+ 
+           6219    5262    4866    6218
CTETRA       445       1     217     508     506    5282    5953     507+ 
+           5588    5589    5505    5429
CTETRA       446       1    3808    4782    3799    4783    1772    1775+ 
+           4087    2484    5118    1439
CTETRA       447       1    5314    5287     295    5289    5938    5949+ 
+           5929    5352    5396    5954
CTETRA       448       1    2979    2980     890     783    2998    2230+ 
+           6337    2993    2997    6338
CTETRA       449       1    2492    2614      40    5282    5417    2621+ 
+           5467    5333    5955    5956
CTETRA       450       1    4784    4785    1140    4819    5132    6499+ 
+           6498    5133    5134    1088
CTETRA       451       1    2279    5309    5308    2277    5957    5779+ 
+           5753    2357    5777    5775
CTETRA       452       1     652     791     787     648    2406    2877+ 
+           6921    2836    2356    2372
CTETRA       453       1     841     785     838    4329    3000    2999+ 
+            839    5960    5958    5959
CTETRA       454       1    4784    1100    1164    1097     872    6526+ 
+            874    6496    1099    1809
CTETRA       455       1    4728    3859    4724    3871    5963    5961+ 
+           4949    5962    4237    5382
CTETRA       456       1    2979    2980    4322     890    2998    1702+ 
+           2426    6337    2230    4398
CTETRA       457       1    5321    1204     204     202    5966    1205+ 
+           5964    5965    3290    3289
CTETRA       458       1    1104    4784    1142    4820    2463     877+ 
+           2178    2466    5127    2109
CTETRA       459       1    5317      67    3403     248    5968    5394+ 
+           5967    5338    1309    3425
CTETRA       460       1     884    4327     887     859    4395    4394+ 
+            886    1122    6265    6238
CTETRA       461       1    2492    2522     330       6    5970    2531+ 
+           5455    5969    2530     328
CTETRA       462       1    4819    4820    1142    4784    5136    2109+ 
+           2254    5133    5127     877
CTETRA       463       1     426    2457    2277     423    2486    5971+ 
+           2285     424    2487    2353
CTETRA       464       1    1488    3885    4759    4756    4003    2111+ 
+            715    5630    5629    5058
CTETRA       465       1     108    1856     122    1858    5973    4542+ 
+            766    5972    1857    4541
CTETRA       466       1    4784    4795    1093    4785    5131    1822+ 
+             26    5132    5130    1801
CTETRA       467       1    2277    2071     237    5309    5434    5974+ 
+           5867    5777    5778    5870
CTETRA       468       1     852    4466     864    2915    6510    1882+ 
+           2910    6586     769    6285
CTETRA       469       1     698    1856    4531     108    3777    4543+ 
+           5830    5975    5973    5887
CTETRA       470       1    4523     646    4515     657    5773    1547+ 
+           4554    2039    2838    5748
CTETRA       471       1    5309    2279     272    2272    5957    5976+ 
+           5978    5979    2422    5977
CTETRA       472       1    1200    3142    1186    1184    3190    5855+ 
+           3291    3294    6942    1185
CTETRA       473       1    5308    2693    2090    2456    5984    5980+ 
+           5983    5745    5981    5982
CTETRA       474       1     102    4522    4523    4528    1014    4561+ 
+           6990    6999    4559    4560
CTETRA       475       1    5309    2273    2279    2272    5869    2421+ 
+           5957    5979    2415    2422
CTETRA       476       1    5293    1155    3149    1202    5545     816+ 
+           5531    5530    5550    3187
CTETRA       477       1     705     698     701     108    2861    2849+ 
+            703    5915    5975    5985
CTETRA       478       1    4523    4515    4422     657    4554    5750+ 
+           5927    2039    5748    5746
CTETRA       479       1    5308    5309    2279     277    5779    5957+ 
+           5753    5755    5986    5751
CTETRA       480       1    2030    5194    1485    5195    5263     775+ 
+           2491    5213    5227     725
CTETRA       481       1     108     918    1858     122    2967    4540+ 
+           5972     766     917    4541
CTETRA       482       1    5305    4320    1945     701    5701    4370+ 
+           5700      45    4369    4347
CTETRA       483       1    3404    5309     281     224    5989    5987+ 
+           3424    3408    5988    1389
CTETRA       484       1     506     217     214    1234    5588    1229+ 
+           5428    3432    3306    3307
CTETRA       485       1    2013    5284    5320    2016    5990    5850+ 
+           5808    2014    5848    5846
CTETRA       486       1    4515      83    1921     313    5766    4313+ 
+           4556    4615    1881    1922
CTETRA       487       1    5309     272    2279     277    5978    5976+ 
+           5957    5986    1380    5751
CTETRA       488       1    1711    1713    1491    1452    1712    5812+ 
+           5813    3622    3618    3505
CTETRA       489       1    5294    3148    3146    3150    5521    3253+ 
+           5991    5537    3254    3255
CTETRA       490       1    4515    4514    4422     321    4622    5935+ 
+           5750    4619    4621    4430
CTETRA       491       1    2265    2256    5302    2245    2385    5992+ 
+           5994    2310    2382    5993
CTETRA       492       1    4325    4469     721     117    6181    6180+ 
+           4387    6140    6125    6107
CTETRA       493       1     186    1182     187     188    5996    2102+ 
+           1058    1059    5995    3048
CTETRA       494       1    1699    1703    1481    1463    1701    1586+ 
+           6223    3630    3627    2117
CTETRA       495       1     194     192    4770    5295    3050    5997+ 
+           5999    6000    5512    5998
CTETRA       496       1    5298    1157    3141    3142    6348    6346+ 
+           6214    2497    2157    3244
CTETRA       497       1    2280    2550    2274     396    6003    6001+ 
+           2325    2324    6002    2322
CTETRA       498       1    2030    1485    5194    4756    2491     775+ 
+           5263    4867    5628    2481
CTETRA       499       1    5318    2183    5303     288    6009    6004+ 
+           6007    6008    6005    6006
CTETRA       500       1    4523    1921     101     124    4555    2101+ 
+           1019    4550    4553     767
CTETRA       501       1    2492      40    2522       6    5467    2529+ 
+           5970    5969     527    2530
CTETRA       502       1    2030    2034    4756    5194    2032    4866+ 
+           4867    5263    5262    2481
CTETRA       503       1    5301    2245    5303    5302    5678    5679+ 
+           5667    5669    5993    5665
CTETRA       504       1    4785    4789     168    5322    5137    2113+ 
+           1783    6115    6988    1592
CTETRA       505       1    1699     194    1466     195    6011    3475+ 
+           3629    6010    1071    3474
CTETRA       506       1    5301    3680    5310    1774    6714    5838+ 
+           5825    5824    3690    5822
CTETRA       507       1    5303    5304    5302    5319    5520    5666+ 
+           5665    6014    6012    6013
CTETRA       508       1     859     861     882     855     860    6233+ 
+           1114    2908    2911    6592
CTETRA       509       1    5290    2251    2252    2249    5620    2364+ 
+           5459    5621    2375    2387
CTETRA       510       1    5283    1755    1788    3669    6877    3672+ 
+           5377    5370    3677    3678
CTETRA       511       1    5303    5304     294    1774    5520    5516+ 
+           5519    6015    5823    1776
CTETRA       512       1    1182     202    5321     952    1181    5965+ 
+           6022    6117    6088    6085
CTETRA       513       1    2425    5291    2251     433    5818    5797+ 
+           6016    2452    5796    2362
CTETRA       514       1    1463    1703    1481    1485    3627    1586+ 
+           2117    3510    6064    1483
CTETRA       515       1    5303    1746    3658    1779    6018    3666+ 
+           5675    6017    3661    3667
CTETRA       516       1     797     136    1913     130    2960    4573+ 
+           6364     798     823    1742
CTETRA       517       1    2013     295    1788    1832    6021    1790+ 
+           6019    6020    3744    3745
CTETRA       518       1    2001    1805    1803     613    6896    1804+ 
+           2070    6133    3768    3766
CTETRA       519       1    3142    1034    1200    1046    5952    5658+ 
+           3190    5856    3041    5854
CTETRA       520       1    2169      79    4766    3846    6407     992+ 
+           4926    6406    3910    2504
CTETRA       521       1    1182     202    1204    5321    1181    3290+ 
+           2110    6022    5965    5966
CTETRA       522       1    4773    3843    1501    1505    6411    4022+ 
+           2331    6438    4021    1503
CTETRA       523       1    5287    5289    5316    5288    5396    5930+ 
+           5937    5358    5395    6023
CTETRA       524       1    5322     163     166     168    6672    1004+ 
+           6989    1592    3032    1006
CTETRA       525       1    2612     524     499    2074    2619    5462+ 
+           6025    6026    6024    2500
CTETRA       526       1    4771    4774    1505    3832    5105    2511+ 
+           6403    6428    6754    4024
CTETRA       527       1    5315    5314    5316    5287    5925    5934+ 
+           6027    5528    5938    5937
CTETRA       528       1    4321     843     716     841    1707    2288+ 
+           4378    1715     842    2290
CTETRA       529       1     264      50     265    1341    6029    1343+ 
+           6028    1340    3353    1342
CTETRA       530       1    4771    5203    1509    5202    5697     595+ 
+           6427    5698    5253    6433
CTETRA       531       1     623    2271    1766    2268    6033    6030+ 
+           3655    6032    2334    6031
CTETRA       532       1    3844    3845    4749    3841    4191     756+ 
+           6554    4189    4178    2513
CTETRA       533       1    2071    2611    2613    2608    5419    2647+ 
+           5342    5951    2648    2646
CTETRA       534       1    4773    1501    5190    1505    2331     670+ 
+           6419    6438    1503    6764
CTETRA       535       1    5283    5287    1788    5285    5359    5375+ 
+           5377    5348    5392    6034
CTETRA       536       1    3811    4762    4763    3812    6536    5073+ 
+           1469    4121    6535    1131
CTETRA       537       1    4722    1149    4723    1481    6038    6035+ 
+           4993    6037    3935    6036
CTETRA       538       1    4771    4774    4773    1505    5105    4925+ 
+           4881    6403    2511    6438
CTETRA       539       1    5283    5285    2264    5288    5348    6039+ 
+           5369    5360    5391    5410
CTETRA       540       1     781    2982     127    2917    2990    2991+ 
+            780    6890    6225    6888
CTETRA       541       1     155    5321     154     957    6042    6040+ 
+            960     959    6041    3018
CTETRA       542       1    5323    1133    3056    3055    6818    3090+ 
+           1614    6283    3065    3066
CTETRA       543       1    5287    2013    4674    2010    6044    4695+ 
+           6043    5948    2012    4696
CTETRA       544       1    1438    1505    5190    1501    3493    6764+ 
+           6495    3496    1503     670
CTETRA       545       1    2507     531     366    2537    6046    2549+ 
+           5485    6045    2546    2545
CTETRA       546       1    1133     149     147     143    3161     939+ 
+           1134    2523    3012     936
CTETRA       547       1    5287    5320    5285    5288    5527    6047+ 
+           5392    5358    5526    5391
CTETRA       548       1     855    4467     852     882      59    1934+ 
+            854    6592    6601    6593
CTETRA       549       1    4723    5192     194    4769    6052    6048+ 
+           6051    4897    6049    6050
CTETRA       550       1    5293     192    1155     189    2526    3095+ 
+           5545     503    1064    1154
CTETRA       551       1    5287    5320    2013    1788    5527    5808+ 
+           6044    5375    6053    6019
CTETRA       552       1    4326    4519    4468     117      54      49+ 
+             19      56    6149      28
CTETRA       553       1    1890    2159    4801    4802    5616    4938+ 
+           5548    6054    4936    4940
CTETRA       554       1    2580     492      32      30    6845    2470+ 
+           2582    2583    2464     474
CTETRA       555       1    5312    4735    4731    2159    6055    4904+ 
+           5563    5562    4902    4900
CTETRA       556       1     859     887    2979    4327    6238    6240+ 
+           3010    6265    4394    6263
CTETRA       557       1    2071    2492    2611    2074    2503    5418+ 
+           5419    2073    2493    6056
CTETRA       558       1    5324    1125    3145    1123    6293    3229+ 
+           6292    6352    1124    3226
CTETRA       559       1    5312      98     100     740    6059     744+ 
+           6057    6058    2867     742
CTETRA       560       1     855    1983    4518    4467    6254    4640+ 
+           6242      59    4497    1932
CTETRA       561       1      76     262    2268     260    1334    6060+ 
+           6062    3349    1333    6061
CTETRA       562       1    3145    3148    1155    3144    3250    5544+ 
+            521    3249    3251     525
CTETRA       563       1    1596    1645    1541    1544    6063    3564+ 
+           3525    3524    3563    1543
CTETRA       564       1    5305    4528    4527    4522     541    4668+ 
+           2179    1017    4559    4667
CTETRA       565       1    1703    1463    1460    1485    3627    1461+ 
+           3628    6064    3510    3508
CTETRA       566       1    1514    1512    5199    1734    1513    6562+ 
+           6377    2266    6319    5255
CTETRA       567       1    5312    1890    5311    2159    6065    5880+ 
+           5872    5562    5616    5873
CTETRA       568       1     852     882    2915     861    6593    2937+ 
+           6586    2912    6233    6286
CTETRA       569       1      37     426    2277       5    2461    2285+ 
+           6066    2462     428    2282
CTETRA       570       1    4779    1884    1512    1514    6559    3907+ 
+           6563    6379    4026    1513
CTETRA       571       1    5312    2916     873    2163    6070    2929+ 
+           6069    5871    6067    6068
CTETRA       572       1     928    4518    1981     852    4638    4643+ 
+           2150    2977    6273    6509
CTETRA       573       1    2654    2080     467     531    6074    2518+ 
+           6073    2658    6071    6072
CTETRA       574       1    5306    1590     299    1588    1638    5802+ 
+           2049    1608    1589    5804
CTETRA       575       1    5311    5312    2916     803    5872    6070+ 
+           5641    5637    6075    5640
CTETRA       576       1    4820    4819    1142    4817    5136    2254+ 
+           2109    5186    5187    2107
CTETRA       577       1    5308    2074    2071    2609    6077    2073+ 
+           5776    5767    6076    5950
CTETRA       578       1    5323    4769     197    4767    6272    6275+ 
+           6278    6268    5100     300
CTETRA       579       1    1085    1106    1109    4816    3084    1107+ 
+           3085    6080    6078    6079
CTETRA       580       1    5297    1145    1142    1162    6103    1143+ 
+           2162    1187    3102    3103
CTETRA       581       1    2507     229     362      15    6083    3313+ 
+           6081    6082    3312     361
CTETRA       582       1    5323     197     145    3055    6278    1078+ 
+           6277    6283    3058    3059
CTETRA       583       1     202     952    5300    5321    6088    6084+ 
+           6087    5965    6085    6086
CTETRA       584       1    4321    2980     841    4330    1704    3001+ 
+           1715    4409    1725    1717
CTETRA       585       1     430    2080     470    2427    6090    2081+ 
+           2447    2448    6089    2450
CTETRA       586       1    1471     197     145    1694    3473    1078+ 
+           3469    3636    6923    2020
CTETRA       587       1    3658    2183    1748    1746    6093    6091+ 
+           3664    3666    6092    1747
CTETRA       588       1    3843    3840    2171    1501    4023    6564+ 
+           6409    4022    4018    2329
CTETRA       589       1    1716    5196    1449    1720    5236    5757+ 
+           3620    1718    5235    3617
CTETRA       590       1    1694     197     145    5193    6923    1078+ 
+           2020    5216    6928     327
CTETRA       591       1    1681     296    1683    1630    3706    3707+ 
+           1682    6095    5542    6094
CTETRA       592       1    4328    4332     838     787    4414     173+ 
+           5919    5893    6920    2984
CTETRA       593       1    1713    5191    1491    5197    5229    5811+ 
+           5812    5233    5234    6096
CTETRA       594       1    3108    5294    1133     148    6341    6816+ 
+           2535    3110    5488    2053
CTETRA       595       1    5296    4760    4809    1147    5590    5063+ 
+           5578    5573    6097    5577
CTETRA       596       1    3156    1162    3157    1160    5592    6303+ 
+           3260    2538    1161    2033
CTETRA       597       1    4752    4746    3839    4754    5048    5862+ 
+           5863    5054    5053    5705
CTETRA       598       1    5323    3055     147    1133    6283    3060+ 
+           6282    6818    3065    1134
CTETRA       599       1    5296    3154    5297    1112    6100    6098+ 
+           5574    5556    3218    6099
CTETRA       600       1     841     712    4329     709     665    4375+ 
+           5960     660     711    4374
CTETRA       601       1    1713    1452    1449    1493    3618    1450+ 
+           3619    6101    3502    3503
CTETRA       602       1    4748    3838    3857    4746     704    4177+ 
+            702    5051    2541    1235
CTETRA       603       1    5297    4809    1145    1147    5576    6102+ 
+           6103    5570    5577    1146
CTETRA       604       1    1106    1109    4816    5297    1107    6079+ 
+           6078    6502    1198    6504
CTETRA       605       1     117     721     115     680    6107    6104+ 
+            759    6106    2851    6105
CTETRA       606       1    5323    5294    1133    3108    6819    6816+ 
+           6818    6385    6341    2535
CTETRA       607       1    5322    1166     174     176    6110    3093+ 
+           6108    6109    1167    1016
CTETRA       608       1    1044    1034    1160    1046    3043    1432+ 
+           3135    1045    3041    3134
CTETRA       609       1    5317    1306     537     540    5337    3429+ 
+           5336    5327    3435     538
CTETRA       610       1    1080     197    5323    3056    1079    6278+ 
+           6416    3063    3064    1614
CTETRA       611       1    5322    1166    1097    4785    6110    6111+ 
+           6114    6115    6112    6113
CTETRA       612       1    5293    1204    1202     947    6577    1203+ 
+           5530    5529    3169    2104
CTETRA       613       1    1182     952    5321     186    6117    6085+ 
+           6022    5996    3278    6116
CTETRA       614       1    1160     972    3153    1034    6583    3193+ 
+           5734    1432    5652    6940
CTETRA       615       1    5310    5307    2778    2777    6121    6118+ 
+           6120    5845    6119    2827
CTETRA       616       1    4530    1976    2134    4416    4660    4458+ 
+           5784    5826    4460    4461
CTETRA       617       1    4469     117    1985    4524    6125    6122+ 
+           4502    6124    6123    4586
CTETRA       618       1    4748    3837    4742    3864     706    2301+ 
+           5035    6570    4170    6569
CTETRA       619       1    5307    5304    1997    4679    6128    6126+ 
+           5580    5579    6127    4681
CTETRA       620       1    2034    4753    5191    2037    4870    2547+ 
+           5265    2035    4869    5264
CTETRA       621       1    2613    2611    2071    2614    2647    5419+ 
+           5342    2643    2622    5416
CTETRA       622       1    1046    3142    1034    3153    5856    5952+ 
+           3041    5736    3192    6940
CTETRA       623       1    5307    5319    4679    4676    6132    6129+ 
+           5579    6131    6130    4714
CTETRA       624       1    5297    1157    3153    3154    1206    5735+ 
+           1063    6098    6347    3247
CTETRA       625       1     330       6     372    2492     328    2192+ 
+           2190    5455    5969    5454
CTETRA       626       1    1160     972    1034    1044    6583    5652+ 
+           1432    3135    6584    3043
CTETRA       627       1    1999    2001     613    5307    2000    6133+ 
+           6136    5581    6134    6135
CTETRA       628       1    1727    1505    5202    5190    6761    6401+ 
+           5248    5244    6764    5249
CTETRA       629       1    2492     233     234       6    5335    1266+ 
+           5334    5969    3316    1265
CTETRA       630       1    4748    3837    3838    3841     706    4173+ 
+            704    2345    4175    4174
CTETRA       631       1    5307    5319    4676    5315    6132    6130+ 
+           6131    6139    6137    6138
CTETRA       632       1    1160     974    3152     972    6582    3188+ 
+           1110    6583     973    3189
CTETRA       633       1    4325     859     117     115    6142    2907+ 
+           6140    6141     858     759
CTETRA       634       1     129     314     130    1884    2558    1739+ 
+            777    2152    1883    6933
CTETRA       635       1    5307    5316    5304    5319    6145    6143+ 
+           6128    6132    6144    6012
CTETRA       636       1    4515      83    4421     657    5766    5765+ 
+           5749    5748    2837    5747
CTETRA       637       1    2071    2608    2074    2611    5951    6146+ 
+           2073    5419    2648    6056
CTETRA       638       1    5299     127     812     809    6369    2887+ 
+            930    5650     810    2888
CTETRA       639       1    5307    2003    4678    2001    6148    4690+ 
+           6147    6134    2002    4687
CTETRA       640       1    3819    4799    4796    3820     367    5159+ 
+            373    4110     109     456
CTETRA       641       1     117    4519    1985     139    6149    4583+ 
+           6122     826    4581    4584
CTETRA       642       1     127     130    1884     129     779    6933+ 
+           6367     776     777    2152
CTETRA       643       1    5307    5319    5315    5316    6132    6137+ 
+           6139    6145    6144    6027
CTETRA       644       1    2982    2913     884     861    6226    2939+ 
+           2085    3005    6234    6235
CTETRA       645       1    4720    4814    3897    4719    4975    6150+ 
+           6151    4973    4974    5800
CTETRA       646       1     797    1884    1913     632     912    4315+ 
+           6364    6363    4312    4316
CTETRA       647       1    5304    2255    5302    5316    5827    6152+ 
+           5666    6143    6153    6154
CTETRA       648       1    4771    1512    4772    1509    6566    6335+ 
+           5104    6427    1511    6334
CTETRA       649       1    2524    2492     501     499    5461    2501+ 
+           5483    5463    2502     500
CTETRA       650       1    5299     635      78     638    5636     634+ 
+           6370    5634    2833    2834
CTETRA       651       1    5304    4677     324    4679    6155    4684+ 
+           5515    6127    4685    4682
CTETRA       652       1    3846      79    4766     867    3910     992+ 
+           2504    3911     866    1012
CTETRA       653       1    2612     496     481    2457    6156    2490+ 
+           2615    5760    2488    2474
CTETRA       654       1     130     134     136     314    2892     822+ 
+            823    1739    4571    4570
CTETRA       655       1    5307    5304    4679    5319    6128    6127+ 
+           5579    6132    6012    6129
CTETRA       656       1    4328     787    4331    4332    5893    5892+ 
+           4406    4414    6920    4362
CTETRA       657       1    5308    2609    2612    2074    5767    2630+ 
+           5762    6077    6076    6026
CTETRA       658       1     129     134     130     314     821    2892+ 
+            777    2558    4571    1739
CTETRA       659       1    5306    5307    1999     609    5738    5581+ 
+           6159    6160    6157    6158
CTETRA       660       1     878    2915     864    4466    2938    6285+ 
+           6595    6599     769    1882
CTETRA       661       1    2612     496     499     481    6156     497+ 
+           6025    2615    2490    2478
CTETRA       662       1    1104    4815    1106    4816    2569    6501+ 
+           1105    2475    5176    6078
CTETRA       663       1    5306    5307    1997    1999    5738    5580+ 
+           5731    6159    5581    1998
CTETRA       664       1    4767    1080    5324    4762     302    6353+ 
+           6266    5066     795    6299
CTETRA       665       1    3893    3898    3892    4821    4292    4291+ 
+           4267    5798    6161    6162
CTETRA       666       1    2550    2274     628     263    6001    6507+ 
+           6913    6449    6573    3351
CTETRA       667       1     324    1793     294    5304    6164    1791+ 
+           5517    5515    6163    5516
CTETRA       668       1    1527    4777    3811    4767    5693    5692+ 
+           4034     304    5077    1477
CTETRA       669       1     115    4324    4323     718    6167    4385+ 
+           6165    6166    4384    4381
CTETRA       670       1    3806    4782    3808    1085    2099    1772+ 
+           3976    3971    2572    3975
CTETRA       671       1    5301    2244    2256    2259    5689    2381+ 
+           5690    6168    2374    2384
CTETRA       672       1    1740    1517    5200    5201    6493    1453+ 
+           5260    5257     997    5261
CTETRA       673       1    2612     481      33    2457    2615     479+ 
+           2616    5760    2474    2476
CTETRA       674       1    3805    1083    4762    3806    3969    6300+ 
+            868    3973    3972    1136
CTETRA       675       1    5301    5304    5303    1774    5668    5520+ 
+           5667    5824    5823    6015
CTETRA       676       1    1867     683    1870     116    3780    3778+ 
+           1868     615     612    1277
CTETRA       677       1     492      18     556    2550    2465    2780+ 
+           6171    2559    6169    6170
CTETRA       678       1    1106    4816    1085    1089    6078    6080+ 
+           3084    3083    2023    1087
CTETRA       679       1    5303    5318    4677    5319    6007    6172+ 
+           6175    6014    6173    6174
CTETRA       680       1    1491    3876    1493    4753    4009    4010+ 
+           1492     708    5882    5875
CTETRA       681       1     721     718     115     680     720    6166+ 
+           6104    2851    2853    6105
CTETRA       682       1    5296    1109    1112    5297    6887    1111+ 
+           5556    5574    1198    6099
CTETRA       683       1    5303    4677    2027     324    6175    4683+ 
+           6176    5518    4684    2028
CTETRA       684       1    1499    4754    3840    2171    5533     469+ 
+           4019     451    4917    6564
CTETRA       685       1    3853    3868    3861    4807    4198    4207+ 
+           4204    5365    6177    6178
CTETRA       686       1    3152    5297    3156    1160    1098    1101+ 
+           3259    1110    1108    2538
CTETRA       687       1    5303    5304    4677     324    5520    6155+ 
+           6175    5518    5515    4684
CTETRA       688       1     117     116     138    4524     757     824+ 
+           2893    6123    1275    4576
CTETRA       689       1     117    4524     138     139    6123    4576+ 
+           2893     826    4582     825
CTETRA       690       1    1085    4810    4782    4816    2093    5114+ 
+           2572    6080    5122    5119
CTETRA       691       1    2183    5318      11     288    6009    6179+ 
+           2205    6005    6008    1750
CTETRA       692       1    5299    4765     129    1884     954    2581+ 
+            932    6368    1556    2152
CTETRA       693       1    4325    4469    1935     721    6181    4487+ 
+           4386    4387    6180    2130
CTETRA       694       1    5296    4810    4816    4809    5584    5122+ 
+            160    5578    5071    5175
CTETRA       695       1     154     972     969    5300    3019    3020+ 
+            970    6183    5661    6182
CTETRA       696       1     138    4524     116    1870    4576    1275+ 
+            824    4577    4575    1277
CTETRA       697       1    5324    4770    4761    4760    6184    5061+ 
+           5633    5631    4997    5060
CTETRA       698       1    5311     812    4798    1893    1519    1521+ 
+           5861    5879    1525     437
CTETRA       699       1    5284    2018     349    5285    5849    6185+ 
+           6188    5345    6186    6187
CTETRA       700       1    4463      91    1931     721    1023    4351+ 
+           4483    1291     722    4350
CTETRA       701       1    5298    3140    1115    1118    6191    3221+ 
+           6189    6190    3220    1116
CTETRA       702       1     815     899    1890     818    2956    4625+ 
+           5878     817    2955    5617
CTETRA       703       1     265    5317      65      50    6194    6192+ 
+           1345    1343    6193     590
CTETRA       704       1    4326     859     884     882     650    1122+ 
+           4391    4390    1114     883
CTETRA       705       1    5295    4760    1149    4770    6197    6195+ 
+           5514    5998    4997    6196
CTETRA       706       1    5322    3160    1175    1178    1792      92+ 
+             95    1815    1581    1177
CTETRA       707       1    5284    5285    1788    5320    5345    6034+ 
+           6198    5850    6047    6053
CTETRA       708       1    4779    2046    2048    5199    4882    2047+ 
+           4883    6380    5274    5273
CTETRA       709       1    2456    2693    2692      33    5981    2698+ 
+           6199    2473    2699    2697
CTETRA       710       1    5322     998     165    3160    1799    1000+ 
+           1594    1792    3184    3185
CTETRA       711       1    5285    2186    5318     347    6204    6200+ 
+           6202    6203    2223    6201
CTETRA       712       1     994     159     161    1178     995     991+ 
+           3029    1813    2588    1176
CTETRA       713       1     957     204     155    5321    3172    3173+ 
+            959    6041    5964    6042
CTETRA       714       1     166    1074    4789     169    3051    6986+ 
+           6987    1008    1072    2061
CTETRA       715       1    2265    5285    5318    5288    6208    6202+ 
+           6206    6207    5391    6205
CTETRA       716       1    4773    2044    1505    5190    4877    6402+ 
+           6438    6419    5269    6764
CTETRA       717       1    1083    1120    5324    1118    3081    6209+ 
+           6211    3080    1119    6210
CTETRA       718       1    5322    1074     166     163    6671    3051+ 
+           6989    6672    3052    1004
CTETRA       719       1    5285    5320    5318    5288    6047    6212+ 
+           6202    5391    5526    6205
CTETRA       720       1     200    1030    1025     181    3118    3036+ 
+           1219    1344    3037    1024
CTETRA       721       1    5298    3140    3143    3141    6191    3225+ 
+           6213    6214    3239    3240
CTETRA       722       1    5311    4802    1893    4798    5884     446+ 
+           5879    5861    4937     437
CTETRA       723       1      65    5317     265     250    6192    6194+ 
+           1345    1310    6215    1357
CTETRA       724       1    1178     983    1025     159    2599    3277+ 
+           1221    2588     982    3276
CTETRA       725       1    1485    4756    4757    4758    5628    4868+ 
+           5741    5742    5059    4996
CTETRA       726       1     815    1893    1890     899    5877    1891+ 
+           5878    2956    4627    4625
CTETRA       727       1    5285    2018     349     347    6186    6185+ 
+           6187    6203    6216     348
CTETRA       728       1     983    1178    1190     161    2599    3284+ 
+           1169    3028    1176    3181
CTETRA       729       1    5194    5191    2034    1488    5231    5265+ 
+           5262    6219    6217    6218
CTETRA       730       1    1890    3820    4802    3821    4079     106+ 
+           6054    4075    4080     103
CTETRA       731       1    5289    2776    5316    2253    5932    5931+ 
+           5930    6222    6220    6221
CTETRA       732       1    1164    1042    3159    3157    3132    1158+ 
+           6486    6304    6302    3200
CTETRA       733       1    1699    1466    1463    1481    3629    1465+ 
+           3630    6223    3479    2117
CTETRA       734       1     453    2593     566      25    1287    2597+ 
+           2603    2437    2594     568
CTETRA       735       1    5314    1796    5289     295    5907    6224+ 
+           5352    5929    1798    5954
CTETRA       736       1     652    1917     785     791    2283    2281+ 
+           1663    2406    2358    2883
CTETRA       737       1     809    2917    2982    2913    5649    6225+ 
+           2992    6227    2943    6226
CTETRA       738       1     566    2564    2593     453     157    2605+ 
+           2597    2603    2568    1287
CTETRA       739       1    5314    2776    5315    5316    5933    6228+ 
+           5925    5934    5931    6027
CTETRA       740       1    1818    1598    1648    1596    6789    1789+ 
+           3719    5493    1597    2148
CTETRA       741       1     576      33    2693    2457     577    2699+ 
+           2716    5761    2476    6229
CTETRA       742       1      22    2564    2097     453    1946    2571+ 
+           1948    2433    2568    2570
CTETRA       743       1    5289    3691    2271    2270    6232    6230+ 
+           5565    5386    6231    2407
CTETRA       744       1    1514    1737    1426    1734    1696    3599+ 
+           3488    2266    1736    3604
CTETRA       745       1     884     882     861    2913     883    6233+ 
+           6235    2939    2940    6234
CTETRA       746       1    5318    2186    2183     345    6200    2224+ 
+           6009    6262    2222    2204
CTETRA       747       1    5289    5316    2261    2253    5930    6236+ 
+           5401    6222    6221    2390
CTETRA       748       1     181     200     983    1025    1344    1338+ 
+           3275    1024    1219    3277
CTETRA       749       1    4519     926     139     117    4580     925+ 
+           4581    6149    2974     826
CTETRA       750       1     571    2592      53    2564    2602    2598+ 
+            573    6694    1180    6614
CTETRA       751       1    5289    1768    3691    1796    6237    3699+ 
+           6232    6224    3694    3700
CTETRA       752       1     200     181     156     963    1344    1209+ 
+           1751    1352    3269     962
CTETRA       753       1    2979     887     859    2982    6240    6238+ 
+           3010    2995    6239    3008
CTETRA       754       1      20    2250    2097     417    2289    5474+ 
+           6625     418    2291    6895
CTETRA       755       1    5317      50    2691      65    6193    2701+ 
+           6241    6192     590    2700
CTETRA       756       1     190    5293    5294     148    5498    5492+ 
+           5499    1168    5490    5488
CTETRA       757       1    4518     928     926     855    4638     927+ 
+           4639    6242    2978    2975
CTETRA       758       1     571    2097      20      22    1848    6625+ 
+           2781     570    1948     440
CTETRA       759       1    5318    5320    5319    5288    6212    6243+ 
+           6173    6205    5526    6244
CTETRA       760       1    1025     200     983    1178    1219    1338+ 
+           3277    1221    1179    2599
CTETRA       761       1    5308    2090    2686    2088    5983    6245+ 
+           6246    6247    2089    5412
CTETRA       762       1    2593    2564      22     453    2605    1946+ 
+           2595    1287    2568    2433
CTETRA       763       1    1906     737    2902      96    4303    6248+ 
+           6250    4304     738    6249
CTETRA       764       1    3899    4817    1142    3900    5604    2107+ 
+           3991    3992    5610    3987
CTETRA       765       1    2612    2074     499     496    6026    2500+ 
+           6025    6156    2075     497
CTETRA       766       1      71     414      70     258    2789    2790+ 
+            601    3348    6861    1329
CTETRA       767       1    5318    4680    5319    5320    6253    6251+ 
+           6173    6212    6252    6243
CTETRA       768       1    4808    4760    4721    3896    4991    4988+ 
+           4982    6733    2174    6734
CTETRA       769       1     855     926    4518    1983    2975    4639+ 
+           6242    6254    4641    4640
CTETRA       770       1    1645    1643    1812    1593    1644    3716+ 
+           3718    6763    1516    6762
CTETRA       771       1    5318    5319    4680    4677    6173    6251+ 
+           6253    6172    6174    4707
CTETRA       772       1    3899    4815    4817    4814    2131    5183+ 
+           5604    5606    5174    5182
CTETRA       773       1     855    1983    4519     926    6254    4642+ 
+           6255    2975    4641    4580
CTETRA       774       1     603    2774     412    2260    2820    2815+ 
+           2795    6473    6466    2343
CTETRA       775       1    5318    2021    2024    4680    6257    2022+ 
+           6256    6253    4702    4704
CTETRA       776       1    1485    4758    3885    4756    5742     249+ 
+           4004    5628    5059    5629
CTETRA       777       1    2690    2693    2692    2090    2721    2698+ 
+           2713    6259    5980    6258
CTETRA       778       1    1771    2259    2243    2244    6973    2373+ 
+           6974    5694    2374    2369
CTETRA       779       1    5318    2021     347     345    6257    6260+ 
+           6201    6262    6261     346
CTETRA       780       1    4745    3874    3875    3876    6550    4254+ 
+           6746    6732    4253    4011
CTETRA       781       1     859    2979    2981    4327    3010    3009+ 
+           2988    6265    6263    6264
CTETRA       782       1    1771    1360    3658    2244    3660    3663+ 
+           3665    5694    6726    5695
CTETRA       783       1    5323    5324    4770    4767    6269    6184+ 
+           6267    6268    6266    5070
CTETRA       784       1    5200    2051    4778    2054    5279    4888+ 
+           6395    5278    2052    4889
CTETRA       785       1    5317     540     264     251    5327    5326+ 
+           5328    6270    5479    1356
CTETRA       786       1    1645    1596     301    1648    6063    5496+ 
+           3717    1646    2148    2125
CTETRA       787       1    4769     194    4770    5323    6050    5999+ 
+           4998    6272    6271    6267
CTETRA       788       1    4720    3887    3894    3888    6556    4282+ 
+           6730    6729    4277    4283
CTETRA       789       1     928     852     855    4518    2977     854+ 
+           2978    4638    6273    6242
CTETRA       790       1    5284    1617    2016    1619    6644    6655+ 
+           5848    6422    1618    6420
CTETRA       791       1    4723    4769     194    4770    4897    6050+ 
+           6051    4995    4998    5999
CTETRA       792       1    1458    5194    1485    1488    2235     775+ 
+           3509    3506    6219    1487
CTETRA       793       1    2550     537    5317    2088    2563    5336+ 
+           5330    2562    2561    6274
CTETRA       794       1    5284    5285     349    2188    5345    6187+ 
+           6188    5344    5346    2203
CTETRA       795       1    5323     197    4769     145    6278    6275+ 
+           6272    6277    1078    6276
CTETRA       796       1    5293    1182     189    1184    6578    3126+ 
+            503    5549    1183    3129
CTETRA       797       1    2686    2088    3403    5308    5412    5325+ 
+           5413    6246    6247    6279
CTETRA       798       1    1619    1570    1622    1671    3542    3544+ 
+           1620    5662    3583    5597
CTETRA       799       1    2550      50    2691    5317    5399    2701+ 
+           6280    5330    6193    6241
CTETRA       800       1     325    4723     199    1481    4830     743+ 
+           2195    2011    6036    1479
CTETRA       801       1     576      55    5308    2686     575    6281+ 
+           5763    2705    2706    6246
CTETRA       802       1    3852    2024    1605    4807    1621    6883+ 
+           4045    5362    4859    1626
CTETRA       803       1    3055    5323     147     145    6283    6282+ 
+           3060    3059    6277     935
CTETRA       804       1    5293     947    5294     943    5529    5536+ 
+           5492    5491    3014    5489
CTETRA       805       1     861    2913    2915     864    6234    2941+ 
+           6286     863    6284    6285
CTETRA       806       1    1566     307    1668    1568     654    3726+ 
+           3582    1567    5663    3581
CTETRA       807       1      48     264      50    2550    1337    6029+ 
+            559    6287    5329    5399
CTETRA       808       1    4745    3877    3873    3874    5859    4229+ 
+           6549    6550    4248    4249
CTETRA       809       1    2492     330     501      37    5455    5482+ 
+           2501    2494    6288     502
CTETRA       810       1    4733    4738    3834    3866    5018    6702+ 
+            409    1081    6703    4156
CTETRA       811       1    3145    3143    5298    5324    3228    6213+ 
+           6291    6292    6289    6290
CTETRA       812       1    1527    4767    4768    4777     304    5101+ 
+           2339    5693    5077    5102
CTETRA       813       1    5318    2186     345     347    6200    2222+ 
+           6262    6201    2223     346
CTETRA       814       1    3849    4734    4738    3834      35    5019+ 
+           6708    4149     401    6702
CTETRA       815       1    5324    3146    1125    1128    6295    3230+ 
+           6293    6294    3231    1126
CTETRA       816       1    5297    4815    1142    1145    6503    2106+ 
+           2162    6103    2128    1143
CTETRA       817       1    4744    3887    3888    3884    6298    4277+ 
+           6296    6297    4273    4275
CTETRA       818       1    4731     100    4726    4730    6916    6541+ 
+           5005    5006    6917    5003
CTETRA       819       1    1083    4762    4761    5324    6300    5065+ 
+           5582    6211    6299    5633
CTETRA       820       1    1149    4723    1481     199    6035    6036+ 
+           3935    1151     743    1479
CTETRA       821       1    2090    2693    2692    2456    5980    2698+ 
+           6258    5982    5981    6199
CTETRA       822       1    3849    4734     873    4739      35    6994+ 
+           3924    6851    5021    6998
CTETRA       823       1    5296    1083    5324    1118    5554    6211+ 
+           5632    6301    3080    6210
CTETRA       824       1    4467     852    4466    1981    1934    6510+ 
+           4496    4498    6509    4475
CTETRA       825       1     926     855     117    4519    2975     856+ 
+           2974    4580    6255    6149
CTETRA       826       1    4733    3859    3866    3858    6855    4230+ 
+           1081     407    4231    4158
CTETRA       827       1    3157    1164    1042    1162    6304    3132+ 
+           6302    6303    1163    3131
CTETRA       828       1     721    4524     680     117    1892    1255+ 
+           2851    6107    6123    6106
CTETRA       829       1    1915      77      81     632    4309     644+ 
+           6305    4308     631    2830
CTETRA       830       1    1619    1570    1671    1568    3542    3583+ 
+           5662    3540    1569    3584
CTETRA       831       1    5324    3143    5298    1118    6289    6213+ 
+           6290    6210    3223    6190
CTETRA       832       1    5293    3149    3150     947    5531    3167+ 
+           5538    5529    3168    3163
CTETRA       833       1    5286    2270    2262    1785    5388    2405+ 
+           6307    5389    5385    6306
CTETRA       834       1    5310     291    1793    1760    6850    1794+ 
+           6321    6477    1759    3683
CTETRA       835       1    5324    4760    5296    5298    5631    5590+ 
+           5632    6290    6308    5572
CTETRA       836       1      60     205    2507     226    6960    2637+ 
+           6910     128    1276     282
CTETRA       837       1     905     794    1915     908    2963    6309+ 
+           4629     907    2962    4628
CTETRA       838       1    1397    2259    3680    2260    6975    5834+ 
+           3685    6521    2377    5835
CTETRA       839       1    3145    3146    1125    5324    3232    3230+ 
+           3229    6292    6295    6293
CTETRA       840       1    1939    4466    4467     882    4472    4496+ 
+           4493    4389     126    6601
CTETRA       841       1    1628    4727    3903    2010    6312    6310+ 
+           4067    5895    4843    6311
CTETRA       842       1    5310    2774    2777    2778    5843    2818+ 
+           5845    6120    2824    2827
CTETRA       843       1     265     264     251    5317    6028    1356+ 
+           6313    6194    5328    6270
CTETRA       844       1      60     519    2507     205    6962    2520+ 
+           6910    6960    6961    2637
CTETRA       845       1    1622    1832    1675     309    6315    3734+ 
+           5596    6314    1831    3733
CTETRA       846       1    1655    1551    1652     305    3572    3570+ 
+           1654    3724    1281    3720
CTETRA       847       1    5318    2183    2265    5303    6009    6316+ 
+           6206    6007    6004    6317
CTETRA       848       1    5305    4531     107     105    5710    5708+ 
+           5709    5717    5888     749
CTETRA       849       1    1512    1732    5203    1734    6320    5252+ 
+           6318    6319    1733    5251
CTETRA       850       1    1658    1609    1660    1554    6623    5575+ 
+           1659    3575    3533    3574
CTETRA       851       1    5318    2024    4677    4680    6256    4706+ 
+           6172    6253    4704    4707
CTETRA       852       1    5305    4529    4526     107    5711    4538+ 
+            539    5709    5707     545
CTETRA       853       1    5307    2777     613     609    6119    2825+ 
+           6135    6157    2826     611
CTETRA       854       1    2690     562    2691    2550    2712    2702+ 
+           2714    6854    5397    6280
CTETRA       855       1    5310    5307    5304    1793    6121    6128+ 
+           5821    6321    5737    6163
CTETRA       856       1     117     139    1985    4524     826    4584+ 
+           6122    6123    4582    4586
CTETRA       857       1      81     785     794     783    6324    2881+ 
+           6322    6323     784    2882
CTETRA       858       1      11    5318     345    2024    6179    6262+ 
+            344    6857    6256    6858
CTETRA       859       1    5307    4678    5315    4676    6147    6325+ 
+           6139    6131    4712    6138
CTETRA       860       1    2142    4511    1989    1991    1267    4606+ 
+           2141    4506    4603    1990
CTETRA       861       1    5287    1782    1788     295    5374    3673+ 
+           5375    5949    1781    1790
CTETRA       862       1    2690    2090    2686    2693    6259    6245+ 
+           2720    2721    5980    2715
CTETRA       863       1    5319    5315    5316    5288    6137    6027+ 
+           6144    6244    5525    6023
CTETRA       864       1     918     921     832    1860     920    2973+ 
+           2972    4634    4633     598
CTETRA       865       1    4751    4719    3887    3883    4972    6326+ 
+           6328    6329    6327    4272
CTETRA       866       1    5285    5288    2265    2264    5391    6207+ 
+           6208    6039    5410    2306
CTETRA       867       1    5318    5319    5302    5288    6173    6013+ 
+           6331    6205    6244    6330
CTETRA       868       1     878     120    2916      97    6596     133+ 
+           2924     876     736    2923
CTETRA       869       1      44     540     264    2550     542    5326+ 
+           6332    2555    2554    5329
CTETRA       870       1      18      36    2550     492    2469    2552+ 
+           6169    2465     493    2559
CTETRA       871       1     250    5317     265     251    6215    6194+ 
+           1357    1312    6270    6313
CTETRA       872       1    5322    4785    4789    4786    6115    5137+ 
+           6988    1508    5138    4835
CTETRA       873       1    4772    1512      78    1509    6335    3906+ 
+           6333    6334    1511    2129
CTETRA       874       1    2263    1753    3669    1374    1924    3675+ 
+           1311     276    3670    3674
CTETRA       875       1    4674    4676    5320    5315    4709    6336+ 
+           5807    5922    6138    5524
CTETRA       876       1    4780    3797    1884    1514     985    3941+ 
+           6557     978    4028    4026
CTETRA       877       1     781    2979     890     783    2994    6337+ 
+           6339     782    2993    6338
CTETRA       878       1     281    2088    3405     254    1909    6784+ 
+           3430    1418    6963    3416
CTETRA       879       1    3148    5294    5293    3150    5521    5492+ 
+           5522    3254    5537    5538
CTETRA       880       1    4763    3813    3815    4775    1127    4127+ 
+            476    5081     513     505
CTETRA       881       1    1204    5321     204     957    5966    5964+ 
+           1205    3171    6041    3172
CTETRA       882       1    5308    5309     281    2071    5779    5987+ 
+           1911    5776    5778    6901
CTETRA       883       1    5294     190    3108    5295    5499    3113+ 
+           6341    5500    5501    6340
CTETRA       884       1    1397    3680    2259    1771    3685    5834+ 
+           6975    3682    3687    6973
CTETRA       885       1    3057    1083    1120    5324    3067    3081+ 
+           3082    6342    6211    6209
CTETRA       886       1    3404     224      38    2071    3408    2112+ 
+           3409    6902    1969    2499
CTETRA       887       1    5294    5295    3147    3146    5500    6343+ 
+           6345    5991    6344    3235
CTETRA       888       1    4532    4416    4530    2134    5820    5826+ 
+           4544    5785    4461    5784
CTETRA       889       1    5298    3141    1157    3154    6214    6346+ 
+           6348    6349    3241    6347
CTETRA       890       1    1622    1671    1832    1619    5597    3731+ 
+           6315    1620    5662    6649
CTETRA       891       1    5286    2262    2270    2261    6307    2405+ 
+           5388    5402    2402    2404
CTETRA       892       1    4792     867    2165    2167    5642    5687+ 
+           4930    4929    1408    2166
CTETRA       893       1    5296    5324    5298    1118    5632    6290+ 
+           5572    6301    6210    6190
CTETRA       894       1    5301    2256    2255    2259    5690    2396+ 
+           5829    6168    2384    2394
CTETRA       895       1    5307    5316    2776    2777    6145    5931+ 
+           6351    6119    6350    2819
CTETRA       896       1     632     781     797    1884     548    2879+ 
+           6363    4312    6934     912
CTETRA       897       1    5324    1080    1125    1123    6353    3069+ 
+           6293    6352    3070    1124
CTETRA       898       1    2021    1825    2018     347    1897    1869+ 
+           2019    6260    3751    6216
CTETRA       899       1     255     256      69     244    6357    6354+ 
+           1318    6356    1347    6355
CTETRA       900       1    5299     812    4791    4792     930    1530+ 
+           2083    5646    1523    5098
CTETRA       901       1    5298    3143    3140    1118    6213    3225+ 
+           6191    6190    3223    3220
CTETRA       902       1    5320    4680    4674    4673    6252    4708+ 
+           5807    5806    4705    4700
CTETRA       903       1    5315    2003    4675    4678    5942    4692+ 
+           5921    6325    4690    4693
CTETRA       904       1    2136    1945     701    4416    2137    4347+ 
+            242    4432    4433      43
CTETRA       905       1    5307    4678    4679    1999    6147    4689+ 
+           5579    5581    4688    4686
CTETRA       906       1    4715    3860    4728    3871    5466    5465+ 
+           4946    6418    4238    5962
CTETRA       907       1    5314    2010    5287    4674    5910    5948+ 
+           5938    5924    4696    6043
CTETRA       908       1     325    4757    4723    1481    4829    4832+ 
+           4830    2011     228    6036
CTETRA       909       1    4510     118    1904     142    6359    6358+ 
+           4595    4596     847    4587
CTETRA       910       1    1617    1563    1665    1613    3539    3580+ 
+           6777    1615    3536    6786
CTETRA       911       1    5306    5307    5310    1793    5738    6121+ 
+           6360    5732    5737    6321
CTETRA       912       1     887     859    2982     884    6238    3008+ 
+           6239     886    1122    2085
CTETRA       913       1    5298    3143    3144    3141    6213    3246+ 
+           6361    6214    3240    3243
CTETRA       914       1    5319    4676    4680    4677    6130    4711+ 
+           6251    6174    4713    4707
CTETRA       915       1    3859    4724    4729    4728    5961    4999+ 
+           6362    5963    4949    5001
CTETRA       916       1    5306    1588     298    1803    1608    1647+ 
+           6981    1606     351    1802
CTETRA       917       1     797    1915     632    1913    6365    4308+ 
+           6363    6364    1914    4316
CTETRA       918       1    2263    2264    2185     378    2303    1369+ 
+           1943    2296    2302    2221
CTETRA       919       1    5319    5320    5315    5288    6243    5524+ 
+           6137    6244    5526    5525
CTETRA       920       1    5302    2255    2256    2267    6152    2396+ 
+           5992    6372    2397    2398
CTETRA       921       1    5299      78    1884     127    6370    1885+ 
+           6368    6369    6366    6367
CTETRA       922       1    5316    2261    2253    2255    6236    2390+ 
+           6221    6153    2392    2389
CTETRA       923       1    4676    5320    5315    5319    6336    5524+ 
+           6138    6130    6243    6137
CTETRA       924       1     180    1025    1178    1030    3035    1221+ 
+           2103    1028    3036    3117
CTETRA       925       1    1429    1433    1512    1732    1431    3489+ 
+           3490    3606    3605    6320
CTETRA       926       1    5320    4673    2018    4680    5806    4701+ 
+           5847    6252    4705    4703
CTETRA       927       1    5301    1774    5303    3658    5824    6015+ 
+           5667    5676    3668    5675
CTETRA       928       1     259    1392    2260     258    3385    2395+ 
+           6522    1330    1390    6964
CTETRA       929       1     290    2188     340    1755    6371    2201+ 
+           3645    1756    5340    3646
CTETRA       930       1    2021    1825    1609    1611    1897    6831+ 
+           6488    5607    6778    1610
CTETRA       931       1    5302    5288    2267    2265    6330    5409+ 
+           6372    5994    6207    2401
CTETRA       932       1     994     161     998    1178    3029     996+ 
+           3030    1813    1176    1172
CTETRA       933       1     781      78     641     638    6375    2832+ 
+           6373    6374    2834     640
CTETRA       934       1    2021     347     345    1825    6260     346+ 
+           6261    1897    3751    3752
CTETRA       935       1    5302    2267    5316    2255    6372    6376+ 
+           6154    6152    2397    6153
CTETRA       936       1    1514    5201    5199    2048     999    5259+ 
+           6377    6378    5277    5273
CTETRA       937       1    4779    5199    2048    1514    6380    5273+ 
+           4883    6379    6377    6378
CTETRA       938       1    3827    1633    4787    2003    4071    6839+ 
+            387    2133    6842    4839
CTETRA       939       1    5295     190    3108     194    5501    3113+ 
+           6340    6000    1068    3112
CTETRA       940       1    4752    3876    1493    3839    5883    4010+ 
+           5876    5863    4014    4013
CTETRA       941       1    4775    4778    1520    4776    5109    6381+ 
+           6383    5108    4890    6382
CTETRA       942       1    2580     489    2550     562    6860    2560+ 
+           6846    2585     201    5397
CTETRA       943       1    5323     194    5295    3108    6271    6000+ 
+           6384    6385    3112    6340
CTETRA       944       1    1713    1493    1449    5197    6101    3503+ 
+           3619    5233    5759    5758
CTETRA       945       1     508      57      55    2610    5885     578+ 
+           5886    5917    2625    2628
CTETRA       946       1    1633     285    3829    4787    1634    3939+ 
+           3938    6839    2066    6838
CTETRA       947       1    1365    2249    2247    2246    6387    2386+ 
+           5626    6386    2383    2317
CTETRA       948       1    2037    1493    5197    5196    2442    5759+ 
+           5267    5266    5756    5237
CTETRA       949       1    2071    2610    2609    2607    5918    2632+ 
+           5950    5341    2639    2644
CTETRA       950       1    4788    4789    1999    3824    4838    4833+ 
+           4836    1964    2063    2391
CTETRA       951       1    4740    3856    4736    3855    6391    6388+ 
+           4969    6390    4216    6389
CTETRA       952       1    2054    4778    1524    4768    4889     567+ 
+            560    4892    4893     557
CTETRA       953       1    2268    1406     260     262    6392    3388+ 
+           6061    6060    1404    1333
CTETRA       954       1    4800    3818    3817    3826      82    4097+ 
+            945     937    4132    4131
CTETRA       955       1    1685    1633    1582    1683    6394    3516+ 
+           2120    1684    6393    3594
CTETRA       956       1    4796    3800    3819    3801     379    4101+ 
+            373    1405    4100    4102
CTETRA       957       1    5200    4776    1520    4778    6396    6382+ 
+           5721    6395    4890    6381
CTETRA       958       1    4788    3825    4795    3824    1412    1435+ 
+           5147    1964    4130    1632
CTETRA       959       1    5323    5295    5324    3054    6384    6397+ 
+           6269    6400    6398    6399
CTETRA       960       1     867    3846    2167    4766    3911    1245+ 
+           1408    1012    2504    4927
CTETRA       961       1    4771    5202    1505    2044    5698    6401+ 
+           6403    4880    5272    6402
CTETRA       962       1    2007    2154    2003    1630    4845    2153+ 
+           2005    6454    2124    6455
CTETRA       963       1    5324    5295    5298    3145    6397    6404+ 
+           6290    6292    6405    6291
CTETRA       964       1    1491    5197    5191    4753    6096    5234+ 
+           5811     708    2275    2547
CTETRA       965       1    3843    2169    3846      79    6408    6406+ 
+           3912    3913    6407    3910
CTETRA       966       1    5287    2013    2010     295    6044    2012+ 
+           5948    5949    6021    5928
CTETRA       967       1     524    2614    2492    2611    2620    5417+ 
+           5460    2623    2622    5418
CTETRA       968       1    2159    1890    5311    4802    5616    5880+ 
+           5873    4936    6054    5884
CTETRA       969       1    4773    2171    3843    4774    4922    6409+ 
+           6411    4925    4923    6410
CTETRA       970       1    4726      98    3904    3831    6542    3915+ 
+           6914    6533    3914    3916
CTETRA       971       1    5324    4762    4761    4767    6299    5065+ 
+           5633    6266    5066    5067
CTETRA       972       1    3846    2167    3851     867    1245    1242+ 
+           3959    3911    1408    3958
CTETRA       973       1    3844    2169    3840    4747    6415    6412+ 
+           4188    6414    4914    6413
CTETRA       974       1    1901    4727    4731      98    6806    4901+ 
+           5561    1900    6547    6546
CTETRA       975       1    5323    5324    1080    3054    6269    6353+ 
+           6416    6400    6399    3075
CTETRA       976       1    4330     785      81     783    2068    6324+ 
+           4335    2232     784    6323
CTETRA       977       1    4715    3871    3870    3860    6418    4055+ 
+           6417    5466    4238    4242
CTETRA       978       1     316    2156    1901    4727    2126    5725+ 
+           1902    6701    4898    6806
CTETRA       979       1     238     244     255      69    1300    6356+ 
+           1346    1289    6355    1318
CTETRA       980       1    3840    4754    4747    2171     469    4919+ 
+           6413    6564    4917    4915
CTETRA       981       1    4773    5190    2042    2044    6419    5270+ 
+           4876    4877    5269    2043
CTETRA       982       1     316    4727    2154    2156    6701    4846+ 
+            177    2126    4898    2155
CTETRA       983       1    5324    5295    4770    4760    6397    5998+ 
+           6184    5631    6197    4997
CTETRA       984       1    1865     832     923     921     619    2971+ 
+           4635    4636    2973     922
CTETRA       985       1    5284    2016    2013    1619    5848    2014+ 
+           5990    6422    6420    6421
CTETRA       986       1     571     566    2564    2593    2604     157+ 
+           6694    2596    2597    2605
CTETRA       987       1    5287    5315    5288    5316    5528    5525+ 
+           5358    5937    6027    6023
CTETRA       988       1    3846    4749    3847    2167    6553    1464+ 
+           3960    1245    4911    1240
CTETRA       989       1    5308    2457     576    2693    5744    5761+ 
+           5763    5984    6229    2716
CTETRA       990       1    4727    1901    4731    2156    6806    5561+ 
+           4901    4898    5725    4899
CTETRA       991       1    5286    2262    2261    2267    6307    2402+ 
+           5402    5411    2403    2400
CTETRA       992       1    4748    4747    3841    3838    5050    1363+ 
+           2345     704    2675    4174
CTETRA       993       1    2770    1766    2271    3691    6425    6030+ 
+           6423    6424    3697    6230
CTETRA       994       1    1679     297    1575    1836    3709    6459+ 
+           3591    3710    1835    6457
CTETRA       995       1    5303    4677    5318    2027    6175    6172+ 
+           6007    6176    4683    6426
CTETRA       996       1    5299     635    4772      78    5636     968+ 
+            956    6370     634    6333
CTETRA       997       1    4771    3832    1505    1509    6428    4024+ 
+           6403    6427    3956    1507
CTETRA       998       1     316    3823    2156    2154    3947       8+ 
+           2126     177     162    2155
CTETRA       999       1    5302    2245    5303    2265    5993    5679+ 
+           5665    5994    2310    6317
CTETRA      1000       1    3846    2167    2169    4749    1245    2168+ 
+           6406    6553    4911    4912
CTETRA      1001       1    5286    1782    5289    1785    5379    6429+ 
+           5387    5389    1784    5384
CTETRA      1002       1    2154    3823    3828    3827     162    4140+ 
+            164     179    3955    4074
CTETRA      1003       1    2188     290    5284    5283    6371    6430+ 
+           5344    5347    6431    5349
CTETRA      1004       1     797    1915     794     632    6365    6309+ 
+            796    6363    4308    2680
CTETRA      1005       1    1730    1509    1732    5202    6434    6432+ 
+           1731    5247    6433    5250
CTETRA      1006       1    3827    1633    2003    1630    4071    6842+ 
+           2133    4072    1631    6455
CTETRA      1007       1    5288    2267    2265    2264    5409    2401+ 
+           6207    5410    2413    2306
CTETRA      1008       1    4520    4418     663    1879    5781     152+ 
+           6798    4650    5780    3792
CTETRA      1009       1    2273    2277     372     334    2295    2284+ 
+           2294    6436    6435    2191
CTETRA      1010       1    3827    2154    4787    3828     179    4842+ 
+            387    4074     164    5794
CTETRA      1011       1    5302    5288    5316    2267    6330    6023+ 
+           6154    6372    5409    6376
CTETRA      1012       1    3847    4743    4749    3848    1462    4913+ 
+           1464    4195    1359    2684
CTETRA      1013       1    1730    1433    1732    1509    3608    3605+ 
+           1731    6434    3492    6432
CTETRA      1014       1    4800    3822    3818    3826      84    4134+ 
+             82     937    4136    4132
CTETRA      1015       1    5289    2253    2770    2776    6222    6437+ 
+           5351    5932    6220    2814
CTETRA      1016       1    3851    2167    4743    2165    1242    4909+ 
+           7002    6847    2166    4908
CTETRA      1017       1    4771    4773    2044    1505    4881    4877+ 
+           4880    6403    6438    6402
CTETRA      1018       1    4800    3826    4793    3822     937     416+ 
+           5154      84    4136     411
CTETRA      1019       1    5315    2003    4678    5307    5942    4690+ 
+           6325    6139    6148    6147
CTETRA      1020       1     129     902     134    1896    2952     903+ 
+            821    2087    2149    4572
CTETRA      1021       1     977     158     963    1173     979    3021+ 
+           3022    6441    6439    6440
CTETRA      1022       1    4797    3820    3801    4796     458    4108+ 
+            460    5151     456    1405
CTETRA      1023       1    5316    2253    2776    2777    6221    6220+ 
+           5931    6350    6442    2819
CTETRA      1024       1    4332    4330     785      81    4337    2068+ 
+           1666    4334    4335    6324
CTETRA      1025       1      63    3436     517     212    5453    3454+ 
+           5451    3379    3452    3455
CTETRA      1026       1    3156    5297    1162    1160    1101    1187+ 
+           5592    2538    1108    1161
CTETRA      1027       1    2255    2777    2258    2253    6443    5841+ 
+           2388    2389    6442    2342
CTETRA      1028       1      77     794     785    1917    2689    2881+ 
+           2278    4311    2411    2281
CTETRA      1029       1    1044     963    1039    1042    6444    3270+ 
+           3044    1043    5768    3039
CTETRA      1030       1    3816    1091    4784    1093    3981      21+ 
+           1427    3980    1092      26
CTETRA      1031       1    5315    4676    4678    4675    6138    4712+ 
+           6325    5921    4710    4693
CTETRA      1032       1     652      77    1917     648    2835    4311+ 
+           2283    2836     649    4310
CTETRA      1033       1      73     293     621    2770    1764    3653+ 
+            620    2800    5355    2801
CTETRA      1034       1    4816    4820    1104    4815    5129    2466+ 
+           2475    5176    5185    2569
CTETRA      1035       1    5285    2187     349    2188    6445    2226+ 
+           6187    5346    2228    2203
CTETRA      1036       1     834     692    1858    1860     741    3786+ 
+            495    1653    3787    1859
CTETRA      1037       1    2013    1832     309     295    6020    1831+ 
+           6446    6021    3744    1839
CTETRA      1038       1    3808    4782    4783    4816    1772    5118+ 
+           2484    2025    5119    5120
CTETRA      1039       1    2018    5320    5285    5284    5847    6047+ 
+           6186    5849    5850    5345
CTETRA      1040       1    4818    3900    3901    3902    5553    4300+ 
+           5552    5557    3989    4290
CTETRA      1041       1     200    1196    1173     158    3283    2108+ 
+           1171    6447    3178    6439
CTETRA      1042       1    4804    3798    3817    3799    6515    4088+ 
+            948    1441    4086    4089
CTETRA      1043       1     347    5320    5285    2018    6448    6047+ 
+           6203    6216    5847    6186
CTETRA      1044       1    3893    4718    4719    4821    6892    4966+ 
+           5799    5798    4967    4968
CTETRA      1045       1      48     264    2550     263    1337    5329+ 
+           6287    3350    1336    6449
CTETRA      1046       1    3818    3819    4800    4803    4104      80+ 
+             82    1396     365    5166
CTETRA      1047       1    5313    1630     297    1577    5539    5541+ 
+           5540    5889    3550    5913
CTETRA      1048       1     229    2507     205     226    6083    2637+ 
+           3323    1257     282    1276
CTETRA      1049       1    5312    1901     114     112    5564    6450+ 
+           6452    6453    6451     753
CTETRA      1050       1    3806    3808    4782    3807    3976    1772+ 
+           2099    4120    4096    1777
CTETRA      1051       1    5313    1630    2007    2003    5539    6454+ 
+           5898    5904    6455    2005
CTETRA      1052       1     131     132     110    1908     800    2884+ 
+            799    4563    4562     891
CTETRA      1053       1     110     737     740    2902    6456    2866+ 
+           5448    2904    6248    5450
CTETRA      1054       1    3803    3801    3800    4796    4098    4100+ 
+           4099    1153    1405     379
CTETRA      1055       1     297    1575    1836    1628    6459    6457+ 
+           1835    5912    3548    6458
CTETRA      1056       1    1919     124     910     101    4552     911+ 
+           4551    2100     767    2958
CTETRA      1057       1    2276    2274    1406    2268    2419    6460+ 
+           5404    2417    2330    6392
CTETRA      1058       1    4803    4783    3799    4782    5116    1439+ 
+           1456    5117    5118    1775
CTETRA      1059       1      51     256    2564      69    6464    6461+ 
+           6463     596    6354    6462
CTETRA      1060       1    1888    1908     112     132    4569     894+ 
+           6996    4568    4562     801
CTETRA      1061       1    5312    2916     803     114    6070    5640+ 
+           6075    6452    6465     802
CTETRA      1062       1    4803    4782    3799    3800    5117    1775+ 
+           1456     377    1444    4091
CTETRA      1063       1    2258    2260    2774    5310    2346    6466+ 
+           5842    5844    5837    5843
CTETRA      1064       1    1906    1908     131     110    1907    4563+ 
+           4565    6758     891     799
CTETRA      1065       1     740     120     114    2902    6467     849+ 
+           5449    5450    2906    2903
CTETRA      1066       1    3807    3799    4782    3800    4093    1775+ 
+           1777    4092    4091    1444
CTETRA      1067       1    4740    4718    3855    4736    4965    6468+ 
+           6390    4969    4957    6389
CTETRA      1068       1     108    4531     107     122    5887    5708+ 
+            750     766    4533    2868
CTETRA      1069       1    4463    1987     311    4524    4505    4608+ 
+           6469    6470    4585    4605
CTETRA      1070       1    4799    4797    3820    4802    5160     458+ 
+            109    5163    5162     106
CTETRA      1071       1     603      71    1762    2260     602    3648+ 
+           3649    6473    6471    6472
CTETRA      1072       1    2564    5291    3437    2095    5809    5438+ 
+           5782    2574    5436    5437
CTETRA      1073       1      75    2268    1766     260    6474    6031+ 
+           3654    1332    6061    1765
CTETRA      1074       1    4762    3804    3806    4781    6537    4118+ 
+           1136    5075    6950    6949
CTETRA      1075       1    5310    1760     603    2774    6477    3652+ 
+           6476    5843    6475    2820
CTETRA      1076       1     238    1322     255    3355    3358    1321+ 
+           1346    3357    3359    1323
CTETRA      1077       1    3887    3883    4719    3886    4272    6327+ 
+           6326    4274    4271    6478
CTETRA      1078       1    3805    3811    3804    4762    4037    4119+ 
+           4117     868    6536    6537
CTETRA      1079       1    4740    4750    3856    3873    5031    6479+ 
+           6391    6481    6480    4225
CTETRA      1080       1     834     695     692     709    5946     694+ 
+            741    5947    2860    2858
CTETRA      1081       1    3881    3882    3886    4718    4222    4269+ 
+           4268    6484    6482    6483
CTETRA      1082       1    4520    1877     666    4419    4651    3793+ 
+           6799    6795    6796    6667
CTETRA      1083       1    4715    2018    1611    3871    4857    5608+ 
+           5609    6418    5380    4053
CTETRA      1084       1      15      42      60    1252     528     582+ 
+             66    3310    3309    6959
CTETRA      1085       1    3159    1175    1173    1164    6487    1174+ 
+           6485    6486    3139    3133
CTETRA      1086       1    4419    4418    4520    1967    4445    5781+ 
+           6795    4453    4455    4653
CTETRA      1087       1    2021    3870    1611    1609    6489    4051+ 
+           5607    6488    4050    1610
CTETRA      1088       1    1365     230    2246     227    3367    1853+ 
+           6386    1364    1260    6718
CTETRA      1089       1     263     246      44     268    3363    5378+ 
+           6491    1355    1353    6490
CTETRA      1090       1     676    4418     663     666    6670     152+ 
+           2844    2845    6668     664
CTETRA      1091       1    1740    1424    1517    1737    3601    3486+ 
+           6493    1738    3600    6492
CTETRA      1092       1      69      68     238     547     594    3329+ 
+           1289     976    6576    6932
CTETRA      1093       1    2268    1402     260    1406    6494    1400+ 
+           6061    6392    3389    3388
CTETRA      1094       1     673    4419    1956    1953    6801    4443+ 
+           4341    4367    4444    1954
CTETRA      1095       1    1438    1724    5190    1727    3612    5245+ 
+           6495    3609    1726    5244
CTETRA      1096       1    5291    2080    2252     433    6589    1670+ 
+           5456    5796     473    2360
CTETRA      1097       1    4785    1097    4784    1140    6113    6496+ 
+           5132    6499    6497    6498
CTETRA      1098       1     666    1877    1875    4516    3793    1876+ 
+           3795    2211    4645    4646
CTETRA      1099       1    1722    1445    1442    1501    3613    1443+ 
+           3614    6500    3497    3495
CTETRA      1100       1     588      24    2655    2425     586    2661+ 
+           2679    1686    2443    6780
CTETRA      1101       1    5297    4816    1106    4815    6504    6078+ 
+           6502    6503    5176    6501
CTETRA      1102       1     673    4420    1956    4419    6803    4447+ 
+           4341    6801    4448    4443
CTETRA      1103       1     928     852    4512     142    2977    6505+ 
+           4594     929    2976    4593
CTETRA      1104       1    4331     652     787     655    4361    6921+ 
+           5892    4360     653    1674
CTETRA      1105       1      76     262     628    2274    1334    3352+ 
+            627    6508    6506    6507
CTETRA      1106       1    4774      79    3832     635    1007    3909+ 
+           6754    2177     636    3908
CTETRA      1107       1    4512     852    1981    4466    6505    6509+ 
+           4623    6511    6510    4475
CTETRA      1108       1    2729     459     448    2425    1886    2455+ 
+           2733     639    2453    2441
CTETRA      1109       1    3798    1091    4783    4804    3977    6512+ 
+           6514    6515    6513    5125
CTETRA      1110       1    5299    4766    4772     635     958    5094+ 
+            956    5636     990     968
CTETRA      1111       1      97     318     878    4465    4355    4356+ 
+            876    6517    4471    6516
CTETRA      1112       1    4531     107     122     121    5708    2868+ 
+           4533    4534     764     765
CTETRA      1113       1    2280     268    2276    2274    6520    6518+ 
+           2424    2325    6519    2419
CTETRA      1114       1    3843      79    4774    2169    3913    1007+ 
+           6410    6408    6407    4924
CTETRA      1115       1    1762    1397    2260     259    3681    6521+ 
+           6472    1763    1395    6522
CTETRA      1116       1    5291    2655     588    2649    6590    2679+ 
+           6792    6591    2678    2671
CTETRA      1117       1    1164    1162    3158    1100    1163    6523+ 
+           6525    6526    6524    3206
CTETRA      1118       1    5200    4776    5201    1517    6396    1001+ 
+           5261    1453    1003     997
CTETRA      1119       1    4725    3831    3869    4730    6530    3920+ 
+           6529    5002    6527    6528
CTETRA      1120       1    2564    2726    2727    5291    5469    2753+ 
+           6608    5809    5817    2376
CTETRA      1121       1    3159    3158    1100    1164    3207    3206+ 
+           3202    6486    6525    6526
CTETRA      1122       1    2056    4768    2181    1527    4891     555+ 
+           2182     584    2339    6927
CTETRA      1123       1    4726    2013    3831    1622    4847    6531+ 
+           6533    6534    6532    4062
CTETRA      1124       1    2080    2252     430    2507    1670    2318+ 
+           6090    2516    5613    6755
CTETRA      1125       1    4762    3804    3812    3811    6537    4114+ 
+           6535    6536    4119    4121
CTETRA      1126       1     283    5200    1520    1524    6572    5721+ 
+           3481    3483     565    1522
CTETRA      1127       1     256      69     244    2564    6354    6355+ 
+           1347    6461    6462    6538
CTETRA      1128       1      63    5291    5292    2727    5444    5421+ 
+           5447    2749    2376    6794
CTETRA      1129       1    4764    3810    3809    3815    6540    4111+ 
+           5622    6539    4122    4123
CTETRA      1130       1    1182     186    5321    1204    5996    6116+ 
+           6022    2110    6603    5966
CTETRA      1131       1    4726      98    3831     100    6542    3914+ 
+           6533    6541     744    3922
CTETRA      1132       1    1601    2027    2024    4806    5685    2026+ 
+           5682    6879    4863    4862
CTETRA      1133       1    3812    3803    4781    3810    4115    6543+ 
+           6545    4116    4109    6544
CTETRA      1134       1    5200    4778    2051    4776    6395    4888+ 
+           5279    6396    4890    4885
CTETRA      1135       1      98    4727    4731    4726    6547    4901+ 
+           6546    6542    4849    5005
CTETRA      1136       1    1643    1590    1539    1641    2719    3520+ 
+           3562    1642    5803    3559
CTETRA      1137       1    2276    2270    2268    1402    2418    2416+ 
+           2417    5403    6548    6494
CTETRA      1138       1    5294    3150     149     947    5537    3162+ 
+            253    5536    3163     946
CTETRA      1139       1    4751    4745    3873    3874    5040    6549+ 
+           6551    6552    6550    4249
CTETRA      1140       1    3875    3876    1491    4759    4011    4009+ 
+           4006     763     397     710
CTETRA      1141       1    3844    4749    3846    2169    6554    6553+ 
+           4192    6415    4912    6406
CTETRA      1142       1    1133    5323     143     147    6818     261+ 
+           2523    1134    6282     936
CTETRA      1143       1    4751    3882    3883    3873    6555    4252+ 
+           6329    6551    4228    4250
CTETRA      1144       1    1488    4753    2034    4756     713    4870+ 
+           6218    5630    4871    4866
CTETRA      1145       1      75     623    2268     402     624    6032+ 
+           6474    2804    2805    2328
CTETRA      1146       1    5323    5295    3054    1130    6384    6398+ 
+           6400    6817    1599    3073
CTETRA      1147       1    4751    4720    3887    4719    4971    6556+ 
+           6328    4972    4973    6326
CTETRA      1148       1      60     519     517    2507    6962     518+ 
+           6912    6910    2520    2521
CTETRA      1149       1    2274     262    1406    2268    6506    1404+ 
+           6460    2330    6060    6392
CTETRA      1150       1      48    2550     556     628    6287    6170+ 
+            554     630    6913    2785
CTETRA      1151       1    4779    1884    4780    4772    6559    6557+ 
+           5107    5106    6558    5097
CTETRA      1152       1    1133    3108     143    5323    2535    3111+ 
+           2523    6818    6385     261
CTETRA      1153       1    3403     508      55    2071    3420    5886+ 
+           5393    6561    2506    6560
CTETRA      1154       1    5323     144    4769     194    2218    2216+ 
+           6272    6271    1170    6050
CTETRA      1155       1    4779    1514    1512    5199    6379    1513+ 
+           6563    6380    6377    6562
CTETRA      1156       1    1645    1648    1544    1596    1646    3566+ 
+           3563    6063    2148    3524
CTETRA      1157       1    3840    4747    2169    2171    6413    4914+ 
+           6412    6564    4915    2170
CTETRA      1158       1     194    4723    4770     195    6051    4995+ 
+           5999    1071     746     840
CTETRA      1159       1    4779    5199    1512    5203    6380    6562+ 
+           6563    6565    5256    6318
CTETRA      1160       1    1598    3890    1596    4805    4040    3933+ 
+           1597    6675    6679    6674
CTETRA      1161       1    3403     279      55     218    3418    1383+ 
+           5393    3419    1384    3380
CTETRA      1162       1    2579      48      50    2550    2587     559+ 
+           2586    5398    6287    5399
CTETRA      1163       1    4779    4771    5203    1512    4884    5697+ 
+           6565    6563    6566    6318
CTETRA      1164       1    1643    1593    1590    1812    1516    1591+ 
+           2719    3716    6762    2723
CTETRA      1165       1    3843    3844    2169    3840    4190    6415+ 
+           6408    4023    4188    6412
CTETRA      1166       1     147    5323     143     144    6282     261+ 
+            936    3011    2218     931
CTETRA      1167       1    1689    2181     283    1476    2180    6567+ 
+           3595    3598    6568    1478
CTETRA      1168       1     270    2249    1360    2244    6783    6724+ 
+           1361    6804    2370    6726
CTETRA      1169       1    4741    4742    3864    4748    5028    6569+ 
+           6571    5034    5035    6570
CTETRA      1170       1    5323    3055    3056     197    6283    3066+ 
+           1614    6278    3058    3064
CTETRA      1171       1    1743    5200    1520     283    5205    5721+ 
+           5720    3597    6572    3481
CTETRA      1172       1    4755    1493    2037    5196    5874    2442+ 
+           4873     480    5756    5266
CTETRA      1173       1     263    2274     628     262    6573    6507+ 
+           3351    1339    6506    3352
CTETRA      1174       1    4465     323    4513    1993    4477    4589+ 
+           6908    4478    1995    4624
CTETRA      1175       1    5321     151     957    1204    6575    3016+ 
+           6041    5966    6574    3171
CTETRA      1176       1    3878    3852    3879    4806    4046    4199+ 
+           4201    6881    6880    6977
CTETRA      1177       1     547      68    1293     239    6576    3330+ 
+           3461    3460    1290    1292
CTETRA      1178       1    1128    5295    5324    3146    6811    6397+ 
+           6294    3231    6344    6295
CTETRA      1179       1    5293    1202    1204    1182    5530    1203+ 
+           6577    6578    3293    2110
CTETRA      1180       1    4762    4767    3811    4777    5066    1477+ 
+           6536    5072    5077    5692
CTETRA      1181       1     309    1622    1573    1675    6314    3543+ 
+           6579    3733    5596    3585
CTETRA      1182       1     148     190    3108    5294    1168    3113+ 
+           3110    5488    5499    6341
CTETRA      1183       1    4465    1925      97     318    4470    4352+ 
+           6517    4471    1923    4355
CTETRA      1184       1    3845    3847    4749    3848    4193    1464+ 
+            756    4171    4195    2684
CTETRA      1185       1    3691    1766    2268    1402    3697    6031+ 
+           6580    3696    3692    6494
CTETRA      1186       1    5323    5295     194    4770    6384    6000+ 
+           6271    6267    5998    5999
CTETRA      1187       1     972    1044    1160     974    6584    3135+ 
+           6583     973    6581    6582
CTETRA      1188       1    1491    4753    4759    3876     708    5057+ 
+            710    4009    5882     397
CTETRA      1189       1    3691    1402    2268    2270    3696    6494+ 
+           6580    6231    6548    2416
CTETRA      1190       1    4465    4510    4464    1993    6843    6840+ 
+           4481    4478    4601    4507
CTETRA      1191       1     974     977     963    1044     975    3022+ 
+           3024    6581    6585    6444
CTETRA      1192       1    4753    5191    2037    5197    2547    5264+ 
+           4869    2275    5234    5267
CTETRA      1193       1      76      75     260    2268     626    1332+ 
+           3349    6062    6474    6061
CTETRA      1194       1    5295    5298    1155    1149    6404     523+ 
+           5513    5514     267    3098
CTETRA      1195       1     852     864     861    2915    2910     863+ 
+           2912    6586    6285    6286
CTETRA      1196       1    1488    1491    5191    4753    1490    5811+ 
+           6217     713     708    2547
CTETRA      1197       1    5291    2649    2080    2655    6591    6587+ 
+           6589    6590    2678    6588
CTETRA      1198       1    4767    1080     197    5323     302    1079+ 
+            300    6268    6416    6278
CTETRA      1199       1     852     855     882     861     854    6592+ 
+           6593    2912    2911    6233
CTETRA      1200       1    4744    4759    3875    3885    5041     763+ 
+           6747    6745    2111    4008
CTETRA      1201       1     252    5292    5291    3437    6594    5421+ 
+           5430    3450    5786    5438
CTETRA      1202       1     197    4769    1527    4767    6275    2730+ 
+           1529     300    5100     304
CTETRA      1203       1     878     118     864     120    6597    2909+ 
+           6595    6596     762     865
CTETRA      1204       1    4751    3874    3883    3884    6552    4251+ 
+           6329    2734    4256    4257
CTETRA      1205       1      46     243     240    1295    6598    3333+ 
+           3445    3446    3334    1296
CTETRA      1206       1    2981     115    4327    4323    2987     792+ 
+           6264    1735    6165    4411
CTETRA      1207       1     318    1939     878    4466    1940    4357+ 
+           4356    4473    4472    6599
CTETRA      1208       1    2181    1476    1527    1524    6568    3511+ 
+           6927    7007    3482    1526
CTETRA      1209       1    2265    2186     384    2183    6600    2236+ 
+           2304    6316    2224    2241
CTETRA      1210       1    4321    4323     843    4322    4382    1391+ 
+           1707    4408    4407    1700
CTETRA      1211       1    1939    1937     882    4467    1938    4392+ 
+           4389    4493    4494    6601
CTETRA      1212       1    4790    4796    3801    3803    5115    1405+ 
+            427     425    1153    4098
CTETRA      1213       1     151     943    1204     186     941    6602+ 
+           6574    1208    3267    6603
CTETRA      1214       1     716     828     832     843    6824     830+ 
+           6823    2288    2897    2898
CTETRA      1215       1    2945    1906     119     140    6605    6604+ 
+           2946    2949    4564     845
CTETRA      1216       1    4778    1524    4768    4777     567     557+ 
+           4893    5103    5691    5102
CTETRA      1217       1      46     252     240     241    2116    1315+ 
+           3445    6606    1314    1297
CTETRA      1218       1    4465     318     878    4466    4471    4356+ 
+           6516    4474    4473    6599
CTETRA      1219       1    2945     140     131    1906    2949     893+ 
+           2948    6605    4564    4565
CTETRA      1220       1    3899    3895    4815    4814    3995    2309+ 
+           2131    5606    2118    5174
CTETRA      1221       1    2252     391    2507    2247    2319    5486+ 
+           5613    2320    2315    6607
CTETRA      1222       1    4465      97    1925    4464    6517    4352+ 
+           4470    4481    6690    4480
CTETRA      1223       1    2726    2564    2727    2724    5469    6608+ 
+           2753    2764    5470    2759
CTETRA      1224       1     169    4789    1997    1074    2061    4834+ 
+           6648    1072    6986    2737
CTETRA      1225       1     544     238     244    1293    6610    1300+ 
+           6609    3468    3331    3332
CTETRA      1226       1     396    2274     399     628    2322    2321+ 
+            398    2807    6507    2806
CTETRA      1227       1    2731    2728    2564    2732    2768    6611+ 
+           6613    2763    2742    6612
CTETRA      1228       1    4734    3849    3833    3834      35    3923+ 
+           6993     401    4149    4148
CTETRA      1229       1      53      51     256    2564     569    6464+ 
+           1325    6614    6463    6461
CTETRA      1230       1    1694    1697    5193     144    1695    5220+ 
+           5216    1572     322     315
CTETRA      1231       1    5310    1762    3680    2260    6615    3686+ 
+           5838    5837    6472    5835
CTETRA      1232       1    3843    3846    2169    3844    3912    6406+ 
+           6408    4190    4192    6415
CTETRA      1233       1    2725    2726    2564    2729    2752    5469+ 
+           5468    2750    2751    6616
CTETRA      1234       1    5192     195    4723     194    2006     746+ 
+           6052    6048    1071    6051
CTETRA      1235       1    1762    2260    1397    3680    6472    6521+ 
+           3681    3686    5835    3685
CTETRA      1236       1    2427    2655      24    2425    6779    2661+ 
+           2440    2444    6780    2443
CTETRA      1237       1    3893    4821    3892    4822    5798    6162+ 
+           4267    6618    4970    6617
CTETRA      1238       1    2030    4757    5195    1485    4828     727+ 
+           5213    2491    5741     725
CTETRA      1239       1      76     399    2268    2274    2802    2326+ 
+           6062    6508    2321    2330
CTETRA      1240       1    2654    2427    2655      24    6853    6779+ 
+           2660    2659    2440    2661
CTETRA      1241       1    5311    5312     803     818    5872    6075+ 
+           5637    6620    6619    2886
CTETRA      1242       1     794      77      81    1915    2689     644+ 
+           6322    6309    4309    6305
CTETRA      1243       1      76     399    2274     628    2802    2321+ 
+           6508     627    2806    6507
CTETRA      1244       1    5301    5302    2255    2256    5669    6152+ 
+           5829    5690    5992    2396
CTETRA      1245       1    1658    1554    1827    1609    3575    6621+ 
+           3737    6623    3533    6622
CTETRA      1246       1    1915      77    1917     794    4309    4311+ 
+           1916    6309    2689    2411
CTETRA      1247       1    5308    2279    2277     423    5753    2357+ 
+           5775    5743    2355    2353
CTETRA      1248       1    4772    1512    1884      78    6335    3907+ 
+           6558    6333    3906    1885
CTETRA      1249       1      20    2250      27    2097    2289    6624+ 
+           2436    6625    5474    2098
CTETRA      1250       1     130    1884    1913     797    6933    4315+ 
+           1742     798     912    6364
CTETRA      1251       1    5309    2272     272    1368    5979    5977+ 
+           5978    6627    6626    1370
CTETRA      1252       1    2095     243     257     266     574    1348+ 
+            137    5647    3362    1351
CTETRA      1253       1    2250    2097     459      27    5474    2565+ 
+           6628    6624    2098     461
CTETRA      1254       1      78     632    1884     781     633    4312+ 
+           1885    6375     548    6934
CTETRA      1255       1    5308    2280    2090    2088    5754    6629+ 
+           5983    6247    6630    2089
CTETRA      1256       1     566     455    2729    2564    1193    1191+ 
+           2739     157    2567    6616
CTETRA      1257       1    1760    2778    2774    5310    6631    2824+ 
+           6475    6477    6120    5843
CTETRA      1258       1    5294    5295    3146    3148    5500    6344+ 
+           5991    5521    5523    3253
CTETRA      1259       1    2279    2276     277     272    2423    6632+ 
+           5751    5976    6633    1380
CTETRA      1260       1    3861    4717    4813    4716    1049    4954+ 
+           6825    2745    4952    4953
CTETRA      1261       1    2550      18     556     396    6169    2780+ 
+           6170    6002     394    2779
CTETRA      1262       1    1692     197    1527    1473    6924    1529+ 
+           6810    3634    3477    3478
CTETRA      1263       1    5309     237    2273    1368    5870    5868+ 
+           5869    6627    3377    6634
CTETRA      1264       1    4751    3883    3887    3884    6329    4272+ 
+           6328    2734    4257    4273
CTETRA      1265       1      27    2250     436     459    6624    2292+ 
+           2435     461    6628    2446
CTETRA      1266       1    5323     147     145     144    6282     935+ 
+           6277    2218    3011     933
CTETRA      1267       1    5309     277     224     237    5986    3384+ 
+           5988    5870    1379    3383
CTETRA      1268       1    3861    3860    3865    4716    4241    4240+ 
+           4214    2745    5464    1075
CTETRA      1269       1      20      27    2250     436    2436    6624+ 
+           2289     438    2435    2292
CTETRA      1270       1    3852    4807    1605    3868    5362    1626+ 
+           4045    4049    6177    4047
CTETRA      1271       1    5308    2071      55    2609    5776    6560+ 
+           6281    5767    5950    2626
CTETRA      1272       1    4808    3895    1147    3896    1214    3993+ 
+           1212    6733    3998    3997
CTETRA      1273       1     421    2090      36     486    6635    2553+ 
+           2467    2479    2091     484
CTETRA      1274       1    2056    1527    4769    4768     584    2730+ 
+           4894    4891    2339    4896
CTETRA      1275       1    5308    2280    2088     277    5754    6630+ 
+           6247    5755    5752    6636
CTETRA      1276       1    3868    3870    3861    4807    4052    4243+ 
+           4207    6177    1871    6178
CTETRA      1277       1     459    2250     436    2425    6628    2292+ 
+           2446    2453    6637    2451
CTETRA      1278       1    1495    5196    4755    2040    5713     480+ 
+           5706    5714    5240    4872
CTETRA      1279       1    5283    5284    5285    1788    5349    5345+ 
+           5348    5377    6198    6034
CTETRA      1280       1    4515    4421     313     321    5749    5764+ 
+           4615    4619    4429    4616
CTETRA      1281       1      96     118    4510      97    6641    6359+ 
+           6640     733    6638    6639
CTETRA      1282       1    1499    1501    2171    3840    1500    2329+ 
+            451    4019    4018    6564
CTETRA      1283       1    5284    1619     307    1617    6422    5664+ 
+           6643    6644    1618    6642
CTETRA      1284       1    3860    3865    4716    4732    4240    1075+ 
+           5464    2269    1070    4951
CTETRA      1285       1    1997     169    1590    1999    6648    3926+ 
+           6647    1998    6645    6646
CTETRA      1286       1    1495    3842    1499    4754    4016    4015+ 
+           1497    5535     360    5533
CTETRA      1287       1    5284    1619    2013    1832    6422    6421+ 
+           5990    6650    6649    6020
CTETRA      1288       1    1557    1660    1611    1609    3573    6828+ 
+           3535    3532    5575    1610
CTETRA      1289       1    4465     878     118    4466    6516    6597+ 
+           6652    4474    6599    6651
CTETRA      1290       1    1499    2173    5198    2040    5532     682+ 
+            693    6944    2175    5242
CTETRA      1291       1    4725    2016    1619    2013    4850    6420+ 
+           6653    4851    2014    6421
CTETRA      1292       1    1779    2024     288    1601    5681    6874+ 
+           1780    5683    5682    6875
CTETRA      1293       1     245      44     264     263    6654    6332+ 
+           3364    1354    6491    1336
CTETRA      1294       1    1499    2171    1501    2173     451    2329+ 
+           1500    5532    2172    2327
CTETRA      1295       1    5284    1617    1613    2016    6644    1615+ 
+           6657    5848    6655    6656
CTETRA      1296       1    1641    1588    1536    1639    5805    3518+ 
+           3560    1640     289    3558
CTETRA      1297       1      44     245     540    1304    6654    6658+ 
+            542    3413    3340    3417
CTETRA      1298       1    4773    2042    1501    2173    4876    2335+ 
+           2331    4878    4875    2327
CTETRA      1299       1    2018    1613    1823    1611    5381    5792+ 
+           6659    5608    1612    5790
CTETRA      1300       1    5193     194    4769     144     317    6050+ 
+            329     315    1170    2216
CTETRA      1301       1    2731    2724    2564    2725    2761    5470+ 
+           6613    2767    2765    5468
CTETRA      1302       1    1495    1449    1493    5196    3500    3503+ 
+           1494    5713    5757    5756
CTETRA      1303       1    2018    3871    1613    1611    5380    4054+ 
+           5381    5608    4053    1612
CTETRA      1304       1    5292     515    3436    3437    5480    3453+ 
+           5481    5786    3465    3466
CTETRA      1305       1    1596     172    4786    3890    2127    6660+ 
+           6662    3933    3932    6661
CTETRA      1306       1    1501    2173    2042    5198    2327    4875+ 
+           2335     672     682    5268
CTETRA      1307       1    4724    1613    3871    3872    5383    4054+ 
+           5382    6663    4056    4058
CTETRA      1308       1    5291    2726     588    2425    5817    2748+ 
+           6792    5818    5815    1686
CTETRA      1309       1      97      96     119    2902     733    6664+ 
+           6665    6666    6249    2905
CTETRA      1310       1    4773    5190    1501    2042    6419     670+ 
+           2331    4876    5270    2335
CTETRA      1311       1     952    5300    5321     154    6084    6086+ 
+           6085     951    6183    6040
CTETRA      1312       1    5305    4416    1945    1942      47    4433+ 
+           5700    5699    4434    1944
CTETRA      1313       1    5289    3691    1782    1796    6232    3701+ 
+           6429    6224    3700    3695
CTETRA      1314       1    1447    1499    1445    1720    3498    3499+ 
+           1446    3615    6765    3616
CTETRA      1315       1     676     666    4419    4418    2845    6667+ 
+           6669    6670    6668    4445
CTETRA      1316       1      39     207     210     208     642    3301+ 
+           3439    1729    1216    1217
CTETRA      1317       1    1904      96     118    4510    4301    6641+ 
+           6358    4595    6640    6359
CTETRA      1318       1    3843    4774    3832    1505    6410    6754+ 
+           4025    4021    2511    4024
CTETRA      1319       1     676    1953    1951    4418    4366    1952+ 
+           4343    6670    4440    4441
CTETRA      1320       1      60      62     517     206     583    6698+ 
+           6912    1226    3295    6954
CTETRA      1321       1    5322     171    1074     163    6673    3053+ 
+           6671    6672    1077    3052
CTETRA      1322       1    4463    4524     680     721    6470    1255+ 
+           2766    1291    1892    2851
CTETRA      1323       1     838     705     695     709    5914    2862+ 
+           5945    5920     707    2860
CTETRA      1324       1      39    1220     210     207    3440    1218+ 
+           3439     642    3299    3301
CTETRA      1325       1    1598    2027    4805    1596    6676    4826+ 
+           6675    1597    5504    6674
CTETRA      1326       1    4524    4469     721    4463    6124    6180+ 
+           1892    6470    4489    1291
CTETRA      1327       1    1865    1867     923     828    1866    4578+ 
+           4635    6678    6677    2970
CTETRA      1328       1    5290     275    1365     236    5423    3375+ 
+           5598    5471    1378    3374
CTETRA      1329       1    4812    3890    3878    4805    6682    4043+ 
+           6681    5168    6679    6680
CTETRA      1330       1    4325     117     721     115    6140    6107+ 
+           4387    6141     759    6104
CTETRA      1331       1     928    4512     852    1981    4594    6505+ 
+           2977    2150    4623    6509
CTETRA      1332       1     229    2247     362     227     862    6748+ 
+           3313    1256    6797    3311
CTETRA      1333       1    1904     140     142     118    4588     848+ 
+           4587    6358    2901     847
CTETRA      1334       1    4469    4463    4524    1987    4489    6470+ 
+           6124    4501    4505    4585
CTETRA      1335       1    5300     155     972    1200    6683     971+ 
+           5661    5659    3174    3175
CTETRA      1336       1    4328     104    4320    4331    5894    6919+ 
+           4373    4406    5891    4405
CTETRA      1337       1    1630     296    1683    1807    5542    3707+ 
+           6094    6684    1808    3708
CTETRA      1338       1     994     159    1178     180     995    2588+ 
+           1813    1489    2772    2103
CTETRA      1339       1    4513     118    4510     142    6685    6359+ 
+           4597    4592     847    4596
CTETRA      1340       1     207     229    2507     205    1278    6083+ 
+           6791    1215    3323    2637
CTETRA      1341       1    5313    1796    1836     297    5908    3772+ 
+           6686    5540    3770    1835
CTETRA      1342       1     180     159    1178    1025    2772    2588+ 
+           2103    3035    3276    1221
CTETRA      1343       1    4512     118    4513     142    6687    6685+ 
+           4590    4593     847    4592
CTETRA      1344       1     519      39    2507     205     520    2514+ 
+           2520    6961    2775    2637
CTETRA      1345       1      14      13    2246     389     359    6688+ 
+           6689    2207    2208    2311
CTETRA      1346       1     781     638     127      78    6374    6889+ 
+            780    6375    2834    6366
CTETRA      1347       1    1925    4464      97      94    4480    6690+ 
+           4352    4353    6691     732
CTETRA      1348       1    4420    1958      85    1956    4446    4340+ 
+           5728    4447    1957    4342
CTETRA      1349       1     616    1807    2003    1805    3765    6692+ 
+           5943    3767    1806    6693
CTETRA      1350       1     781     887     641     890     906    2926+ 
+           6373    6339     888    2921
CTETRA      1351       1      53    2564    2095     571    6614    2574+ 
+           6696     573    6694    6695
CTETRA      1352       1    1601    2024    1605    3852    5682    6883+ 
+           1603    4044    1621    4045
CTETRA      1353       1      73     293    2770    5314    1764    5355+ 
+           2800    6697    5353    5350
CTETRA      1354       1     175     994    5322     180    3264    1797+ 
+           1830    3034    1489    1817
CTETRA      1355       1      62    1223     212     517    3297    1224+ 
+           1225    6698    3456    3455
CTETRA      1356       1     698    2136    4416    4532    2348    4432+ 
+           5831    5833    5819    5820
CTETRA      1357       1    4811    4805    3890    4812    5143    6679+ 
+           6699    5169    5168    6682
CTETRA      1358       1     159     178     180     994    1207    1022+ 
+           2772     995    3262    1489
CTETRA      1359       1    3903    3796     316    4727    3954    3952+ 
+           3950    6310    6700    6701
CTETRA      1360       1    1220     205     207      39    3300    1215+ 
+           3299    3440    2775     642
CTETRA      1361       1    4738    3835    3834    3866    5442    4155+ 
+           6702    6703    4157    4156
CTETRA      1362       1    1025     178     180     159    1027    1022+ 
+           3035    3276    1207    2772
CTETRA      1363       1    1575    1677    1836    1625    3587    3735+ 
+           6457    3545    6704    6705
CTETRA      1364       1     666     668    4419    4516     667    6805+ 
+           6667    2211    2184    5723
CTETRA      1365       1    3899    3897    3894    4814    4297    4284+ 
+           4296    5606    6150    6706
CTETRA      1366       1    3844    3845    3847    4749    4191    4193+ 
+           4194    6554     756    1464
CTETRA      1367       1    1679    1575    1677    1836    3591    3587+ 
+           1678    3710    6457    3735
CTETRA      1368       1     207     205    2507      39    1215    2637+ 
+           6791     642    2775    2514
CTETRA      1369       1    3850    3849    4743    4738    3963    6707+ 
+           6709    6710    6708    5029
CTETRA      1370       1    3843    4774      79    3832    6410    1007+ 
+           3913    4025    6754    3909
CTETRA      1371       1    3882    4719    4718    4740    6712    4966+ 
+           6482    6711    4964    4965
CTETRA      1372       1    3844    3846    4749    3847    4192    6553+ 
+           6554    4194    3960    1464
CTETRA      1373       1    5307    1999    2001    4678    5581    2000+ 
+           6134    6147    4688    4687
CTETRA      1374       1    4773    1501    3843    2171    2331    4022+ 
+           6411    4922    2329    6409
CTETRA      1375       1    1625    1622    1573     309    1623    3543+ 
+           3546    6713    6314    6579
CTETRA      1376       1    3861    4716    3870    3860    2745    1690+ 
+           4243    4241    5464    4242
CTETRA      1377       1    5301    1771    3680    1774    5696    3687+ 
+           6714    5824    1773    3690
CTETRA      1378       1    4729    4734    3833    3858    5010    6993+ 
+           6867    6869     404    4150
CTETRA      1379       1    1628    2010    3903    1625    5895    6311+ 
+           4067    1627    6715    4066
CTETRA      1380       1    3861    4807    4716    4813    6178    4948+ 
+           2745    6825    4956    4953
CTETRA      1381       1      46     241     240     243    6606    1297+ 
+           3445    6598    1298    3333
CTETRA      1382       1    1104    4816    1089    4783    2475    2023+ 
+           3087    2468    5120    2786
CTETRA      1383       1    1625    2010    1622     309    6715    6716+ 
+           1623    6713    6717    6314
CTETRA      1384       1    3847    3850    4743    3848    4196    6709+ 
+           1462    4195    4164    1359
CTETRA      1385       1     227      13    2246      14    3314    6688+ 
+           6718    1254     359    6689
CTETRA      1386       1    1100    1162    3158    1104    6524    6523+ 
+           3206    1102    5591    3205
CTETRA      1387       1     204    5321     202    5300    5964    5965+ 
+           3289    6719    6086    6087
CTETRA      1388       1    4715    4807    4716    3870    4861    4948+ 
+           4947    6417    1871    1690
CTETRA      1389       1    3856    4736    3855    3863    6388    6389+ 
+           4216    4217    5601    4218
CTETRA      1390       1    1104    3156    1162    3158    3208    5592+ 
+           5591    3205    3210    6523
CTETRA      1391       1    1200    5300     155     204    5659    6683+ 
+           3174    1199    6719    3173
CTETRA      1392       1    4752    3876    3839    3877    5883    4014+ 
+           5863    5858    4186    4183
CTETRA      1393       1    3855    4718    3854    4717    6468    6720+ 
+           4210    6722    4959    6721
CTETRA      1394       1    1106    1142    1104    1162    2160    2178+ 
+           1105    5593    3103    5591
CTETRA      1395       1    2090     423     421    2280    6723     422+ 
+           6635    6629    2352    2323
CTETRA      1396       1    4715    3871    1611    3870    6418    4053+ 
+           5609    6417    4055    4051
CTETRA      1397       1    1658    1554    1655    1827    3575    3571+ 
+           1657    3737    6621    3725
CTETRA      1398       1    3808    1089    4783    3798    3974    2786+ 
+           2484    3979    3978    6514
CTETRA      1399       1    5308    2280     423    2090    5754    2352+ 
+           5743    5983    6629    6723
CTETRA      1400       1    4766    3846    2167    2169    2504    1245+ 
+           4927    4926    6406    2168
CTETRA      1401       1    1360    2244    2249    2246    6726    2370+ 
+           6724    6725    2380    2383
CTETRA      1402       1    1106    4816    1089    1104    6078    2023+ 
+           3083    1105    2475    3087
CTETRA      1403       1     423    5308    2074    2277    5743    6077+ 
+           6727    2353    5775    5433
CTETRA      1404       1    3893    4822    4718    4821    6618    4961+ 
+           6892    5798    4970    4967
CTETRA      1405       1    2265    2186    2187     381    6600    2227+ 
+           6728    2305    2237    2238
CTETRA      1406       1    1089    1104    4783    1091    3087    2468+ 
+           2786    1090    3086    6512
CTETRA      1407       1    4720    3896    3888    3894    6731    4285+ 
+           6729    6730    4286    4283
CTETRA      1408       1    4737    3867    4732    3863     211     213+ 
+           5015    5602    4246    5600
CTETRA      1409       1    4745    3876    4752    3877    6732    5883+ 
+           5047    5859    4186    5858
CTETRA      1410       1    4815    4820    1104    1142    5185    2466+ 
+           2569    2106    2109    2178
CTETRA      1411       1    4720    3896    4808    4721    6731    6733+ 
+           4981    4980    6734    4982
CTETRA      1412       1    2916     864    2915    2914     113    6285+ 
+           2935    2934    1656    2936
CTETRA      1413       1     303    1601    1549    1598    6737    3530+ 
+           6735    6736    1600    3528
CTETRA      1414       1    3899    4821    3897    4814    5605    5801+ 
+           4297    5606    4977    6150
CTETRA      1415       1    4740    4750    3873    4751    5031    6480+ 
+           6481    4976    5033    6551
CTETRA      1416       1    4735     873     100    3833    6991     875+ 
+           6915    6992    3919    3918
CTETRA      1417       1    2245    2256    5302    5301    2382    5992+ 
+           5993    5678    5690    5669
CTETRA      1418       1    3897    3893    4821    3898    4281    5798+ 
+           5801    4294    4292    6161
CTETRA      1419       1    4720    3897    4814    3894    6151    6150+ 
+           4975    6730    4284    6706
CTETRA      1420       1    3833    3849    4734     873    3923      35+ 
+           6993    3919    3924    6994
CTETRA      1421       1    3880    4822    3879    4813    6739    6738+ 
+           4208    5906    4963    5905
CTETRA      1422       1    4748    3838    4746    4747     704    2541+ 
+           5051    5050    2675    5052
CTETRA      1423       1    4720    3888    4744    3887    6729    6296+ 
+           4979    6556    4277    6298
CTETRA      1424       1    4745    3877    3874    3876    5859    4248+ 
+           6550    6732    4186    4253
CTETRA      1425       1    2183    1748    1746     353    6091    1747+ 
+           6092    2229    3640    3642
CTETRA      1426       1    4742    3862    3864    3836     193    4172+ 
+           6569     371    4163    4169
CTETRA      1427       1    1034    1200    1046    5300    5658    5854+ 
+           3041    5660    5659    6740
CTETRA      1428       1    1660    1609    1825    1611    5575    6831+ 
+           3738    6828    1610    6778
CTETRA      1429       1    1590    1588    1536    1641    1589    3518+ 
+           3521    5803    5805    3560
CTETRA      1430       1    3848    4738    3850    4743    5441    6710+ 
+           4164    1359    5029    6709
CTETRA      1431       1    4720    3897    3887    4719    6151    4279+ 
+           6556    4973    5800    6326
CTETRA      1432       1    5306      72     609    1803    6983     607+ 
+           6160    1606    3762    3763
CTETRA      1433       1    1360    3658    2244    2246    3663    5695+ 
+           6726    6725    6741    2380
CTETRA      1434       1     632     781     783     797     548     782+ 
+            550    6363    2879    2880
CTETRA      1435       1    4751    4744    3887    4720    4983    6298+ 
+           6328    4971    4979    6556
CTETRA      1436       1      72    2778     605     291    2797    2796+ 
+            606    1758    6849    3650
CTETRA      1437       1    2183    2245    5303    3658    6742    5679+ 
+           6004    6093    5677    5675
CTETRA      1438       1    3436     239     278      63    3458    1413+ 
+           3451    5453    3397    1382
CTETRA      1439       1    4751    4745    3874    4744    5040    6550+ 
+           6552    4983    5039    6743
CTETRA      1440       1    3847    3851    2167    4743    3961    1242+ 
+           1240    1462    7002    4909
CTETRA      1441       1    2077     236      39    5292    5473    6744+ 
+           2515    5446    5472    5484
CTETRA      1442       1    3436    3437     551    2727    3466    3447+ 
+           3462    6793    1845    1843
CTETRA      1443       1    4744    3884    3888    3885    6297    4275+ 
+           6296    6745    4258    4276
CTETRA      1444       1    5301    5302    5304    2255    5669    5666+ 
+           5668    5829    6152    5827
CTETRA      1445       1    4740    4751    3873    3882    4976    6551+ 
+           6481    6711    6555    4228
CTETRA      1446       1      63     212     278    3436    3379    1381+ 
+           1382    5453    3452    3451
CTETRA      1447       1    4744    4745    3874    3875    5039    6550+ 
+           6743    6747    6746    4254
CTETRA      1448       1    5310    5304    5307    5316    5821    6128+ 
+           6121     898    6143    6145
CTETRA      1449       1    2245    2246    2244    3658    2314    2380+ 
+           2378    5677    6741    5695
CTETRA      1450       1    4789     168    5322     166    2113    1592+ 
+           6988    6987    1006    6989
CTETRA      1451       1    3882    4751    4719    4740    6555    4972+ 
+           6712    6711    4976    4964
CTETRA      1452       1    5306    2778      72     291    1377    2797+ 
+           6983    6982    6849    1758
CTETRA      1453       1     389     362    2247      14    2212    6748+ 
+           2316    2207     363    6749
CTETRA      1454       1    1074     169    1590    1997    1072    3926+ 
+           3925    2737    6648    6647
CTETRA      1455       1    4744    3885    3875    3884    6745    4008+ 
+           6747    6297    4258    4255
CTETRA      1456       1    3838    3839    3877    4746    4181    4183+ 
+           4182    2541    5862    5857
CTETRA      1457       1    2652    2077    2649    2080    6752    6750+ 
+           2683    6751    2079    6587
CTETRA      1458       1    1074    1997    1590    1593    2737    6647+ 
+           3925    3966    1482    1591
CTETRA      1459       1    4771    3832    4772    4774    6428    6753+ 
+           5104    5105    6754    5099
CTETRA      1460       1    2253    5316    2255    2777    6221    6153+ 
+           2389    6442    6350    6443
CTETRA      1461       1      29    2507     430      17    2509    6755+ 
+           2431    2432    5487     429
CTETRA      1462       1    1074    4789    1997    4786    6986    4834+ 
+           2737    1504    4835    4823
CTETRA      1463       1    4779    5203    4771    2046    6565    5697+ 
+           4884    4882    5275    4879
CTETRA      1464       1    5307    5304    1793    1997    6128    6163+ 
+           5737    5580    6126    5730
CTETRA      1465       1    2524     524     330    2492    2532    2534+ 
+           2528    5461    5460    5455
CTETRA      1466       1    3796    2154    2007    1630    7001    4845+ 
+           7000    4069    2124    6454
CTETRA      1467       1    4779    4772    4771    1512    5106    5104+ 
+           4884    6563    6335    6566
CTETRA      1468       1    2507      15     366    2536    6082     368+ 
+           5485    6903    2540    2542
CTETRA      1469       1    2654     470     444     467    6756    2454+ 
+           2656    6073     468    2438
CTETRA      1470       1    1625    1573    1575    1677    3546    1574+ 
+           3545    6704    3588    3587
CTETRA      1471       1     108     705     695     838    5915    2862+ 
+           6757    2894    5914    5945
CTETRA      1472       1     698    1858    1856     108    3788    1857+ 
+           3777    5975    5972    5973
CTETRA      1473       1      34    2524       3     501    2525    2527+ 
+            483    2460    5483    2459
CTETRA      1474       1    2021    4807    1609    2024    4860    1624+ 
+           6488    2022    4859    2811
CTETRA      1475       1    1730    1509    1436    1433    6434    3491+ 
+           3607    3608    3492    1434
CTETRA      1476       1    4521    4418    1879     663    2200    5780+ 
+           4609    2198     152    3792
CTETRA      1477       1     110    1906     119    2945    6758    6604+ 
+            850    2947    6605    2946
CTETRA      1478       1     206      62     517    1223    3295    6698+ 
+           6954    3296    3297    3456
CTETRA      1479       1    1509    1730    1505    5202    6434    6759+ 
+           1507    6433    5247    6401
CTETRA      1480       1     701     698    4531     108    2849    5830+ 
+             41    5985    5975    5887
CTETRA      1481       1    2077      63    2651    2649    5443    2669+ 
+           6760    6750    2672    2673
CTETRA      1482       1     205     519      39    1220    6961     520+ 
+           2775    3300    3444    3440
CTETRA      1483       1    1727    1436    1505    1438    3610    3494+ 
+           6761    3609    1437    3493
CTETRA      1484       1     666     673    4419     668    2847    6801+ 
+           6667     667    2842    6805
CTETRA      1485       1    1645     301    1593    1812    3717    5511+ 
+           6763    3718    1811    6762
CTETRA      1486       1     540      44     264     245     542    6332+ 
+           5326    6658    6654    3364
CTETRA      1487       1    1727    5190    1438    1505    5244    6495+ 
+           3609    6761    6764    3493
CTETRA      1488       1    5305     105     701    4531    5717     443+ 
+             45    5710    5888      41
CTETRA      1489       1    5284    1613    2018    2016    6657    5381+ 
+           5849    5848    6656    2017
CTETRA      1490       1    1793    1997     324    1812    5730    1996+ 
+           6164    3760    5729    1480
CTETRA      1491       1    1447    1720    1495    1499    3615    5712+ 
+           3501    3498    6765    1497
CTETRA      1492       1    4728    3867    3860    4732     804    4235+ 
+           5465    4955     213    2269
CTETRA      1493       1    2095     551      46    3437    2566     553+ 
+           2094    5437    3447    3448
CTETRA      1494       1    1645    1593    1541    1643    6763    3522+ 
+           3564    1644    1516    3561
CTETRA      1495       1    1867     686     683     828    3779     685+ 
+           3780    6677    6766    6767
CTETRA      1496       1    4521      86    4417     663    2138    2139+ 
+            123    2198     661     150
CTETRA      1497       1    2251     275     266    1392    6770    1409+ 
+           6768    6769    3393    3392
CTETRA      1498       1    5306    1997    1812    1590    5731    5729+ 
+           5733    1638    6647    2723
CTETRA      1499       1    2690    2687    2686    2088    2718    2717+ 
+           2720    6772    6771    5412
CTETRA      1500       1      88    4417     663     676     209     150+ 
+           2843     677     146    2844
CTETRA      1501       1    5320    4680    2018     347    6252    4703+ 
+           5847    6448    6773    6216
CTETRA      1502       1    5306    1590    1812     299    1638    2723+ 
+           5733    2049    5802    1814
CTETRA      1503       1    2690     562    2090    2692    2712    6774+ 
+           6259    2713    2696    6258
CTETRA      1504       1     266    2095    5291    2251    5647    5436+ 
+           5431    6768    6971    5797
CTETRA      1505       1    2251    2243     271    1392    2367    5372+ 
+           5618    6769    5371    1394
CTETRA      1506       1    1539    1643    1593    1590    3562    1516+ 
+           3523    3520    2719    1591
CTETRA      1507       1     277    2088     268    2280    6636    6775+ 
+           1411    5752    6630    6520
CTETRA      1508       1    5306    1793     291     299    5732    1794+ 
+           6982    2049    3758    1846
CTETRA      1509       1    1665    1617     306    1566    6777    6776+ 
+           3728    3579    3538    5680
CTETRA      1510       1    2024    4807    1609    1605    4859    1624+ 
+           2811    6883    1626    1607
CTETRA      1511       1    2279    2280     277    2276    2359    5752+ 
+           5751    2423    2424    6632
CTETRA      1512       1    1360    1365     230    2246    3368    3367+ 
+           1358    6725    6386    1853
CTETRA      1513       1    1823    1825    1611    1662    1824    6778+ 
+           5790    3741    3740    5789
CTETRA      1514       1    1585    1532    1534    1639    3515    1533+ 
+           3517     292    3557    3556
CTETRA      1515       1    5308    2090     423    2456    5983    6723+ 
+           5743    5745    5982    2483
CTETRA      1516       1    1779    2027     324    5303    5684    2028+ 
+           6790    6017    6176    5518
CTETRA      1517       1    5291    2427    2425    2655    6781    2444+ 
+           5818    6590    6779    6780
CTETRA      1518       1    1585     285    1805    2001    1584    6899+ 
+           7008    1973    6898    6896
CTETRA      1519       1     421    2090    2550      36    6635    2551+ 
+           6782    2467    2553    2552
CTETRA      1520       1    1812    1793     294     324    3760    1791+ 
+           3759    1480    6164    5517
CTETRA      1521       1     270     271    1365    2249    1362    1366+ 
+           3369    6783    5619    6387
CTETRA      1522       1    3830    4794    3829    4787    1415    1451+ 
+           3940    2312    5145    6838
CTETRA      1523       1    2280    2090    2550     421    6629    2551+ 
+           6003    2323    6635    6782
CTETRA      1524       1    1641     299    1643    1590    3711    3715+ 
+           1642    5803    5802    2719
CTETRA      1525       1    5301    3658    1771    1774    5676    3665+ 
+           5696    5824    3668    1773
CTETRA      1526       1    1585    1588    1999    1803    1587    1602+ 
+           2072       2     351    1604
CTETRA      1527       1    5308    3403    3405    2088    6279    3434+ 
+           6785    6247    5325    6784
CTETRA      1528       1    5319    5302    5288    5316    6013    6330+ 
+           6244    6144    6154    6023
CTETRA      1529       1    1613    1563    1665    1662    3536    3580+ 
+           6786    5791    3577    1664
CTETRA      1530       1     299    1588     298    5306    5804    1647+ 
+           1810    2049    1608    6981
CTETRA      1531       1    2280    2550     268    2274    6003    6787+ 
+           6520    2325    6001    6519
CTETRA      1532       1     245     263     246      44    1354    3363+ 
+           1301    6654    6491    5378
CTETRA      1533       1    1598    2027    1818    1601    6676    5503+ 
+           6789    1600    5685    6788
CTETRA      1534       1    5310     603    1762    2260    6476    3649+ 
+           6615    5837    6473    6472
CTETRA      1535       1     154    5300     155     972    6183    6683+ 
+            960    3019    5661     971
CTETRA      1536       1    5306      72    2778     609    6983    2797+ 
+           1377    6160     607    2798
CTETRA      1537       1    1598    1596    1818    2027    1597    5493+ 
+           6789    6676    5504    5503
CTETRA      1538       1    2507    2252     430     391    5613    2318+ 
+           6755    5486    2319    2286
CTETRA      1539       1     421     486    2456    2090    2479    2485+ 
+           2482    6635    2091    5982
CTETRA      1540       1     781    2982    2917     887    2990    6225+ 
+           6890     906    6239    2928
CTETRA      1541       1     324    1779     294    1818    6790    1778+ 
+           5517    5494    3757    3756
CTETRA      1542       1     433    2425    2250    2251    2452    6637+ 
+           2361    2362    6016    2363
CTETRA      1543       1     421    2550      18      36    6782    6169+ 
+            419    2467    2552    2469
CTETRA      1544       1     430      29     470    2080    2431     471+ 
+           2447    6090    2510    2081
CTETRA      1545       1    1598    4805    3878    3890    6675    6680+ 
+           4041    4040    6679    4043
CTETRA      1546       1    3903    1625    2010    3904    4066    6715+ 
+           6311    4068    4064     790
CTETRA      1547       1    2550     421     396    2280    6782    2287+ 
+           6002    6003    2323    2324
CTETRA      1548       1    5313     293    5314    1796    6821    5353+ 
+           5901    5908    1795    5907
CTETRA      1549       1     229     207    2507     236    1278    6791+ 
+           6083    1280    3324    5614
CTETRA      1550       1    5313      73    1807     616    6820    3764+ 
+           6800    1616     618    3765
CTETRA      1551       1    2013    2010     309    1622    2012    6717+ 
+           6446    6532    6716    6314
CTETRA      1552       1    5313    1628    2007    1630    5890    5896+ 
+           5898    5539    1629    6454
CTETRA      1553       1    5291    2726      63     588    5817    2747+ 
+           5444    6792    2748     589
CTETRA      1554       1    5287    4674    5315    5314    6043    5922+ 
+           5528    5938    5924    5925
CTETRA      1555       1    4726    2013    1622    2010    4847    6532+ 
+           6534    4848    2012    6716
CTETRA      1556       1     616    1805    2003     613    3767    6693+ 
+           5943     614    3768    6945
CTETRA      1557       1    5291    2077    2080    2649    5445    2079+ 
+           6589    6591    6750    6587
CTETRA      1558       1    4737    3864    3862    3863     198    4172+ 
+            196    5602    4227    4245
CTETRA      1559       1    4724    3859    3872    3871    5961    4233+ 
+           6663    5382    4237    4058
CTETRA      1560       1    5319    5320    4680    4676    6243    6252+ 
+           6251    6130    6336    4711
CTETRA      1561       1    5292    2727    3436      63    6794    6793+ 
+           5481    5447    2749    5453
CTETRA      1562       1    3861    3870    4716    4807    4243    1690+ 
+           2745    6178    1871    4948
CTETRA      1563       1    1877    1967    4419    4520    2151    4453+ 
+           6796    4651    4653    6795
CTETRA      1564       1     389      13    2246     386    2208    6688+ 
+           2311     388    2210    2313
CTETRA      1565       1     236    1365    2247     227    3374    5626+ 
+           5625    3373    1364    6797
CTETRA      1566       1     389     391    2247     362     390    2315+ 
+           2316    2212    2233    6748
CTETRA      1567       1     666    4520     663    1877    6799    6798+ 
+            664    3793    4651    3794
CTETRA      1568       1    4737    3864    4741    4742     198    6571+ 
+           5024    5026    6569    5028
CTETRA      1569       1    5313    2003    1807    1630    5904    6692+ 
+           6800    5539    6455    6684
CTETRA      1570       1      67     250    5317      65    3336    6215+ 
+           5968     591    1310    6192
CTETRA      1571       1     673     676    4419    1953     674    6669+ 
+           6801    4367    4366    4444
CTETRA      1572       1    5317    2688    3403      67    6814    5414+ 
+           5967    5968    2703    5394
CTETRA      1573       1    5314     293    5289    1796    5353    5354+ 
+           5352    5907    1795    6224
CTETRA      1574       1    2688    3403      67      55    5414    5394+ 
+           2703    2704    5393     592
CTETRA      1575       1     673     668      85    4420    2842    2841+ 
+            671    6803    6802    5728
CTETRA      1576       1    5317    2088    3403    2688    6274    5325+ 
+           5967    6814    5415    5414
CTETRA      1577       1     270    2244    2243    2249    6804    2369+ 
+           5373    6783    2370    2371
CTETRA      1578       1     540     251    5317    1306    5479    6270+ 
+           5327    3435    3342    5337
CTETRA      1579       1     673    4419     668    4420    6801    6805+ 
+           2842    6803    4448    6802
CTETRA      1580       1    5308    2088     281     277    6247    1909+ 
+           1911    5755    6636    1388
CTETRA      1581       1    1628    3903    4727    3796    4067    6310+ 
+           6312    4070    3954    6700
CTETRA      1582       1    2691    5317    2088    2550    6241    6274+ 
+           1328    6280    5330    2562
CTETRA      1583       1    4516    1967    4419    1877    4652    4453+ 
+           5723    4645    2151    6796
CTETRA      1584       1    2688    5317    2088    2687    6814    6274+ 
+           5415    2711    6813    6771
CTETRA      1585       1    3903    4727     316    1901    6310    6701+ 
+           3950    3949    6806    1902
CTETRA      1586       1    2690    2090    2088    2686    6259    2089+ 
+           6772    2720    6245    5412
CTETRA      1587       1     666     673     676    4419    2847     674+ 
+           2845    6667    6801    6669
CTETRA      1588       1    1658    1825    1609    1827    3739    6831+ 
+           6623    3737    1826    6622
CTETRA      1589       1    3691    2270    2268    2271    6231    2416+ 
+           6580    6230    2407    2334
CTETRA      1590       1    5303    1774     294    1779    6015    1776+ 
+           5519    6017    3662    1778
CTETRA      1591       1    1875    4420    4517      83    5718    6807+ 
+           4613    3789    6808    6809
CTETRA      1592       1    2245     384     386    2183    2308     385+ 
+           2307    6742    2241    2231
CTETRA      1593       1     247     246      44     245    1302    5378+ 
+           3412    3339    1301    6654
CTETRA      1594       1    2263       9    1753     232    6905    3643+ 
+           1924    6925    1263    1752
CTETRA      1595       1    1692    1473    1527    1476    3634    3478+ 
+           6810    3637    1474    3511
CTETRA      1596       1    5283    5286    5288    2264    5361    5357+ 
+           5360    5369    5366    5410
CTETRA      1597       1    5308    2071    3403      55    5776    6561+ 
+           6279    6281    6560    5393
CTETRA      1598       1    2263    2185    3669    1753    1943    6951+ 
+           1311    1924    6952    3675
CTETRA      1599       1    5200     287     283    1743    5206    3596+ 
+           6572    5205    1744    3597
CTETRA      1600       1    2612    2457    2074     496    5760    6938+ 
+           6026    6156    2488    2075
CTETRA      1601       1    5303    3658    1746    2183    5675    3666+ 
+           6018    6004    6093    6092
CTETRA      1602       1    2612    2608    2074    2609    2629    6146+ 
+           6026    2630    2631    6076
CTETRA      1603       1    5295    3146    1128    3147    6344    3231+ 
+           6811    6343    3235    3234
CTETRA      1604       1    2612     576    2457      33    2617    5761+ 
+           5760    2616     577    2476
CTETRA      1605       1    5283    2187    5285    2188    6812    6445+ 
+           5348    5347    2228    5346
CTETRA      1606       1    4785    4795    1093    4789    5130    1822+ 
+           1801    5137    5141    2059
CTETRA      1607       1    5317      65    2687    2688    6192    2710+ 
+           6813    6814    2708    2711
CTETRA      1608       1    4785    4784    1097    1093    5132    6496+ 
+           6113    1801      26    3062
CTETRA      1609       1    2253    2776     408     405    6220    2812+ 
+           2337    2336    2813     406
CTETRA      1610       1    5312     740    1901      98    6058    6958+ 
+           5564    6059    2867    1900
CTETRA      1611       1    5323    5294    1130    1133    6819    6815+ 
+           6817    6818    6816    1132
CTETRA      1612       1    1901    4731    2156    2159    5561    4899+ 
+           5725    5560    4900    2158
CTETRA      1613       1    5289    1796     293    1768    6224    1795+ 
+           5354    6237    3694    1769
CTETRA      1614       1    5312     114    1901     740    6452    6450+ 
+           5564    6058    5449    6958
CTETRA      1615       1    5294    3146    3147    3150    5991    3235+ 
+           6345    5537    3255    3165
CTETRA      1616       1    2010    3904    1622    4726     790    4065+ 
+           6716    4848    6914    6534
CTETRA      1617       1    5289    3691    2770    2271    6232    6424+ 
+           5351    5565    6230    6423
CTETRA      1618       1    4801    1888    2156    2159    5547    5724+ 
+           4939    4938    5615    2158
CTETRA      1619       1    3146    5295    5324    3145    6344    6397+ 
+           6295    3232    6405    6292
CTETRA      1620       1    1575    1681     297    1679    3590    3705+ 
+           6459    3591    1680    3709
CTETRA      1621       1    5313     297      73     293    5540    3769+ 
+           6820    6821    1850    1764
CTETRA      1622       1    3825    4794    3829    3830    1417    1451+ 
+           4145    4143    1415    3940
CTETRA      1623       1     828     832     686     716     830    6822+ 
+           6766    6824    6823    2854
CTETRA      1624       1    3827    2154    1630    2003     179    2124+ 
+           4072    2133    2153    6455
CTETRA      1625       1    3853    4813    4807    3861    5364    4956+ 
+           5365    4204    6825    6178
CTETRA      1626       1    4797    1893    3820    4802     439    4078+ 
+            458    5162     446     106
CTETRA      1627       1     686     690     712     832     688    2856+ 
+           2857    6822    6826    6827
CTETRA      1628       1    2902    1906     119     110    6250    6604+ 
+           2905    2904    6758     850
CTETRA      1629       1    1560    1611    1660    1662    3534    6828+ 
+           3576    3578    5789    1661
CTETRA      1630       1    1890    1893    4802    3820    1891     446+ 
+           6054    4079    4078     106
CTETRA      1631       1    1865     828     686    1867    6678    6766+ 
+           3783    1866    6677    3779
CTETRA      1632       1    3819    4800    4801    3822      80    5156+ 
+            961    4135      84     964
CTETRA      1633       1    2247     227      14     362    6797    1254+ 
+           6749    6748    3311     363
CTETRA      1634       1    4803    3818    3819    3800    1396    4104+ 
+            365     377    4094    4101
CTETRA      1635       1     686     832    1863     690    6822    6829+ 
+           3782     688    6826    3781
CTETRA      1636       1    5311    1890    5312     818    5880    6065+ 
+           5872    6620    5617    6619
CTETRA      1637       1    5303    5318    5302    2265    6007    6331+ 
+           5665    6317    6206    5994
CTETRA      1638       1    3808    4816    1085    4782    2025    6080+ 
+           3975    1772    5119    2572
CTETRA      1639       1      96    4510      93      97    6640    6830+ 
+            731     733    6639    2864
CTETRA      1640       1    5305    4422    4525    4416    5900     191+ 
+           1542      47    4435    5702
CTETRA      1641       1    1658    1660    1609    1825    1659    5575+ 
+           6623    3739    3738    6831
CTETRA      1642       1    4523     646     657    4319    5773    2838+ 
+           2039    5771    5772    4358
CTETRA      1643       1     310      93    4464    4511    1851    6832+ 
+           6835    4599    6833    6834
CTETRA      1644       1    4523    4422     102    4319    5927    6995+ 
+           6990    5771    5899    5670
CTETRA      1645       1    1683    1633    1630    1807    6393    1631+ 
+           6094    3708    6836    6684
CTETRA      1646       1    4416     698    4531     701    5831    5830+ 
+           5832      43    2849      41
CTETRA      1647       1    2564     544      69     244    2575    6837+ 
+           6462    6538    6609    6355
CTETRA      1648       1     701    2136    4416     698     242    4432+ 
+             43    2849    2348    5831
CTETRA      1649       1    4787    3828    3829    1633    5794    4146+ 
+           6838    6839    4073    3938
CTETRA      1650       1    2136     698      86    4532    2348     699+ 
+           2147    5819    5833    5853
CTETRA      1651       1    4510      93    4464     310    6830    6832+ 
+           6840    4600    1851    6835
CTETRA      1652       1    2136    4417    2134      86    4439    4462+ 
+           2135    2147    2139     431
CTETRA      1653       1    2003    1633    1805    1807    6842    6841+ 
+           6693    6692    6836    1806
CTETRA      1654       1    4523     646     101    1921    5773    2248+ 
+           1019    4555    4314    2101
CTETRA      1655       1     118    4465    4510      97    6652    6843+ 
+           6359    6638    6517    6639
CTETRA      1656       1    1921    1919     646     101    1920    4318+ 
+           4314    2101    2100    2248
CTETRA      1657       1    5304    5319    5316    5302    6012    6144+ 
+           6143    5666    6013    6154
CTETRA      1658       1     716    4323     718     843    4380    4381+ 
+            717    2288    1391    1393
CTETRA      1659       1     870    4739    2163    2165    6844    4905+ 
+           5864    5688    4906    2164
CTETRA      1660       1     841     838     709    4329     839    5920+ 
+            660    5960    5959    4374
CTETRA      1661       1    2550     556     492    2580    6170    6171+ 
+           2559    6846    2584    6845
CTETRA      1662       1    4321     712     841     716    4377     665+ 
+           1715    4378     714    2290
CTETRA      1663       1     870    2916    2163     873    2933    6067+ 
+           5864     871    2929    6068
CTETRA      1664       1    4321    4329     841     712    4379    5960+ 
+           1715    4377    4375     665
CTETRA      1665       1    2260    2774    5310     603    6466    5843+ 
+           5837    6473    2820    6476
CTETRA      1666       1    5298    3142    1155    1157    2497     814+ 
+            523    6348    2157    1156
CTETRA      1667       1    4739     870    3851    2165    6844    3957+ 
+           6848    4906    5688    6847
CTETRA      1668       1    5298    3144    3142    3141    6361    3242+ 
+           2497    6214    3243    3244
CTETRA      1669       1    5310    1760    2778     291    6477    6631+ 
+           6120    6850    1759    6849
CTETRA      1670       1    5298    3143    3145    3144    6213    3228+ 
+           6291    6361    3246    3249
CTETRA      1671       1    3849     870    3851    4739    3962    3957+ 
+           3965    6851    6844    6848
CTETRA      1672       1    2021     345    2024    1827    6261    6858+ 
+           2022    1895    3749    6859
CTETRA      1673       1    2778     605     291    1760    2796    3650+ 
+           6849    6631    3651    1759
CTETRA      1674       1     194     195    4770     192    1071     840+ 
+           5999    3050    1069    5997
CTETRA      1675       1     870     867    3851    2165     869    3958+ 
+           3957    5688    5687    6847
CTETRA      1676       1     190     192    5295    5293    1066    5512+ 
+           5501    5498    2526    5502
CTETRA      1677       1    5303    1779    5318     288    6017    6852+ 
+           6007    6006    1780    6008
CTETRA      1678       1    5293     190     188     148    5498    1062+ 
+            857    5490    1168    3265
CTETRA      1679       1    2654      24     444    2427    2659     445+ 
+           2656    6853    2440    2439
CTETRA      1680       1    1488    2034    4753    5191    6218    4870+ 
+            713    6217    5265    2547
CTETRA      1681       1    2090    2550    2690    2088    2551    6854+ 
+           6259    2089    2562    6772
CTETRA      1682       1    5191    1711    1491    1488    5230    5813+ 
+           5811    6217    2239    1490
CTETRA      1683       1    2654    2080    2427     470    6074    6089+ 
+           6853    6756    2081    2450
CTETRA      1684       1    1488    3875    4759    3885    4007     763+ 
+            715    4003    4008    2111
CTETRA      1685       1    4728    3859    4733    4729    5963    6855+ 
+           5007    5001    6362    5008
CTETRA      1686       1      81     632     783     794    2830     550+ 
+           6323    6322    2680    2882
CTETRA      1687       1    2654     467    2080     470    6073    2518+ 
+           6074    6756     468    2081
CTETRA      1688       1     632    1915     794      81    4308    6309+ 
+           2680    2830    6305    6322
CTETRA      1689       1     477     486    2692    2456    2489    6856+ 
+           2694    2472    2485    6199
CTETRA      1690       1      77      81     785     794     644    6324+ 
+           2278    2689    6322    2881
CTETRA      1691       1    2654     467      23     531    6073    2064+ 
+           2657    2658    6072     532
CTETRA      1692       1    1915     908     794    1917    4628    2962+ 
+           6309    1916    4631    2411
CTETRA      1693       1    1827      11     345    2024    3748     344+ 
+           3749    6859    6857    6858
CTETRA      1694       1      81     783     641     890    6323     552+ 
+            643     892    6338    2921
CTETRA      1695       1     603    2260     412      71    6473    2343+ 
+           2795     602    6471    2794
CTETRA      1696       1    5295    5298    4760    5324    6404    6308+ 
+           6197    6397    6290    5631
CTETRA      1697       1     489      32    2580     492    2065    2582+ 
+           6860     491    2470    6845
CTETRA      1698       1    1471     144    1468    1697    3470    3472+ 
+           1470    3632     322    3633
CTETRA      1699       1    2242     414     258    2773    2347    6861+ 
+           6863    6864    2791    6862
CTETRA      1700       1    3142    1184    1202    1155    6942    3292+ 
+           3237     814    3128    5550
CTETRA      1701       1    3889    3896    3888    4721    4001    4285+ 
+           4278    5839    6734    6865
CTETRA      1702       1    1202    1155    3149    3142    5550     816+ 
+           3187    3237     814    3238
CTETRA      1703       1    1628    2010    2007    4727    5895    2008+ 
+           5896    6312    4843    4844
CTETRA      1704       1    5296    5324    1083    4761    5632    6211+ 
+           5554    5585    5633    5582
CTETRA      1705       1     952     151     957    5321     953    3016+ 
+           3017    6085    6575    6041
CTETRA      1706       1    5298    3154    3140    3141    6349    3222+ 
+           6191    6214    3241    3239
CTETRA      1707       1    1577     297    1575    1681    5913    6459+ 
+           1576    3589    3705    3590
CTETRA      1708       1    5298    3144    1155    3142    6361     525+ 
+            523    2497    3242     814
CTETRA      1709       1     477    2692     489      32    2694    6866+ 
+           2471     478    2695    2065
CTETRA      1710       1    3808    3798    4783    3799    3979    6514+ 
+           2484    4087    4086    1439
CTETRA      1711       1    1628    1575    1577     297    3548    1576+ 
+           3547    5912    6459    5913
CTETRA      1712       1    1083    4762    3806    4810    6300    1136+ 
+           3972    5583    5069    1138
CTETRA      1713       1    3858    3833    4729    3869    4150    6867+ 
+           6869    4152    4147    6868
CTETRA      1714       1    3805    4767    1080    1527    1475     302+ 
+           3968    3970     304    3934
CTETRA      1715       1     297    1630    1681    1577    5541    6095+ 
+           3705    5913    3550    3589
CTETRA      1716       1     983     181     156     200    3275    1209+ 
+            984    1338    1344    1751
CTETRA      1717       1    5303    5318    5319    5302    6007    6173+ 
+           6014    5665    6331    6013
CTETRA      1718       1    2277    5308    2074    2071    5775    6077+ 
+           5433    5434    5776    2073
CTETRA      1719       1    1746     288    1779    5303    1745    1780+ 
+           3661    6018    6006    6017
CTETRA      1720       1     158     987     983     203     986    3027+ 
+           3026    3177    3176    1307
CTETRA      1721       1    5318    2021    4680     347    6257    4702+ 
+           6253    6201    6260    6773
CTETRA      1722       1     314     130    1913     136    1739    1742+ 
+           1912    4570     823    4573
CTETRA      1723       1    2246    1748    2245     353    6873    6870+ 
+           2314    6872    3640    6871
CTETRA      1724       1    1893     815    5311     812    5877    5881+ 
+           5879    1525     813    1519
CTETRA      1725       1    1601    2024     288      11    5682    6874+ 
+           6875    6876    6857    1750
CTETRA      1726       1    5299     809    2917     127    5650    5649+ 
+           5645    6369     810    6888
CTETRA      1727       1    1746     353     356    2183    3642     355+ 
+           3641    6092    2229    2206
CTETRA      1728       1     809    2982    2917     127    2992    6225+ 
+           5649     810    2991    6888
CTETRA      1729       1    1560    1613    1611    1662    3537    1612+ 
+           3534    3578    5791    5789
CTETRA      1730       1    4791    4798     812    1893    5152    1521+ 
+           1530     434     437    1525
CTETRA      1731       1    2188    5283    1755     290    5347    6877+ 
+           5340    6371    6431    1756
CTETRA      1732       1     797     905     794    1915    2959    2963+ 
+            796    6365    4629    6309
CTETRA      1733       1      10    2188     290    5284    2202    6371+ 
+           1757    6878    5344    6430
CTETRA      1734       1    5299    4791     812    1896    2083    1530+ 
+            930    2084    1496    1528
CTETRA      1735       1    5284     307    1788     290    6643    3743+ 
+           6198    6430    1838    1787
CTETRA      1736       1    5304    1997     324    1793    6126    1996+ 
+           5515    6163    5730    6164
CTETRA      1737       1    5304    4679    5319    4677    6127    6129+ 
+           6012    6155    4685    6174
CTETRA      1738       1    4773    1505    4774    3843    6438    2511+ 
+           4925    6411    4021    6410
CTETRA      1739       1    5284     290      10     307    6430    1757+ 
+           6878    6643    1838    3746
CTETRA      1740       1    5198    1499    1722    1501     693    1096+ 
+           5238     672    1500    6500
CTETRA      1741       1    3878    4806    1601    3852    6881    6879+ 
+           4042    4046    6880    4044
CTETRA      1742       1    1727    1730    1505    1436    1728    6759+ 
+           6761    3610    3607    3494
CTETRA      1743       1    5283     290    1788    1755    6431    1787+ 
+           5377    6877    1756    3672
CTETRA      1744       1    1036     974     972     966    6931     973+ 
+           5653    3272    3023    3025
CTETRA      1745       1    1605    1827    2024    1601    6884    6859+ 
+           6883    1603    6882    5682
CTETRA      1746       1    3157     974    3152    1160    3196    3188+ 
+           3197    2033    6582    1110
CTETRA      1747       1    5284    1788     307    1832    6198    3743+ 
+           6643    6650    3745    1833
CTETRA      1748       1    3808    4816    4783    1089    2025    5120+ 
+           2484    3974    2023    2786
CTETRA      1749       1    5318    2021     345    2024    6257    6261+ 
+           6262    6256    2022    6858
CTETRA      1750       1    3153    1160    3152     972    5734    1110+ 
+           3194    3193    6583    3189
CTETRA      1751       1    5284    1832     307    1619    6650    1833+ 
+           6643    6422    6649    5664
CTETRA      1752       1    3157    1160    3152    3156    2033    1110+ 
+           3197    3260    2538    3259
CTETRA      1753       1    1665    5284     306    1617    6886    6885+ 
+           3728    6777    6644    6776
CTETRA      1754       1    4518     855    4467     852    6242      59+ 
+           1932    6273     854    1934
CTETRA      1755       1     307    1668    1568    1671    3726    3581+ 
+           5663    3730    1669    3584
CTETRA      1756       1     262     268     263    2274    3394    1355+ 
+           1339    6506    6519    6573
CTETRA      1757       1    1306     251    5317     250    3342    6270+ 
+           5337    3337    1312    6215
CTETRA      1758       1     878     864    2916     120    6595     113+ 
+           2924    6596     865     133
CTETRA      1759       1    1085    5296    1109    1112    5555    6887+ 
+           3085    3077    5556    1111
CTETRA      1760       1     882     852    4466    4467    6593    6510+ 
+            126    6601    1934    4496
CTETRA      1761       1    4715    4724    3871    4728    4858    5382+ 
+           6418    4946    4949    5962
CTETRA      1762       1     864    2913    2915    2914    6284    2941+ 
+           6285    1656    2944    2936
CTETRA      1763       1     781    2917     127     638    6890    6888+ 
+            780    6374    2918    6889
CTETRA      1764       1    4741    3856    3864    3863     610    4224+ 
+           6571     723    4217    4227
CTETRA      1765       1    4821    4817    3898    4818    5184    5611+ 
+           6161    5189    5188    5551
CTETRA      1766       1    4797    1893    4791    3802     439     434+ 
+           5149     463    4082    1510
CTETRA      1767       1     217     508    5282      58    5953    5505+ 
+           5589    1230    5507    5506
CTETRA      1768       1    2276    1402     274    2270    5403    1403+ 
+           5405    2418    6548    2176
CTETRA      1769       1     562    2550    2580     556    5397    6846+ 
+           2585    2591    6170    2584
CTETRA      1770       1    4741    4748    3864    3857    5034    6570+ 
+           6571     608     702    4179
CTETRA      1771       1    2276    2272     274     272    2420    6891+ 
+           5405    6633    5977    1371
CTETRA      1772       1    4765    1884     314     129    1556    1883+ 
+           1552    2581    2152    2558
CTETRA      1773       1    3880    3893    4718    3881    4265    6892+ 
+           6893    4215    4266    6484
CTETRA      1774       1     129    1896     134     314    2087    4572+ 
+            821    2558    1898    4571
CTETRA      1775       1    2276     277    1406     268    6632    3396+ 
+           5404    6518    1411    3395
CTETRA      1776       1    3893    3886    4719    4718    4270    6478+ 
+           5799    6892    6483    4966
CTETRA      1777       1    1827    1609    1554    1605    6622    3533+ 
+           6621    6884    1607    3531
CTETRA      1778       1    3880    4822    3893    3892    6739    6618+ 
+           4265    4263    6617    4267
CTETRA      1779       1    2280    2276     268     277    2424    6518+ 
+           6520    5752    6632    1411
CTETRA      1780       1    3897    3893    3886    4719    4281    4270+ 
+           4280    5800    5799    6478
CTETRA      1781       1    2097     417    2771      20    6895    2782+ 
+           6894    6625     418    2783
CTETRA      1782       1    3899    4815    3895    1145    2131    2309+ 
+           3995    3990    2128    3994
CTETRA      1783       1    5309    2279    2273    2277    5957    2421+ 
+           5869    5777    2357    2295
CTETRA      1784       1    4748    3841    4747    4749    2345    1363+ 
+           5050    5038    2513    4916
CTETRA      1785       1     285    1805    2001    1633    6899    6896+ 
+           6898    1634    6841    6897
CTETRA      1786       1    4733    4738    3866    4737    5018    6703+ 
+           1081    5016    5020     338
CTETRA      1787       1    3404    2071    3405     281    6902    6900+ 
+           3431    3424    6901    3430
CTETRA      1788       1     238    3355     255     244    3357    1323+ 
+           1346    1300    3356    6356
CTETRA      1789       1    2507      42      15    2536    6904     528+ 
+           6082    6903    2539    2540
CTETRA      1790       1    2722    2564    2727      69    2121    6608+ 
+           2754    2755    6462    2744
CTETRA      1791       1     375       9    2263    2273    2193    6905+ 
+           2297    2293    6906    2299
CTETRA      1792       1    4750    4748    4741    3857    5036    5034+ 
+           5032    1144     702     608
CTETRA      1793       1     540     537    5317    2550     538    5336+ 
+           5327    2554    2563    5330
CTETRA      1794       1    3852    3879    4806    4813    4199    6977+ 
+           6880    5363    5905    5170
CTETRA      1795       1    2273     375       7     334    2293    2194+ 
+           6907    6436    2196     333
CTETRA      1796       1    5291    2727      63    2726    2376    2749+ 
+           5444    5817    2753    2747
CTETRA      1797       1    4513     118    4465    4510    6685    6652+ 
+           6908    4597    6359    6843
CTETRA      1798       1    2021    2024    1609    1827    2022    2811+ 
+           6488    1895    6859    6622
CTETRA      1799       1    2273     237     231    1368    5868    3376+ 
+           6909    6634    3377    1367
CTETRA      1800       1    4801    3821    3822    3823    5546    4138+ 
+            964      12    4077    4139
CTETRA      1801       1     556    2580      30     492    2584    2583+ 
+            558    6171    6845    2464
CTETRA      1802       1    4801    1888    3821    3823    5547    4076+ 
+           5546      12    3948    4077
CTETRA      1803       1    2273     372     375     334    2294     374+ 
+           2293    6436    2191    2196
CTETRA      1804       1     244    2095     243     257     135     574+ 
+           1299    3361     137    1348
CTETRA      1805       1     517    2507    2077      60    2521    2512+ 
+           2519    6912    6910    6911
CTETRA      1806       1    2095    2097     571    2564    2096    1848+ 
+           6695    2574    2571    6694
CTETRA      1807       1    5309    2272    1368    2273    5979    6626+ 
+           6627    5869    2415    6634
CTETRA      1808       1     566     453     455    2564    2603     454+ 
+           1193     157    2568    2567
CTETRA      1809       1      48     628     263    2550     630    3351+ 
+           3350    6287    6913    6449
CTETRA      1810       1    5292     252     280    3437    6594    1416+ 
+           5787    5786    3450    3463
CTETRA      1811       1    4726    3904    1622    3831    6914    4065+ 
+           6534    6533    3916    4062
CTETRA      1812       1    5292     252     275     280    6594    3400+ 
+           5422    5787    1416    1385
CTETRA      1813       1    2606    2610    2071    2607    2633    5918+ 
+           5343    2640    2639    5341
CTETRA      1814       1    2727    5291    5292    3437    2376    5421+ 
+           6794    1845    5438    5786
CTETRA      1815       1    2013    1832    1622     309    6020    6315+ 
+           6532    6446    1831    6314
CTETRA      1816       1    2726     459    2425    2097    2846    2453+ 
+           5815    5816    2565    5814
CTETRA      1817       1    4730    4735    4731     100    5013    4904+ 
+           5006    6917    6915    6916
CTETRA      1818       1    4794    3829    4787    3828    1451    6838+ 
+           5145    5795    4146    5794
CTETRA      1819       1     508    2610      58      57    5917    2624+ 
+           5507    5885    2625     579
CTETRA      1820       1    1888    5312    1890     112    6997    6065+ 
+           1889    6996    6453      99
CTETRA      1821       1     508     217    1234      57    5953    3306+ 
+           3422    5885    3302    3303
CTETRA      1822       1     803    2914     864    2916    5639    1656+ 
+           2989    5640    2934     113
CTETRA      1823       1     705     105    4328     838    5916    6918+ 
+           4371    5914     837    5919
CTETRA      1824       1    2916     120     803     114     133    2985+ 
+           5640    6465     849     802
CTETRA      1825       1      55     508    3403     218    5886    3420+ 
+           5393    3380    3421    3419
CTETRA      1826       1     316    2156    3823    1888    2126       8+ 
+           3947    1887    5724    3948
CTETRA      1827       1    4331    4320    4319     104    4405    4404+ 
+           4364    5891    6919    5769
CTETRA      1828       1      98     100    4731    5312     744    6916+ 
+           6546    6059    6057    5563
CTETRA      1829       1    2492     508    5282     506    2505    5505+ 
+           5333    2496     507    5429
CTETRA      1830       1    1722    1724    5198    1501    1723    5243+ 
+           5238    6500     675     672
CTETRA      1831       1    4331    4332     787     652    4362    6920+ 
+           5892    4361    4333    6921
CTETRA      1832       1    1499    1722    1501    1445    1096    6500+ 
+           1500    3499    3613    3497
CTETRA      1833       1      62      60     517    2651     583    6912+ 
+           6698    2665    2666    6922
CTETRA      1834       1    5312    1901    1888    2159    5564    5726+ 
+           6997    5562    5560    5615
CTETRA      1835       1    1692    1471    1694     197    3635    3636+ 
+           1693    6924    3473    6923
CTETRA      1836       1    4464      94    1927    2145    6691    4354+ 
+           4479    4482     689    2146
CTETRA      1837       1    2273       9    2263     232    6906    6905+ 
+           2299    6926    1263    6925
CTETRA      1838       1      97    2902     120     740    6666    2906+ 
+            736     739    5450    6467
CTETRA      1839       1    1527    2181    1692    1476    6927    5215+ 
+           6810    3511    6568    3637
CTETRA      1840       1    5312     873    2916     740    6069    2929+ 
+           6070    6058    2925    2922
CTETRA      1841       1    5308    2071    3405    3403    5776    6900+ 
+           6785    6279    6561    3434
CTETRA      1842       1    3861    4716    3865    4717    2745    1075+ 
+           4214    1049    4952    1073
CTETRA      1843       1    1044     963    1036    1039    6444    3273+ 
+           3042    3044    3270    1038
CTETRA      1844       1      96     737    2902      97     738    6248+ 
+           6249     733    2865    6666
CTETRA      1845       1    2071    5309     281    3404    5778    5987+ 
+           6901    6902    5989    3424
CTETRA      1846       1     118      96     119      97    6641    6664+ 
+            760    6638     733    6665
CTETRA      1847       1    1692     197    1694    5193    6924    6923+ 
+           1693    5217    6928    5216
CTETRA      1848       1    2916     740      97     120    2922     739+ 
+           2923     133    6467     736
CTETRA      1849       1    2653      60    2077    2507    2662    6911+ 
+           6929    6930    6910    2512
CTETRA      1850       1    1904     140     118     119    4588    2901+ 
+           6358    1834     845     760
CTETRA      1851       1    1036     972     974    1044    5653     973+ 
+           6931    3042    6584    6581
CTETRA      1852       1    2902      96     119    1906    6249    6664+ 
+           2905    6250    4304    6604
CTETRA      1853       1     547    1293      68     238    3461    3330+ 
+           6576    6932    3331    3329
CTETRA      1854       1      25     453     455     566    2437     454+ 
+           2062     568    2603    1193
CTETRA      1855       1     781    1884     127     130    6934    6367+ 
+            780    2878    6933     779
CTETRA      1856       1    2242     258    2260    1392    6863    6964+ 
+           2350     806    1390    2395
CTETRA      1857       1    2272    2262    1785    1374    2410    6306+ 
+           6936    6937    6935    3671
CTETRA      1858       1      20     453    2097      27    2434    2570+ 
+           6625    2436     452    2098
CTETRA      1859       1     797    1913     905    1915    6364    4574+ 
+           2959    6365    1914    4629
CTETRA      1860       1     417    2250    2097    2242    2291    5474+ 
+           6895    2349    2351    5475
CTETRA      1861       1    5308    2457     423    2074    5744    2487+ 
+           5743    6077    6938    6727
CTETRA      1862       1    2252    2077    2507    2080    5457    2512+ 
+           5613    1670    2079    2516
CTETRA      1863       1    1034    5300     183     969    5660    6939+ 
+           1033    3271    6182    3268
CTETRA      1864       1     464      17     366    2507    2428    2215+ 
+            354    2508    5487    5485
CTETRA      1865       1    5282     235      40     234    5595    1268+ 
+           5956    5332    5478    5477
CTETRA      1866       1      60      15     226    2507      66    1250+ 
+            128    6910    6082     282
CTETRA      1867       1    1034     972    3153    3142    5652    3193+ 
+           6940    5952    3191    3192
CTETRA      1868       1    4737    3863    3862    3867    5602    4245+ 
+            196     211    4246    4247
CTETRA      1869       1    2457    2277     423    2074    5971    2353+ 
+           2487    6938    5433    6727
CTETRA      1870       1     517      63      62    2651    5451     585+ 
+           6698    6922    2669    2665
CTETRA      1871       1     797     905    1913     136    2959    4574+ 
+           6364    2960     904    4573
CTETRA      1872       1      39     210     222     208    3439    1243+ 
+           2115    1729    1217    1244
CTETRA      1873       1      37    2277     496    2074    6066    6941+ 
+            494    2495    5433    2075
CTETRA      1874       1     236      39    5292     222    6744    5484+ 
+           5472    3381    2115    5603
CTETRA      1875       1    1200    1184    1202    3142    3294    3292+ 
+           1201    3190    6942    3237
CTETRA      1876       1     206     225    1252      60    1274    1251+ 
+           3321    1226    1249    6959
CTETRA      1877       1    2263     378     342       9    2296    2197+ 
+           6943    6905    2199     343
CTETRA      1878       1    2652    2649    2077    2650    2683    6750+ 
+           6752    2682    2681     853
CTETRA      1879       1    1495    1499    2040    2173    1497    6944+ 
+           5714    5534    5532    2175
CTETRA      1880       1    1598    2027    3878    4805    6676     885+ 
+           4041    6675    4826    6680
CTETRA      1881       1    5315     613     616    2003    6946     614+ 
+           5941    5942    6945    5943
CTETRA      1882       1    3878    4805    4806    4812    6680    4865+ 
+           6881    6681    5168    5167
CTETRA      1883       1    1495    1499    1720    2040    1497    6765+ 
+           5712    5714    6944    5241
CTETRA      1884       1    3878    4812    4806    3879    6681    5167+ 
+           6881    4201    6978    6977
CTETRA      1885       1    1365    2246    2247     227    6386    2317+ 
+           5626    1364    6718    6797
CTETRA      1886       1    1532     284     286     285    1531    3553+ 
+           3552    3512    3513    7003
CTETRA      1887       1    1447    1720    1449    1495    3615    3617+ 
+           1448    3501    5712    3500
CTETRA      1888       1    2537     464    2507     467    6955    2508+ 
+           6045    6956     465    2517
CTETRA      1889       1    5314    4675    5315    2003    5923    5921+ 
+           5925    5903    4692    5942
CTETRA      1890       1      23      16    2537     464     441    2544+ 
+           2543    2430    2429    6955
CTETRA      1891       1    5196    1449    1720    1495    5757    3617+ 
+           5235    5713    3500    5712
CTETRA      1892       1    2507    2247     362     229    6607    6748+ 
+           6081    6083     862    3313
CTETRA      1893       1    2774     412    2260    2258    2815    2343+ 
+           6466    5842    2341    2346
CTETRA      1894       1     467    2507     531    2080    2517    6046+ 
+           6072    2518    2516    6071
CTETRA      1895       1      67      65    5317    2688     591    6192+ 
+           5968    2703    2708    6814
CTETRA      1896       1     307    1566    1617    1619     654    3538+ 
+           6642    5664    3541    1618
CTETRA      1897       1     334    2492     372       6    6947    5454+ 
+           2191     335    5969    2192
CTETRA      1898       1    4737    3862    3866    3867     196    4165+ 
+            338     211    4247    4239
CTETRA      1899       1    3804    3807    3806    4781    4112    4120+ 
+           4118    6950    6948    6949
CTETRA      1900       1    5313    1836    1628     297    6686    6458+ 
+           5890    5540    1835    5912
CTETRA      1901       1    1753    2185    3669    1755    6952    6951+ 
+           3675    1754    5339    3677
CTETRA      1902       1    5313      73     296    1807    6820    1849+ 
+           5543    6800    3764    1808
CTETRA      1903       1    1223     206     519     517    3296    6953+ 
+           3467    3456    6954     518
CTETRA      1904       1    1625    1836    2010     309    6705    1559+ 
+           6715    6713    1837    6717
CTETRA      1905       1    5314    2003    2007    4675    5903    2005+ 
+           5902    5923    4692    4691
CTETRA      1906       1     740     737      97    2902    2866    2865+ 
+            739    5450    6248    6666
CTETRA      1907       1      60     517    2651    2077    6912    6922+ 
+           2666    6911    2519    6760
CTETRA      1908       1    5316    2255    2267    2261    6153    2397+ 
+           6376    6236    2392    2400
CTETRA      1909       1    5318    5302    2265    5288    6331    5994+ 
+           6206    6205    6330    6207
CTETRA      1910       1    5289    1782     295    1796    6429    1781+ 
+           5954    6224    3695    1798
CTETRA      1911       1      23     464    2537     467    2430    6955+ 
+           2543    2064     465    6956
CTETRA      1912       1      20      22    2097     453     440    1948+ 
+           6625    2434    2433    2570
CTETRA      1913       1     740     110     114    1901    5448     754+ 
+           5449    6958    6957    6450
CTETRA      1914       1    5310    3680    1762    1760    5838    3686+ 
+           6615    6477    3688    1761
CTETRA      1915       1      60     225    1252      42    1249    1251+ 
+           6959     582    1248    3309
CTETRA      1916       1    1397    2260     259    1392    6521    6522+ 
+           1395    3386    2395    3385
CTETRA      1917       1     605    1760    2778    2774    3651    6631+ 
+           2796    2823    6475    2824
CTETRA      1918       1    1762      71     259    2260    3648    1331+ 
+           1763    6472    6471    6522
CTETRA      1919       1     519      60     206     205    6962    1226+ 
+           6953    6961    6960    1213
CTETRA      1920       1    5284    1788    1832    2013    6198    3745+ 
+           6650    5990    6019    6020
CTETRA      1921       1    4812    3902    3890    4811    5586    3986+ 
+           6682    5169    5558    6699
CTETRA      1922       1    1722    1720    1445    1499    1721    3616+ 
+           3613    1096    6765    3499
CTETRA      1923       1     254     277    2088     268    3402    6636+ 
+           6963    3401    1411    6775
CTETRA      1924       1    2018    1825    1611    1823    1869    6778+ 
+           5608    6659    1824    5790
CTETRA      1925       1      71     259    2260     258    1331    6522+ 
+           6471    3348    1330    6964
CTETRA      1926       1    2271    1766    2268    3691    6030    6031+ 
+           2334    6230    3697    6580
CTETRA      1927       1    2242    2773     258     266    6864    6862+ 
+           6863    6966    6965    3391
CTETRA      1928       1      75     623    1766    2268     624    3655+ 
+           3654    6474    6032    6031
CTETRA      1929       1     414    2260     258      71    2344    6964+ 
+           6861    2789    6471    3348
CTETRA      1930       1      13     386     353    2246    2210    2209+ 
+            352    6688    2313    6872
CTETRA      1931       1    2242    2095    2771    2773    6970    6967+ 
+           6969    6864    6968    2822
CTETRA      1932       1     389      14    2247    2246    2207    6749+ 
+           2316    2311    6689    2317
CTETRA      1933       1     603    2774    1760     605    2820    6475+ 
+           3652     604    2823    3651
CTETRA      1934       1    4737    4738    3866    3835    5020    6703+ 
+            338     336    5442    4157
CTETRA      1935       1    2242    2097    2095    2251    5475    2096+ 
+           6970    2365    5476    6971
CTETRA      1936       1    4737    3863    4741    3864    5602     723+ 
+           5024     198    4227    6571
CTETRA      1937       1    1137    3890    3902    4811    3931    3986+ 
+           3985    6972    6699    5558
CTETRA      1938       1    3404     511    3405    2071    3411    3433+ 
+           3431    6902    2069    6900
CTETRA      1939       1    2242    2773    2771     417    6864    2822+ 
+           6969    2349    2821    2782
CTETRA      1940       1    5309     224    3404    2071    5988    3408+ 
+           5989    5778    1969    6902
CTETRA      1941       1    3891    4812    3890    3878    5587    6682+ 
+           4261    4259    6681    4043
CTETRA      1942       1     254     277     281    2088    3402    1388+ 
+           1418    6963    6636    1909
CTETRA      1943       1     414    2242     417    2773    2347    2349+ 
+            415    2791    6864    2821
CTETRA      1944       1    2088     254      44    3405    6963    2114+ 
+           2556    6784    3416    3415
CTETRA      1945       1      60     205    1252     206    6960    3322+ 
+           6959    1226    1213    3321
CTETRA      1946       1    3880    3892    3879    4822    4263    4262+ 
+           4208    6739    6617    6738
CTETRA      1947       1    1397    1771    2259    2243    3682    6973+ 
+           6975    6976    6974    2373
CTETRA      1948       1    2606    2613    2071    2614    2642    5342+ 
+           5343    2635    2643    5416
CTETRA      1949       1    4812    4806    3879    4813    5167    6977+ 
+           6978    5171    5170    5905
CTETRA      1950       1    2186    5318    2183    2265    6200    6009+ 
+           2224    6600    6206    6316
CTETRA      1951       1     270    2244    1771    2243    6804    5694+ 
+           1770    5373    2369    6974
CTETRA      1952       1    4725    2013    1619    3831    4851    6421+ 
+           6653    6530    6531    4063
CTETRA      1953       1    4725    1617    3872    3869    6980    4057+ 
+           6979    6529    4060    4061
CTETRA      1954       1     100    4731    5312    4735    6916    5563+ 
+           6057    6915    4904    6055
CTETRA      1955       1    2181    1692    1476    1689    5215    3637+ 
+           6568    2180    1691    3598
CTETRA      1956       1    1625    2010    3904    1622    6715     790+ 
+           4064    1623    6716    4065
CTETRA      1957       1    5306      72     298     291    6983    1847+ 
+           6981    6982    1758    3761
CTETRA      1958       1    2013     295     309    2010    6021    1839+ 
+           6446    2012    5928    6717
CTETRA      1959       1    1655    1605     305    1827    5651    6984+ 
+           3724    3725    6884    1828
CTETRA      1960       1    5320    2016    2018    4673    5846    2017+ 
+           5847    5806    4698    4701
CTETRA      1961       1     303    1598    1650    1818    6736    6985+ 
+           3722    1816    6789    3723
CTETRA      1962       1    1566    1563    1665    1617    1564    3580+ 
+           3579    3538    3539    6777
CTETRA      1963       1    1554    1655    1827    1605    3571    3725+ 
+           6621    3531    5651    6884
CTETRA      1964       1    1601    1827    2024      11    6882    6859+ 
+           5682    6876    3748    6857
CTETRA      1965       1    5322    1074    4789     166    6671    6986+ 
+           6988    6989    3051    6987
CTETRA      1966       1    3878    3879    3891    4812    4201    4260+ 
+           4259    6681    6978    5587
CTETRA      1967       1     102     125    4523     124     770    4549+ 
+           6990    2869     768    4550
CTETRA      1968       1    4784    1097    1091    1100    6496    3088+ 
+             21     872    1099    3089
CTETRA      1969       1    4734     873    4735    3833    6994    6991+ 
+           5014    6993    3919    6992
CTETRA      1970       1    1166    1097    4785    1140    6111    6113+ 
+           6112    3099    6497    6499
CTETRA      1971       1    5305    4319     102    4422    5672    5670+ 
+           5674    5900    5899    6995
CTETRA      1972       1    4811    1140    4785    4819     831    6499+ 
+           5139    5142    1088    5134
CTETRA      1973       1    4811    4812    3902    4818    5169    5586+ 
+           5558    5177    5178    5557
CTETRA      1974       1    4819    4811    1140    3902    5142     831+ 
+           1088    5559    5558    3984
CTETRA      1975       1     102    4319    2870     104    5670    5671+ 
+           2872     747    5769    2871
CTETRA      1976       1    4819    4818    3900    4817    5179    5553+ 
+           1086    5187    5188    5610
CTETRA      1977       1    5312    1888    1901     112    6997    5726+ 
+           5564    6453    6996    6451
CTETRA      1978       1      11     305    1601    1827    1841     820+ 
+           6876    3748    1828    6882
CTETRA      1979       1    5305    2870    4319    4320    5673    5671+ 
+           5672    5701    5716    4404
CTETRA      1980       1    5312     873     100    4735    6069     875+ 
+           6057    6055    6991    6915
CTETRA      1981       1     870    2163    4739     873    5864    4905+ 
+           6844     871    6068    6998
CTETRA      1982       1    4735     873    4739    2163    6991    6998+ 
+           4907    4903    6068    4905
CTETRA      1983       1     102    4528     125     773    6999    4558+ 
+            770     774    5940    2964
CTETRA      1984       1    5312    1901    4731      98    5564    5561+ 
+           5563    6059    1900    6546
CTETRA      1985       1    1660    1611    1825    1662    6828    6778+ 
+           3738    1661    5789    3740
CTETRA      1986       1    1901     114     112     110    6450     753+ 
+           6451    6957     754     752
CTETRA      1987       1    1740    1743    1520    1421    1741    5720+ 
+           5722    3602    2123    3480
CTETRA      1988       1    1901     737     740     110    4305    2866+ 
+           6958    6957    6456    5448
CTETRA      1989       1    3796    4727    2007    2154    6700    4844+ 
+           7000    7001    4846    4845
CTETRA      1990       1     154     155    5300    5321     960    6683+ 
+           6183    6040    6042    6086
CTETRA      1991       1    1740    1421    1520    1424    3602    3480+ 
+           5722    3601    1423    3484
CTETRA      1992       1    4793    3822    3828    3823     411    4141+ 
+           5793     167    4139    4140
CTETRA      1993       1    2165    4739    4743    3851    4906    4910+ 
+           4908    6847    6848    7002
CTETRA      1994       1    1142    4819    3900    4817    2254    1086+ 
+           3987    2107    5187    5610
CTETRA      1995       1    1689    2181     287     283    2180    5204+ 
+           1688    3595    6567    3596
CTETRA      1996       1    1517    1737    1426    1514    6492    3599+ 
+           3485    1515    1696    3488
CTETRA      1997       1    1633     285     286    1582    1634    7003+ 
+           7004    3516    3514    3554
CTETRA      1998       1    1118    5298    5296    1115    6190    5572+ 
+           6301    1116    6189     846
CTETRA      1999       1     202    1052    5300     952    7006    7005+ 
+           6087    6088    3280    6084
CTETRA      2000       1    1083    1085    5296    4810    1084    5555+ 
+           5554    5583    2093    5584
CTETRA      2001       1    4738    3834    3850    3849    6702    4154+ 
+           6710    6708    4149    3963
CTETRA      2002       1    3812    4763    3810    4781    1131     420+ 
+           4116    6545    5076    6544
CTETRA      2003       1    2181     283    1476    1524    6567    1478+ 
+           6568    7007    3483    3482
CTETRA      2004       1     666     663    4520    4418     664    6798+ 
+           6799    6668     152    5781
CTETRA      2005       1    1585    1803    1805    1636       2    1804+ 
+           7008       1    3736    3702
CTETRA      2006       1    4520    1877    1879     663    4651    1878+ 
+           4650    6798    3794    3792
CTETRA      2007       1     204    1186    5300     202    3288       4+ 
+           6719    3289    1188    6087
CTETRA      2008       1    4520    1967    4418    1970    4653    4455+ 
+           5781    4654    1968    4454
CTETRA      2009       1    4801    3823    2156    1888      12       8+ 
+           4939    5547    3948    5724
CTETRA      2010       1     313    1875    4517      83    1874    4613+ 
+           4614    1881    3789    6809
CTETRA      2011       1    4468    4326    1935    1937      19    4401+ 
+           4491    4490    4393    1936
CTETRA      2012       1     313      83    4517    4421    1881    6809+ 
+           4614    5764    5765    5911
CTETRA      2013       1    1093    4784    1097    1091      26    6496+ 
+           3062    1092      21    3088
CTETRA      2014       1    5305    4526    4527    4528     539    4669+ 
+           2179     541    4632    4668
CTETRA      2015       1    4468    4325     117    4469      31    6140+ 
+             28    4492    6181    6125
CTETRA      2016       1     108     695     705     698    6757    2862+ 
+           5915    5975     696    2861
CTETRA      2017       1    4738    3834    3835    3850    6702    4155+ 
+           5442    6710    4154    4153
CTETRA      2018       1     701      88    1949    2136     700    4345+ 
+           4346     242    2143    4438
CTETRA      2019       1    4468     117    1985    4469      28    6122+ 
+           4500    4492    6125    4502
CTETRA      2020       1    4515     657     646      83    5748    2838+ 
+           1547    5766    2837     645
CTETRA      2021       1    4739    3849    4734    4738    6851      35+ 
+           5021    5022    6708    5019
CTETRA      2022       1      83    4421    4420    4517    5765    4449+ 
+           6808    6809    5911    6807
CTETRA      2023       1    4468    4325    1935    4326      31    4386+ 
+           4491      19    4402    4401
CTETRA      2024       1    4515    1921      83     646    4556    4313+ 
+           5766    1547    4314     645
CTETRA      2025       1    5305    4531     701    4416    5710      41+ 
+             45      47    5832      43
CTETRA      2026       1     668      83      85    4420     669     659+ 
+           2841    6802    6808    5728
CTETRA      2027       1    4519    4468     117    1985      49      28+ 
+           6149    4583    4500    6122
CTETRA      2028       1    1875    1963    4517    4420    4648    4649+ 
+           4613    5718    4450    6807
CTETRA      2029       1     212      63      62     517    3379     585+ 
+           1225    3455    5451    6698
CTETRA      2030       1     101     655     648     646    2379    2839+ 
+           2257    2248    2840     647
CTETRA      2031       1     117     855    4326    4519     856      52+ 
+             56    6149    6255      54
CTETRA      2032       1     655     104     101     787    1672     748+ 
+           2379    1674     788    2876
CTETRA      2033       1    5312    4735    2159    2163    6055    4902+ 
+           5562    5871    4903    2161
CTETRA      2034       1    5305    4527    4525    4422    2179    4662+ 
+           1542    5900    5936     191
CTETRA      2035       1    4326     855    4467    4468      52      59+ 
+             64      19      61    4495
CTETRA      2036       1      83    4421     657      85    5765    5747+ 
+           2837     659    5727     658
CTETRA      2037       1    2507      42      60      15    6904     582+ 
+           6910    6082     528      66
CTETRA      2038       1     655     104    4319     646    1672    5769+ 
+           4363    2840    5774    5772
CTETRA      2039       1    1925      94    1927    4464    4353    4354+ 
+           1926    4480    6691    4479
CTETRA      2040       1    4331     104    4319     655    5891    5769+ 
+           4364    4360    1672    4363
CTETRA      2041       1    2507    2652    2653     531      74    2677+ 
+           6930    6046    2674    2664
CTETRA      2042       1     347     349    1823    2018     348    3750+ 
+           3753    6216    6185    6659
CTETRA      2043       1     288     356    2183    1746    3638    2206+ 
+           6005    1745    3641    6092
CTETRA      2044       1    5323    5324    5295    4770    6269    6397+ 
+           6384    6267    6184    5998
CTETRA      2045       1    4800    3822    3819    3818      84    4135+ 
+             80      82    4134    4104
CTETRA      2046       1     148    3108     143    1133    3110    3111+ 
+            938    2053    2535    2523
CTETRA      2047       1    3160    1175    3159    1166      92    6487+ 
+           3204      90    3115      87
CTETRA      2048       1    1527    4769    4768    4767    2730    4896+ 
+           2339     304    5100    5101
CTETRA      2049       1       5    2277      37     330    2282    6066+ 
+           2462    2189    5390    6288
CTETRA      2050       1    1133     143     148     149    2523     938+ 
+           2053    3161    3012     940
CTETRA      2051       1    1166     176    5322    1175    1167    6109+ 
+           6110    3115    3116      95
CTETRA      2052       1    1527    4768    1524    4777    2339     557+ 
+           1526    5693    5102    5691
CTETRA      2053       1    1890     132    1888     112    4567    4568+ 
+           1889      99     801    6996
CTETRA      2054       1    2056    1527     197    4769     584    1529+ 
+            580    4894    2730    6275
CTETRA      2055       1    4465     118     878      97    6652    6597+ 
+           6516    6517    6638     876
CTETRA      2056       1     943    5293    1182     188    5491    6578+ 
+            625    3266     857    5995
CTETRA      2057       1      63    2077    5291    2649    5443    5445+ 
+           5444    2672    6750    6591
CTETRA      2058       1    5293     189     188     192     503    1061+ 
+            857    2526    1064    3049
CTETRA      2059       1    5312    2916     114     740    6070    6465+ 
+           6452    6058    2922    5449
CTETRA      2060       1    5323     194     143     144    6271    3109+ 
+            261    2218    1170     931
CTETRA      2061       1    4799    3821    4802    3820     111     103+ 
+           5163     109    4080     106
CTETRA      2062       1    5293     190     192     188    5498    1066+ 
+           2526     857    1062    3049
CTETRA      2063       1     878    2916     864    2915    2924     113+ 
+           6595    2938    2935    6285
CTETRA      2064       1    1711    1491    1488    1455    5813    1490+ 
+           2239    3621    3504    3507
CTETRA      2065       1    4521    4417    1974    1970     123    4456+ 
+           4611    4656    4457    1972
CTETRA      2066       1     983     203     200     158    1307    3282+ 
+           1338    3026    3177    6447
CTETRA      2067       1    4466     882    1939     878     126    4389+ 
+           4472    6599     880    4357
CTETRA      2068       1     200     181     182    1030    1344    1032+ 
+           3119    3118    3037    1031
CTETRA      2069       1    1252      60     226     205    6959     128+ 
+           1253    3322    6960    1276
CTETRA      2070       1    1178     200     983    1190    1179    1338+ 
+           2599    3284    3281    1169
CTETRA      2071       1    5311    5312    2163    2916    5872    5871+ 
+           5865    5641    6070    6067
CTETRA      2072       1    3842    3838    4747    4746    4180    2675+ 
+            466     358    2541    5052
CTETRA      2073       1    4420    4517    4421    1961    6807    5911+ 
+           4449    4451    4618    4428
CTETRA      2074       1     251     540     264     245    5479    5326+ 
+           1356    1313    6658    3364
CTETRA      2075       1    2916     114     740     120    6465    5449+ 
+           2922     133     849    6467
CTETRA      2076       1    3842    3838    4746    3839    4180    2541+ 
+            358    4017    4181    5862
CTETRA      2077       1     256    2095     244     257     141     135+ 
+           1347    1326     137    3361
CTETRA      2078       1    1495    4754    2173    4755    5535    4918+ 
+           5534    5706    4921    4920
CTETRA      2079       1    2916     120     864     803     133     865+ 
+            113    5640    2985    2989
CTETRA      2080       1    4748    3845    3841    4749     758    4178+ 
+           2345    5038     756    2513
CTETRA      2081       1    4418    1951     676    4417    4441    4343+ 
+           6670    4442    4436     146
CTETRA      2082       1    3842    3841    4747    3838    4184    1363+ 
+            466    4180    4174    2675
CTETRA      2083       1    2731    2725    2564    2728    2767    5468+ 
+           6613    2768    2769    6611
CTETRA      2084       1    1499    1501    5198    2173    1500     672+ 
+            693    5532    2327     682
CTETRA      2085       1     676    4417     663    4418     146     150+ 
+           2844    6670    4442     152
CTETRA      2086       1    3857    3838    3877    4746    4177    4182+ 
+           4185    1235    2541    5857
CTETRA      2087       1    2728    2725    2564    2729    2769    5468+ 
+           6611    2758    2750    6616
CTETRA      2088       1    3840    3841    4747    3842    4187    1363+ 
+           6413    4020    4184     466
CTETRA      2089       1    5296    5297    3154    5298    5574    6098+ 
+           6100    5572    5569    6349
CTETRA      2090       1    4750    4746    4748    3857    5044    5051+ 
+           5036    1144    1235     702
CTETRA      2091       1    2732     566    2728    2564    2740    2743+ 
+           2742    6612     157    6611
CTETRA      2092       1    5311     807     818     803    5851    2889+ 
+           6620    5637     805    2886
CTETRA      2093       1    1085    4816    1109    5296    6080    6079+ 
+           3085    5555     160    6887
CTETRA      2094       1     809     812    4792    5311    2888    1523+ 
+           5648    5656    1519    5657
CTETRA      2095       1    4793    2154    3823    3828    4942     162+ 
+            167    5793     164    4140
CTETRA      2096       1      38     233     216     506    5406    1284+ 
+            332     504    5427     308
CTETRA      2097       1    3872    3859    4724    4729    4233    5961+ 
+           6663     170    6362    4999
CTETRA      2098       1    5311    1890    1893    4802    5880    1891+ 
+           5879    5884    6054     446
CTETRA      2099       1    2077    2252     236    5290    5457    5612+ 
+           5473    5458    5459    5471
CTETRA      2100       1    4765     129     314    1896    2581    2558+ 
+           1552    1498    2087    1898
CTETRA      2101       1    4328    4332    4329     838    4414    4415+ 
+           4376    5919     173    5959
CTETRA      2102       1     809     861     807    2913    3003    3004+ 
+            808    6227    6234    1067
CTETRA      2103       1    3827    3796    2154     316    3951    7001+ 
+            179    3953    3952     177
CTETRA      2104       1    2913     807     864     861    1067    3002+ 
+           6284    6234    3004     863
CTETRA      2105       1    5305    4529    4531    4416    5711    4539+ 
+           5710      47    5703    5832
CTETRA      2106       1    1178     159     161     983    2588     991+ 
+           1176    2599     982    3028
CTETRA      2107       1    3903    1901    3904    4727    3949    3917+ 
+           4068    6310    6806     184
CTETRA      2108       1    1178     180     176    5322    2103    1021+ 
+           3114    1815    1817    6109
CTETRA      2109       1    4525    4422    1978    4416     191    4431+ 
+           4657    5702    4435    4459
CTETRA      2110       1    5322    1175    3160    1166      95      92+ 
+           1792    6110    3115      90
CTETRA      2111       1    4737    4742    3862    3864    5026     193+ 
+            196     198    6569    4172
CTETRA      2112       1    3816    3824    1093    4795    3983    3927+ 
+           3980    1420    1632    1822
CTETRA      2113       1     562    2580     489      32    2585    6860+ 
+            201     561    2582    2065
CTETRA      2114       1    1194    3159    1175    1196    3236    6487+ 
+           3287    1195    3198    3285
CTETRA      2115       1    2654    2652    2655    2080    2676    2685+ 
+           2660    6074    6751    6588
CTETRA      2116       1    1194     998    1178    3160    2105    1172+ 
+           3286    3201    3184    1581
CTETRA      2117       1    4417    1951     676      88    4436    4343+ 
+            146     209    4344     677
CTETRA      2118       1    4748    3864    3857    3837    6570    4179+ 
+            702     706    4170    4176
CTETRA      2119       1    4733    4737    3867    4732    5016     211+ 
+            215    5009    5015     213
CTETRA      2120       1    3842    4746    4747    4754     358    5052+ 
+            466     360    5053    4919
CTETRA      2121       1    4722    3896    3889    4721     219    4001+ 
+           5840    4987    6734    5839
CTETRA      2122       1    4742    3848    3845    4749    5439    4171+ 
+            734    5037    2684     756
CTETRA      2123       1    1823    5284     306    1665     223    6885+ 
+           1821    3729    6886    3728
CTETRA      2124       1    1166    3160    1097    3159      90    3186+ 
+           6111      87    3204    3203
CTETRA      2125       1    4722    3889    3896    1149    5840    4001+ 
+            219    6038    3999    3996
CTETRA      2126       1    3159    1196    1173    1175    3198    2108+ 
+           6485    6487    3285    1174
CTETRA      2127       1    1613    1662    1560    1563    5791    3578+ 
+           3537    3536    3577    1561
CTETRA      2128       1    5306    2778    5310    5307    1377    6120+ 
+           6360    5738    6118    6121
CTETRA      2129       1    4722    4757    3889    1481    4992    5740+ 
+           5840    6037     228    4000
CTETRA      2130       1    1194    3160    1175    3159    3201      92+ 
+           3287    3236    3204    6487
CTETRA      2131       1    5284     306     307      10    6885    1829+ 
+           6643    6878    1840    3746
CTETRA      2132       1    3880    4718    3893    4822    6893    6892+ 
+           4265    6739    4961    6618
CTETRA      2133       1    4722    4757    1481    4723    4992     228+ 
+           6037    4993    4832    6036
CTETRA      2134       1    3881    3855    4718    3854    4213    6468+ 
+           6484    4212    4210    6720
CTETRA      2135       1    5284     306     349    1823    6885    3747+ 
+           6188     223    1821    3750
CTETRA      2136       1    4742    3837    3836    3864    2301    4166+ 
+            371    6569    4170    4169
CTETRA      2137       1    2136     701    1945    1949     242    4347+ 
+           2137    4438    4346    1947
CTETRA      2138       1    2095      53     571    2771    6696     573+ 
+           6695    6967    2787    2784
CTETRA      2139       1    5307    2777     609    2778    6119    2826+ 
+           6157    6118    2827    2798
CTETRA      2140       1    3436    2727     547      63    6793    1562+ 
+           3459    5453    2749    1335
CTETRA      2141       1    1485    1481    3889    4757    1483    4000+ 
+           4002    5741     228    5740
CTETRA      2142       1    3436      63     547     239    5453    1335+ 
+           3459    3458    3397    3460
CTETRA      2143       1    2253    2777    2258     408    6442    5841+ 
+           2342    2337    2817    2340
CTETRA      2144       1    4789    4785     168    1093    5137    1783+ 
+           2113    2059    1801    3061
CTETRA      2145       1    1485    3889    3885    4758    4002    4005+ 
+           4004    5742    5739     249
CTETRA      2146       1    4788    4795    4789    3824    5147    5141+ 
+           4838    1964    1632    2063
CTETRA      2147       1    2776    5289    5314    2770    5932    5352+ 
+           5933    2814    5351    5350
CTETRA      2148       1    1585     285     286    1805    1584    7003+ 
+            382    7008    6899    3703
CTETRA      2149       1    5294    3150    3147     149    5537    3165+ 
+           6345     253    3162    3166
CTETRA      2150       1    3824    1999    1588     169    2391    1602+ 
+           3930    3928    6645    3929
CTETRA      2151       1    2253    2776     405    2770    6220    2813+ 
+           2336    6437    2814    2808
CTETRA      2152       1    4787     285    3829    3830    2066    3939+ 
+           6838    2312    3937    3940
CTETRA      2153       1    2425    2250     436     433    6637    2292+ 
+           2451    2452    2361     435
CTETRA      2154       1    4733    4729    3858    4734    5008    6869+ 
+            407    5012    5010     404
CTETRA      2155       1     290     340    2188      10    3645    2201+ 
+           6371    1757     339    2202
CTETRA      2156       1    2021    1609    4807    3870    6488    1624+ 
+           4860    6489    4050    1871
CTETRA      2157       1    5323     194    3108     143    6271    3112+ 
+           6385     261    3109    3111
CTETRA      2158       1      25    2729     455     448    2738    1191+ 
+           2062     447    2733    2445
CTETRA      2159       1    1755     340     342    2185    3646     341+ 
+           3647    5339    2217    2219
CTETRA      2160       1    2726     459    2564    2729    2846    2573+ 
+           5469    2751    1886    6616
CTETRA      2161       1    5298    4760    1147    1149    6308    6097+ 
+           5571     267    6195    1148
CTETRA      2162       1     455     448    2729     459    2445    2733+ 
+           1191     457    2455    1886
CTETRA      2163       1    2185    5283    1755    2188     269    6877+ 
+           5339    2220    5347    5340
CTETRA      2164       1    5322    3160     165    1097    1792    3185+ 
+           1594    6114    3186    3183
CTETRA      2165       1    5324    3057    1080    1123    6342    3068+ 
+           6353    6352    3071    3070
CTETRA      2166       1    5322     176     174     171    6109    1016+ 
+           6108    6673    3033    1013
CTETRA      2167       1    2272    1368    2263    1374    6626     273+ 
+           2412    6937    3371     276
CTETRA      2168       1    4785    1137    4811    4786     835    6972+ 
+           5139    5138    1228    5140
CTETRA      2169       1    1149    5295    5298    4760    5514    6404+ 
+            267    6195    6197    6308
CTETRA      2170       1    5322    1137    4785    4786    2015     835+ 
+           6115    1508    1228    5138
CTETRA      2171       1    2272    2262    2270    1785    2410    2405+ 
+           2414    6936    6306    5385
CTETRA      2172       1    1137    4786    3890    4811    1228    6661+ 
+           3931    6972    5140    6699
CTETRA      2173       1    2507    2247     391     362    6607    2315+ 
+           5486    6081    6748    2233
CTETRA      2174       1    1140    1166    1097    1164    3099    6111+ 
+           6497    3101    1165    1809
CTETRA      2175       1    5309    1368     277     237    6627    3378+ 
+           5986    5870    3377    1379
CTETRA      2176       1    1164    1166    1097    3159    1165    6111+ 
+           1809    6486      87    3203
CTETRA      2177       1      15     226    2507     229    1250     282+ 
+           6082    3312    1257    6083
CTETRA      2178       1    3437    2727    3436    5292    1845    6793+ 
+           3466    5786    6794    5481
CTETRA      2179       1    2276    1402    2268    1406    5403    6494+ 
+           2417    5404    3389    6392
CTETRA      2180       1    2507     531    2536     366    6046    2548+ 
+           6903    5485    2549    2542
CTETRA      2181       1    1639    1585    1588    1534     292    1587+ 
+            289    3556    3517    3519
CTETRA      2182       1    2654     444     470    2427    2656    2454+ 
+           6756    6853    2439    2450
CTETRA      2183       1    2273    1368    2263    2272    6634     273+ 
+           2299    2415    6626    2412
CTETRA      2184       1    5291    2080    2427    2655    6589    6089+ 
+           6781    6590    6588    6779
CTETRA      2185       1    4722    1481    3889    1149    6037    4000+ 
+           5840    6038    3935    3999
CTETRA      2186       1    1252      15     226      60    3310    1250+ 
+           1253    6959      66     128
CTETRA      2187       1      38     233     506    2492    5406    5427+ 
+            504    2498    5335    2496
CTETRA      2188       1      39     208     222     236    1729    1244+ 
+           2115    6744    1282    3381
CTETRA      2189       1    5323    4767    4770    4769    6268    5070+ 
+           6267    6272    5100    4998
CTETRA      2190       1    2536     531    2507      42    2548    6046+ 
+           6903    2539     530    6904
CTETRA      2191       1    2654     531    2652    2080    2658    2674+ 
+           2676    6074    6071    6751
CTETRA      2192       1    1827     305    1601    1605    1828     820+ 
+           6882    6884    6984    1603
CTETRA      2193       1    4767    1527     197    1080     304    1529+ 
+            300     302    3934    1079
CTETRA      2194       1    1601    1818    1779    2027    6788    3757+ 
+           5683    5685    5503    5684
CTETRA      2195       1     506     233     216     214    5427    1284+ 
+            308    5428    3326    1227
CTETRA      2196       1     303    1818    1779    1601    1816    3757+ 
+           3755    6737    6788    5683
CTETRA      2197       1     194     192    5295     190    3050    5512+ 
+           6000    1068    1066    5501
CTETRA      2198       1     305    1605    1551    1601    6984    2119+ 
+           1281     820    1603    3529
CTETRA      2199       1     216     506     214    1237     308    5428+ 
+           1227    3304    3410    3305
CTETRA      2200       1    1601    3852    4806    2024    4044    6880+ 
+           6879    5682    1621    4862
CTETRA      2201       1    1697     144     194    5193     322    1170+ 
+            319    5220     315     317
CTETRA      2202       1    3658    2246    1748    2245    6741    6873+ 
+           3664    5677    2314    6870
CTETRA      2203       1    2612     499     524      34    6025    5462+ 
+           2619    2618    2067     522
CTETRA      2204       1     270     271    2249    2243    1362    5619+ 
+           6783    5373    5372    2371
CTETRA      2205       1    5193     197     145    4769    6928    1078+ 
+            327     329    6275    6276
CTETRA      2206       1    1360    1365    2246    2249    3368    6386+ 
+           6725    6724    6387    2383
CTETRA      2207       1     233     221      38     216    3325    5407+ 
+           5406    1284    1241     332
CTETRA      2208       1    3860    4732    3867    3865    2269     213+ 
+           4235    4240    1070    4244
CTETRA      2209       1    4737    3862    3835    3866     196    4162+ 
+            336     338    4165    4157
CTETRA      2210       1    1748    3658    1360    2246    3664    3663+ 
+           3659    6873    6741    6725
CTETRA      2211       1     216     221      38     220    1241    5407+ 
+            332    3308    1239    3406
CTETRA      2212       1    1748     230    2246    1360    1749    1853+ 
+           6873    3659    1358    6725
CTETRA      2213       1    4740    3855    3882    3856    6390    4219+ 
+           6711    6391    4216    4220
CTETRA      2214       1     426     496    2277    2457    2480    6941+ 
+           2285    2486    2488    5971
CTETRA      2215       1     221      38     220     224    5407    3406+ 
+           1239    1247    2112    1246
CTETRA      2216       1    2777    5316    2255    5310    6350    6153+ 
+           6443    5845     898    5828
CTETRA      2217       1    4751    3883    3874    3873    6329    4251+ 
+           6552    6551    4250    4249
CTETRA      2218       1    1812    1590    1997    1593    2723    6647+ 
+           5729    6762    1591    1482
CTETRA      2219       1     216     220      38    1237    3308    3406+ 
+            332    3304    1238    3407
CTETRA      2220       1    5310    5307    2777    5316    6121    6119+ 
+           5845     898    6145    6350
CTETRA      2221       1    1803    1639    1585    1588    3714     292+ 
+              2     351     289    1587
CTETRA      2222       1    5316    2776    5315    5307    5931    6228+ 
+           6027    6145    6351    6139
CTETRA      2223       1    2507    2537     366     464    6045    2545+ 
+           5485    2508    6955     354
CTETRA      2224       1    2095     544     244      46    2576    6609+ 
+            135    2094     543     587
CTETRA      2225       1    3842    4754    3839    4746     360    5705+ 
+           4017     358    5053    5862
CTETRA      2226       1    1748    2246     230      13    6873    1853+ 
+           1749    3639    6688    1258
CTETRA      2227       1    3819    4800    4803    4799      80    5166+ 
+            365     367    5165    5161
CTETRA      2228       1    4744    3885    4758    4759    6745     249+ 
+           4990    5041    2111    5043
CTETRA      2229       1    4742    3862    3836    3835     193    4163+ 
+            371    5440    4162    4161
CTETRA      2230       1    4728    3859    3860    3867    5963    4234+ 
+           5465     804    4236    4235
CTETRA      2231       1    3800    4796    3819    4803     379     373+ 
+           4101     377    5121     365
CTETRA      2232       1    2245    1748    2183     353    6870    6091+ 
+           6742    6871    3640    2229
CTETRA      2233       1    1532     285     286    1585    3512    7003+ 
+           3552    3515    1584     382
CTETRA      2234       1    2456    2090     423     421    5982    6723+ 
+           2483    2482    6635     422
CTETRA      2235       1     216     506    1237      38     308    3410+ 
+           3304     332     504    3407
CTETRA      2236       1    2579    2550     562     556    5398    5397+ 
+           2590    2589    6170    2591
CTETRA      2237       1    3827    3828    4787    1633    4074    5794+ 
+            387    4071    4073    6839
CTETRA      2238       1     489    2550     562    2090    2560    5397+ 
+            201    2557    2551    6774
CTETRA      2239       1    4790    3809    3810    3802    5624    4111+ 
+            393     395    4084    4106
CTETRA      2240       1    5308    2090    2693    2686    5983    5980+ 
+           5984    6246    6245    2715
CTETRA      2241       1    4745    3876    4759    4752    6732     397+ 
+           5042    5047    5883    5049
CTETRA      2242       1    5308    5309     277     281    5779    5986+ 
+           5755    1911    5987    1388
CTETRA      2243       1    4733    3834    4734    3858     409     401+ 
+           5012     407    4151     404
CTETRA      2244       1    2690    2090     562    2550    6259    6774+ 
+           2712    6854    2551    5397
CTETRA      2245       1    3826    4793    3822    3828     416     411+ 
+           4136    4142    5793    4141
CTETRA      2246       1    5308     576    2686    2693    5763    2705+ 
+           6246    5984    2716    2715
CTETRA      2247       1    3810    4763    4764    4790     420    5079+ 
+           6540     393    5082    5083
CTETRA      2248       1    3355     255     244     256    1323    6356+ 
+           3356    3360    6357    1347
CTETRA      2249       1     698    1856    4532    4531    3777    4548+ 
+           5833    5830    4543    4547
CTETRA      2250       1    4729    3869    4725    3872    6868    6529+ 
+           5000     170    4061    6979
CTETRA      2251       1    4790    3810    3803    3801     393    4109+ 
+            425     427    4107    4098
CTETRA      2252       1    3404     511    2071      38    3411    2069+ 
+           6902    3409     512    2499
CTETRA      2253       1     108    4531     122    1856    5887    4533+ 
+            766    5973    4543    4542
CTETRA      2254       1     511     508    3403    2071     509    3420+ 
+           3423    2069    2506    6561
CTETRA      2255       1    4790    3810    4781    3803     393    6544+ 
+           5085     425    4109    6543
CTETRA      2256       1     281    2071    3405    5308    6901    6900+ 
+           3430    1911    5776    6785
CTETRA      2257       1      86    2134    4532     312     431    5785+ 
+           5853    1873    5783    4546
CTETRA      2258       1    3405    2071     511    3403    6900    2069+ 
+           3433    3434    6561    3423
CTETRA      2259       1    4790    4763    4781    3810    5082    5076+ 
+           5085     393     420    6544
CTETRA      2260       1    2492    2277    2071     237    5432    5434+ 
+           2503    2036    5867    5974
CTETRA      2261       1     256    2564     244    2095    6461    6538+ 
+           1347     141    2574     135
CTETRA      2262       1    1074    1593     172    1997    3966    3967+ 
+           1076    2737    1482    1537
CTETRA      2263       1    4797    4791    1893    4798    5149     434+ 
+            439    5153    5152     437
CTETRA      2264       1     233    2492      38     237    5335    2498+ 
+           5406    1283    2036    5408
CTETRA      2265       1     701     105     108    4531     443     751+ 
+           5985      41    5888    5887
CTETRA      2266       1    2071    2610      55    2609    5918    2628+ 
+           6560    5950    2632    2626
CTETRA      2267       1    4797    4802    4798    1893    5162    4937+ 
+           5153     439     446     437
CTETRA      2268       1    4729    4725    3869    4730    5000    6529+ 
+           6868    5004    5002    6528
CTETRA      2269       1    1499    2171    2173    4754     451    2172+ 
+           5532    5533    4917    4918
CTETRA      2270       1     231    2273     334     237    6909    6436+ 
+           3318    3376    5868    1955
CTETRA      2271       1    3820    4799    4796    4797     109    5159+ 
+            456     458    5160    5151
CTETRA      2272       1    2277     237     334    2273    5867    1955+ 
+           6435    2295    5868    6436
CTETRA      2273       1    2159    1888    5312    1890    5615    6997+ 
+           5562    5616    1889    6065
CTETRA      2274       1      58    2071    5282    2614    5508    5509+ 
+           5506    2636    5416    5955
CTETRA      2275       1    4790    3801    4797    3802     427     460+ 
+           5150     395    4105     463
CTETRA      2276       1     221     224     237      38    1247    3383+ 
+           1285    5407    2112    5408
CTETRA      2277       1    3840    3842    4747    4754    4020     466+ 
+           6413     469     360    4919
CTETRA      2278       1    2492     233     334     237    5335    3317+ 
+           6947    2036    1283    1955
CTETRA      2279       1    4781    3804    3812    4762    6950    4114+ 
+           6545    5075    6537    6535
CTETRA      2280       1      34     524    2524     499     522    2532+ 
+           2525    2067    5462    5463
CTETRA      2281       1    5291    2080     433    2427    6589     473+ 
+           5796    6781    6089    2449
CTETRA      2282       1      17      29    2507     464    2432    2509+ 
+           5487    2428     462    2508
CTETRA      2283       1    3815    4763    4764    3810     476    5079+ 
+           6539    4122     420    6540
CTETRA      2284       1      15     391     362    2507    2214    2233+ 
+            361    6082    5486    6081
CTETRA      2285       1    4755    2040    5196    2037    4872    5240+ 
+            480    4873    2038    5266
CTETRA      2286       1    3868    3870    4807    1609    4052    1871+ 
+           6177    4048    4050    1624
CTETRA      2287       1    4790    3810    3809    4764     393    4111+ 
+           5624    5083    6540    5622
CTETRA      2288       1     330    2277      37    2492    5390    6066+ 
+           6288    5455    5432    2494
CTETRA      2289       1    4752    4755    4754    3839    5056    4921+ 
+           5054    5863    5704    5705
CTETRA      2290       1      37    2074    2492    2277    2495    2493+ 
+           2494    6066    5433    5432
CTETRA      2291       1    3797     314    3814    4775    3942    3946+ 
+           3945     490     485     487
CTETRA      2292       1      37     330     501       5    6288    5482+ 
+            502    2462    2189    2458
CTETRA      2293       1     834    1858     695     108     495    3785+ 
+           5946     836    5972    6757
CTETRA      2294       1     426      37    2277     496    2461    6066+ 
+           2285    2480     494    6941
CTETRA      2295       1    3814    1517    3797    4775    4030    4027+ 
+           3945     487     498     490
CTETRA      2296       1    1074    4786    1997     172    1504    4823+ 
+           2737    1076    6660    1537
CTETRA      2297       1    5293    1155    1184     189    5545    3128+ 
+           5549     503    1154    3129
CTETRA      2298       1    1137    3890    4786     172    3931    6661+ 
+           1228    1135    3932    6660
CTETRA      2299       1    4763    4775    3815    4764    5081     505+ 
+            476    5079    5080    6539
CTETRA      2300       1    4786    4811    4805    3890    5140    5143+ 
+           4827    6661    6699    6679
CTETRA      2301       1    5305    1942    4422    4416    5699    4423+ 
+           5900      47    4434    4435
CTETRA      2302       1    4786    1596    4805     324    6662    6674+ 
+           4827    4824    5495    4825
CTETRA      2303       1    4775    4778    3813    1520    5109     510+ 
+            513    6383    6381    4032
CTETRA      2304       1    5314     616    5315    2776    5944    5941+ 
+           5925    5933    2828    6228
CTETRA      2305       1    5294     947     149     943    5536     946+ 
+            253    5489    3014    3013
CTETRA      2306       1    3890    1596    4805    4786    3933    6674+ 
+           6679    6661    6662    4827
CTETRA      2307       1    4775    3815    3814    3813     505    4124+ 
+            487     513    4127    4033
CTETRA      2308       1     168    4789     169     166    2113    2061+ 
+           1009    1006    6987    1008
CTETRA      2309       1    3144    3145    5298    1155    3249    6291+ 
+           6361     525     521     523
CTETRA      2310       1    4783    1091    3798    1089    6512    3977+ 
+           6514    2786    1090    3978
CTETRA      2311       1     125     914     773    4528     913    2966+ 
+           2964    4558    4557    5940
CTETRA      2312       1    4808    4760    3896    1147    4991    2174+ 
+           6733    1212    6097    3997
CTETRA      2313       1    2242     417    2771    2097    2349    2782+ 
+           6969    5475    6895    6894
CTETRA      2314       1    4808    4809    1147    1145    5064    5577+ 
+           1212    1210    6102    1146
CTETRA      2315       1     105     773    5305    2870    2875     529+ 
+           5717    2874    2873    5673
CTETRA      2316       1    4808    4809    1145    4815    5064    6102+ 
+           1210    5173    5172    2128
CTETRA      2317       1     599     257     258     266    3346    1327+ 
+           3347     536    1351    3391
CTETRA      2318       1    4720    4814    4808    3894    4975    4984+ 
+           4981    6730    6706    2122
CTETRA      2319       1    5305     773    4526    4528     529    5939+ 
+            539     541    5940    4632
CTETRA      2320       1    4808    3895    3896    3894    1214    3998+ 
+           6733    2122    4295    4286
CTETRA      2321       1    5293    3149    3148    3150    5531    3252+ 
+           5522    5538    3167    3254
CTETRA      2322       1    1827    2024    1609    1605    6859    2811+ 
+           6622    6884    6883    1607
CTETRA      2323       1    5305    4526     773     107     539    5939+ 
+            529    5709     545     772
CTETRA      2324       1    1147    5298    5296    4760    5571    5572+ 
+           5573    6097    6308    5590
CTETRA      2325       1     641     632     781     783    2831     548+ 
+           6373     552     550     782
CTETRA      2326       1    4790    4797    3801    4796    5150     460+ 
+            427    5115    5151    1405
CTETRA      2327       1    2054    2181    4768    1524    5280     555+ 
+           4892     560    7007     557
CTETRA      2328       1    1100    1104    4784    1142    1102    2463+ 
+            872     879    2178     877
CTETRA      2329       1     781     632     641      78     548    2831+ 
+           6373    6375     633    2832
CTETRA      2330       1    3805    3804    3806    4762    4117    4118+ 
+           3973     868    6537    1136
CTETRA      2331       1    4778    2054    1524    5200    4889     560+ 
+            567    6395    5278     565
CTETRA      2332       1    5323    5294    5295    1130    6819    5500+ 
+           6384    6817    6815    1599
CTETRA      2333       1    2095     243     266     241     574    3362+ 
+           5647     572    1298    1349
CTETRA      2334       1    5296    1085    4816    4810    5555    6080+ 
+            160    5584    2093    5122
CTETRA      2335       1    2054    2056    4768    2181    2055    4891+ 
+           4892    5280    2182     555
CTETRA      2336       1    1142    4815    1106    1104    2106    6501+ 
+           2160    2178    2569    1105
CTETRA      2337       1    5290    2249    2252    2247    5621    2387+ 
+           5459    5627    2386    2320
CTETRA      2338       1    4808    4809    4760    1147    5064    5063+ 
+           4991    1212    5577    6097
CTETRA      2339       1    2056    5193    4769     197    5219     329+ 
+           4894     580    6928    6275
CTETRA      2340       1    4808    4814    4815    3895    4984    5174+ 
+           5173    1214    2118    2309
CTETRA      2341       1      39    2507     236    2077    2514    5614+ 
+           6744    2515    2512    5473
CTETRA      2342       1    5299     129    4765    1896     932    2581+ 
+            954    2084    2087    1498
CTETRA      2343       1    1692    2056    2181    1527    5218    2182+ 
+           5215    6810     584    6927
CTETRA      2344       1    3899    4817    4815    1142    5604    5183+ 
+           2131    3991    2107    2106
CTETRA      2345       1    1295      46     243     244    3446    6598+ 
+           3334    3335     587    1299
CTETRA      2346       1    1142    4784    1140    4819     877    6498+ 
+           1141    2254    5133    1088
CTETRA      2347       1    2054    1524    5200    2181     560     565+ 
+           5278    5280    7007    5207
CTETRA      2348       1    5297    3155    1109    3151    1103    3211+ 
+           1198    1065    3216    3214
CTETRA      2349       1     781     127    1884      78     780    6367+ 
+           6934    6375    6366    1885
CTETRA      2350       1    2731    2722    2732    2564    2762    2756+ 
+           2763    6613    2121    6612
CTETRA      2351       1    2056    4769    5193    2058    4894     329+ 
+           5219    2057    4895    5281
CTETRA      2352       1    1727    1730    5202    1505    1728    5247+ 
+           5248    6761    6759    6401
CTETRA      2353       1    5203    1509    5202    1732     595    6433+ 
+           5253    5252    6432    5250
CTETRA      2354       1    4419    1877     666    4516    6796    3793+ 
+           6667    5723    4645    2211
CTETRA      2355       1    2492     506    5282     233    2496    5429+ 
+           5333    5335    5427    5331
CTETRA      2356       1      83     668    1875    4420     669    3790+ 
+           3789    6808    6802    5718
CTETRA      2357       1    1863     832     921    1860    6829    2973+ 
+           4637    1862     598    4633
CTETRA      2358       1     666    4520    4419    4418    6799    6795+ 
+           6667    6668    5781    4445
CTETRA      2359       1    1692     197    1473    1471    6924    3477+ 
+           3634    3635    3473    1472
CTETRA      2360       1    4420     668    1875    4516    6802    3790+ 
+           5718    5719    2184    4646
CTETRA      2361       1    5290     275    2251     271    5423    6770+ 
+           5620    5599    1376    5618
CTETRA      2362       1    4419    1963    1967    4516    4452    1965+ 
+           4453    5723    4647    4652
CTETRA      2363       1    4741    3856    3857    3864     610    4223+ 
+            608    6571    4224    4179
CTETRA      2364       1    5305    4320    4319    1942    5701    4404+ 
+           5672    5699    4403    4365
CTETRA      2365       1    1867     683     116     828    3780     612+ 
+            615    6677    6767     827
CTETRA      2366       1    4527    4514    4525    4422    4663    4664+ 
+           4662    5936    5935     191
CTETRA      2367       1    1052    1182     952     202     617    6117+ 
+           3280    7006    1181    6088
CTETRA      2368       1    4515    4421     321    4422    5749    4429+ 
+           4619    5750    4427    4430
CTETRA      2369       1    1865    1863     686     832    1864    3782+ 
+           3783     619    6829    6822
CTETRA      2370       1    5305     102    4522    4422    5674    1014+ 
+           1017    5900    6995    5926
CTETRA      2371       1     187    1182     186    1056    2102    5996+ 
+           1058    1057    3127    3047
CTETRA      2372       1    4514    4525    4422    1978    4664     191+ 
+           5935    4620    4657    4431
CTETRA      2373       1     188     943     186    1182    3266    3267+ 
+           1059    5995     625    5996
CTETRA      2374       1    5290    5291    2252    2251    5425    5456+ 
+           5459    5620    5797    2364
CTETRA      2375       1     202     183    5300    1052     629    6939+ 
+           6087    7006    1053    7005
CTETRA      2376       1     673    1956    4420      85    4341    4447+ 
+           6803     671    4342    5728
CTETRA      2377       1    1204    5293    1182     943    6577    6578+ 
+           2110    6602    5491     625
CTETRA      2378       1      83      85    4420    4421     659    5728+ 
+           6808    5765    5727    4449
CTETRA      2379       1     183    5300    1052     154    6939    7005+ 
+           1053    1211    6183    3279
CTETRA      2380       1    4420    1961    1963    4517    4451    1962+ 
+           4450    6807    4618    4649
CTETRA      2381       1    2456      33    2457    2693    2473    2476+ 
+           2477    5981    2699    6229
CTETRA      2382       1    2134    4417    1974     312    4462    4456+ 
+           2132    5783    2140    4612
CTETRA      2383       1    1200    1186    5300     204    3291       4+ 
+           5659    1199    3288    6719
CTETRA      2384       1    4417    1974     312    4521    4456    4612+ 
+           2140     123    4611    4610
CTETRA      2385       1    1204     186    5321     151    6603    6116+ 
+           5966    6574    1208    6575
CTETRA      2386       1    4521    4417    1970    4418     123    4457+ 
+           4656    2200    4442    4454
CTETRA      2387       1    4750    3873    4751    4745    6480    6551+ 
+           5033    5045    6549    5040
CTETRA      2388       1    4521    1970    1879    4418    4656    4655+ 
+           4609    2200    4454    5780
CTETRA      2389       1    2729    2425     448      24     639    2441+ 
+           2733    2735    2443     449
CTETRA      2390       1    4521     663    1879      86    2198    3792+ 
+           4609    2138     661    3791
CTETRA      2391       1     952     957     154    5321    3017    3018+ 
+            951    6085    6041    6040
CTETRA      2392       1    4521    4417      86     312     123    2139+ 
+           2138    4610    2140    1873
CTETRA      2393       1     477    2692      33    2456    2694    2697+ 
+            475    2472    6199    2473
CTETRA      2394       1     508      55    2071    2610    5886    6560+ 
+           2506    5917    2628    5918
CTETRA      2395       1    1509    1732    1512    1433    6432    6320+ 
+           1511    3492    3605    3489
CTETRA      2396       1    2136     701      88     698     242     700+ 
+           2143    2348    2849    2848
CTETRA      2397       1     207      39    2507     236     642    2514+ 
+           6791    3324    6744    5614
CTETRA      2398       1     705     105    4320    4328    5916    5715+ 
+           4368    4371    6918    4373
CTETRA      2399       1    1182    1052    1056     202     617    3046+ 
+           3127    1181    7006    3122
CTETRA      2400       1     698     312    4532    1856    3774    4546+ 
+           5833    3777    1855    4548
CTETRA      2401       1    4530    1974    2134    1976    4644    2132+ 
+           5784    4660    1975    4458
CTETRA      2402       1    2136    2134    4532      86    2135    5785+ 
+           5819    2147     431    5853
CTETRA      2403       1    4325    4326     117     859    4402      56+ 
+           6140    6142     650    2907
CTETRA      2404       1    4750    3873    4745    3877    6480    6549+ 
+           5045     719    4229    5859
CTETRA      2405       1    2425    2097     459    2250    5814    2565+ 
+           2453    6637    5474    6628
CTETRA      2406       1    4740    4750    4741    3856    5031    5032+ 
+           5025    6391    6479     610
CTETRA      2407       1    4325    4326     859    4327    4402     650+ 
+           6142    4413    4396    6265
CTETRA      2408       1    4751    3884    4744    3874    2734    6297+ 
+           4983    6552    4256    6743
CTETRA      2409       1     307    1617    1566     306    6642    3538+ 
+            654    1829    6776    5680
CTETRA      2410       1    4744    3884    3875    3874    6297    4255+ 
+           6747    6743    4256    4254
CTETRA      2411       1    4468    1935    4325    4469    4491    4386+ 
+             31    4492    4487    6181
CTETRA      2412       1    4750    3857    3856    3873    1144    4223+ 
+           6479    6480    4226    4225
CTETRA      2413       1    1424    1737    1426    1517    3600    3599+ 
+           1425    3486    6492    3485
CTETRA      2414       1    1699    1697     194    5192    1698     319+ 
+           6011    5208    5221    6048
CTETRA      2415       1    4326    4325     117    4468    4402    6140+ 
+             56      19      31      28
CTETRA      2416       1    1204     957     153     151    3171     955+ 
+           3170    6574    3016     950
CTETRA      2417       1     712     841     832     709     665    2900+ 
+           6827     711     660     662
CTETRA      2418       1     151     943     153    1204     941    3015+ 
+            950    6574    6602    3170
CTETRA      2419       1    4325     721    4324     115    4387    4383+ 
+           4388    6141    6104    6167
CTETRA      2420       1    2030    1485    4756    4757    2491    5628+ 
+           4867    4828    5741    4868
CTETRA      2421       1    1724    5190    5198    1501    5245    5246+ 
+           5243     675     670     672
CTETRA      2422       1     188    1182     187     189    5995    2102+ 
+           3048    1061    3126    1060
CTETRA      2423       1      94      93    4464      97     730    6832+ 
+           6691     732    2864    6690
CTETRA      2424       1    1052    1182     186     952     617    5996+ 
+           1050    3280    6117    3278
CTETRA      2425       1    2173    5198    2040    2042     682    5242+ 
+           2175    4875    5268    2041
CTETRA      2426       1    1458    5194    1711    1709    2235    5228+ 
+           3623    3626    5225    1710
CTETRA      2427       1      94      91    2145      93     728     684+ 
+            689     730    2863     687
CTETRA      2428       1    1495    3842    4754    3839    4016     360+ 
+           5535    4012    4017    5705
CTETRA      2429       1    1499    1720    2040    5198    6765    5241+ 
+           6944     693    5239    5242
CTETRA      2430       1    1495    2173    2040    4755    5534    2175+ 
+           5714    5706    4920    4872
CTETRA      2431       1    4740    3882    3873    3856    6711    4228+ 
+           6481    6391    4220    4225
CTETRA      2432       1    1436    1509    1730    1505    3491    6434+ 
+           3607    3494    1507    6759
CTETRA      2433       1     832     690     692    1863    6826     691+ 
+            697    6829    3781    3784
CTETRA      2434       1     841     709     834     832     660    5947+ 
+           2899    2900     662     833
CTETRA      2435       1    4748    3837    3857    3838     706    4176+ 
+            702     704    4173    4177
CTETRA      2436       1     834     918     832    1860    2968    2972+ 
+            833    1653    4634     598
CTETRA      2437       1    1488    1491    4753    4759    1490     708+ 
+            713     715     710    5057
CTETRA      2438       1     834     918    1860    1858    2968    4634+ 
+           1653     495    4540    1859
CTETRA      2439       1    4750    3877    4745    4746     719    5859+ 
+           5045    5044    5857    5046
CTETRA      2440       1     834     108     918    1858     836    2967+ 
+           2968     495    5972    4540
CTETRA      2441       1    4722    1149    4770    4723    6038    6196+ 
+           4994    4993    6035    4995
CTETRA      2442       1     695     838     834     108    5945    2895+ 
+           5946    6757    2894     836
CTETRA      2443       1    4741    3863    4736    3856     723    5601+ 
+           5023     610    4217    6388
CTETRA      2444       1    1155    3148    3149    3144    5544    3252+ 
+            816     525    3251    3248
CTETRA      2445       1    5195    1481    1485    4757     729    1483+ 
+            725     727     228    5741
CTETRA      2446       1     652     648     787     655    2836    2372+ 
+           6921     653    2839    1674
CTETRA      2447       1    4742    3845    3848    3836     734    4171+ 
+           5439     371    4168    4159
CTETRA      2448       1      81     783     632     641    6323     550+ 
+           2830     643     552    2831
CTETRA      2449       1    1046    1200    1186    5300    5854    3291+ 
+           3125    6740    5659       4
CTETRA      2450       1     794     791     785    1917     793    2883+ 
+           2881    2411    2358    2281
CTETRA      2451       1     878      97     118     120     876    6638+ 
+           6597    6596     736     762
CTETRA      2452       1    1713    1493    1491    1452    6101    1492+ 
+           5812    3618    3502    3505
CTETRA      2453       1    4812    3892    3891    3901    5566    4264+ 
+           5587    5567    4288    4289
CTETRA      2454       1    5197    1713    1493    1491    5233    6101+ 
+           5759    6096    5812    1492
CTETRA      2455       1     834     692     695    1858     741     694+ 
+           5946     495    3786    3785
CTETRA      2456       1    5298    1147    1157    1155    5571    3104+ 
+           6348     523    3107    1156
CTETRA      2457       1     195     199    4723    1149    1152     743+ 
+            746    3097    1151    6035
CTETRA      2458       1    5294     148     943     149    5488     944+ 
+           5489     253     940    3013
CTETRA      2459       1    2492       6     234      40    5969    1265+ 
+           5334    5467     527    5477
CTETRA      2460       1    5324    1123    3145    1120    6352    3226+ 
+           6292    6209    1121    3227
CTETRA      2461       1    5312     803     112     114    6075    2885+ 
+           6453    6452     802     753
CTETRA      2462       1     233    5282     234     214    5331    5332+ 
+           1266    3326    5426    1286
CTETRA      2463       1    5310    5304    1774    1793    5821    5823+ 
+           5822    6321    6163    3684
CTETRA      2464       1    5194    1488    4756    1485    6219    5630+ 
+           2481     775    1487    5628
CTETRA      2465       1     313    1961     321    4421    4617    1960+ 
+           4616    5764    4428    4429
CTETRA      2466       1    4723    4770     195    1149    4995     840+ 
+            746    6035    6196    3097
CTETRA      2467       1    4748    4749    4742    3845    5038    5037+ 
+           5035     758     756     734
CTETRA      2468       1    1699     195    1466     199    6010    3474+ 
+           3629    2009    1152    3476
CTETRA      2469       1    4722    3889    4757    4758    5840    5740+ 
+           4992    4985    5739    4996
CTETRA      2470       1    5192     199    4723     195    2004     743+ 
+           6052    2006    1152     746
CTETRA      2471       1    2145      93    4464      94     687    6832+ 
+           4482     689     730    6691
CTETRA      2472       1     192    1155    5295    5293    3095    5513+ 
+           5512    2526    5545    5502
CTETRA      2473       1    1488    1491    4759    3875    1490     710+ 
+            715    4007    4006     763
CTETRA      2474       1     794     632     783     797    2680     550+ 
+           2882     796    6363    2880
CTETRA      2475       1    4733    3858    4729    3859     407    6869+ 
+           5008    6855    4231    6362
CTETRA      2476       1    2982     887     884    2917    6239     886+ 
+           2085    6225    2928    2942
CTETRA      2477       1    1449    5197    1716    1713    5758    5232+ 
+           3620    3619    5233    1714
CTETRA      2478       1    2982     884     859     861    2085    1122+ 
+           3008    3005    6235     860
CTETRA      2479       1     882    2915     878    4466    2937    2938+ 
+            880     126     769    6599
CTETRA      2480       1     781     641     783     890    6373     552+ 
+            782    6339    2921    6338
CTETRA      2481       1    4744    4745    3875    4759    5039    6746+ 
+           6747    5041    5042     763
CTETRA      2482       1    4779    5203    2046    5199    6565    5275+ 
+           4882    6380    5256    5274
CTETRA      2483       1    2728     566    2729    2564    2743    2739+ 
+           2758    6611     157    6616
CTETRA      2484       1    3833    4729    3869    4730    6867    6868+ 
+           4147    1565    5004    6528
CTETRA      2485       1    1706    5194    5195    1485    5226    5227+ 
+           5224     778     775     725
CTETRA      2486       1    5296    4816    5297    4809     160    6504+ 
+           5574    5578    5175    5576
CTETRA      2487       1    5314    2007    2010    4675    5902    2008+ 
+           5910    5923    4691    4694
CTETRA      2488       1    4729    3833    4734    4730    6867    6993+ 
+           5010    5004    1565    5011
CTETRA      2489       1    4326    4467     855     882      64      59+ 
+             52    4390    6601    6592
CTETRA      2490       1    3843    2169    2171    3840    6408    2170+ 
+           6409    4023    6412    6564
CTETRA      2491       1    1628    1630    3796    2007    1629    4069+ 
+           4070    5896    6454    7000
CTETRA      2492       1    3844    4747    3841    4749    6414    1363+ 
+           4189    6554    4916    2513
CTETRA      2493       1    4468     855    4467    1983      61      59+ 
+           4495    4499    6254    4497
CTETRA      2494       1    3843    4774    2171    2169    6410    4923+ 
+           6409    6408    4924    2170
CTETRA      2495       1    4727    3904      98    1901     184    3915+ 
+           6547    6806    3917    1900
CTETRA      2496       1    4463    4524     311      89    6470    4605+ 
+           6469    1026    1259    1854
CTETRA      2497       1    3899    3898    4817    3900    4298    5611+ 
+           5604    3992    4299    5610
CTETRA      2498       1    4469    1985    1987    4524    4502    1986+ 
+           4501    6124    4586    4585
CTETRA      2499       1    4726    4727    2010    3904    4849    4843+ 
+           4848    6914     184     790
CTETRA      2500       1    4463     680      89     721    2766     679+ 
+           1026    1291    2851    2850
CTETRA      2501       1    4325     115    4327     859    6141     792+ 
+           4413    6142     858    6265
CTETRA      2502       1    2609     576      55    5308    2627     575+ 
+           2626    5767    5763    6281
CTETRA      2503       1    4726    3904      98    4727    6914    3915+ 
+           6542    4849     184    6547
CTETRA      2504       1    2145      91    1929    4463     684    4349+ 
+           4485    4486    1023    4484
CTETRA      2505       1    4762    1080    5324    1083     795    6353+ 
+           6299    6300    1082    6211
CTETRA      2506       1    2142     311    1989    4511    1037    4607+ 
+           2141    1267    4598    4606
CTETRA      2507       1     258     414      70    2773    6861    2790+ 
+           1329    6862    2791    2792
CTETRA      2508       1    2687    2088    2688    2686    6771    5415+ 
+           2711    2717    5412    2707
CTETRA      2509       1    4812    3892    4822    3879    5566    6617+ 
+           5180    6978    4262    6738
CTETRA      2510       1      89    2142      93     311    2082    1269+ 
+            726    1854    1037    3773
CTETRA      2511       1    5291    2097    2251    2095    5810    5476+ 
+           5797    5436    2096    6971
CTETRA      2512       1      93    1904    4510      96    4302    4595+ 
+           6830     731    4301    6640
CTETRA      2513       1    3852    4813    4806    4807    5363    5170+ 
+           6880    5362    4956    4864
CTETRA      2514       1     977    3157    1044     974    3195    2031+ 
+           6585     975    3196    6581
CTETRA      2515       1    2251     266     275    5291    6768    1409+ 
+           6770    5797    5431    5420
CTETRA      2516       1     966    1036     969     972    3272    3274+ 
+            967    3025    5653    3020
CTETRA      2517       1    4728    3867    4733    3859     804     215+ 
+           5007    5963    4236    6855
CTETRA      2518       1    4751    4744    3884    3887    4983    6297+ 
+           2734    6328    6298    4273
CTETRA      2519       1    2242     266    1392    2251    6966    3392+ 
+            806    2365    6768    6769
CTETRA      2520       1     189    5293     188    1182     503     857+ 
+           1061    3126    6578    5995
CTETRA      2521       1    5312    2163     873    4735    5871    6068+ 
+           6069    6055    4903    6991
CTETRA      2522       1    2074     499    2492     524    2500    2502+ 
+           2493    6024    5462    5460
CTETRA      2523       1    5292    5290     236     275    5424    5471+ 
+           5472    5422    5423    1378
CTETRA      2524       1    5294    1130    1133     149    6815    1132+ 
+           6816     253    3164    3161
CTETRA      2525       1    1748      13     353    2246    3639     352+ 
+           3640    6873    6688    6872
CTETRA      2526       1    5311    2916     870    2914    5641    2933+ 
+           5866    5638    2934    2930
CTETRA      2527       1    5308    2074    2612    2457    6077    6026+ 
+           5762    5744    6938    5760
CTETRA      2528       1     884     859     861     882    1122     860+ 
+           6235     883    1114    6233
CTETRA      2529       1      63    5292    2077    3436    5447    5446+ 
+           5443    5453    5481    5452
CTETRA      2530       1    3159     977    1042    1173    3199    2078+ 
+           1158    6485    6441    3121
CTETRA      2531       1    2251    1392     271     275    6769    1394+ 
+           5618    6770    3393    1376
CTETRA      2532       1     524     330    2492    2522    2534    5455+ 
+           5460    2533    2531    5970
CTETRA      2533       1    5295    3146    3148    3145    6344    3253+ 
+           5523    6405    3232    3250
CTETRA      2534       1    1166    1164    1175    3159    1165    3139+ 
+           3115      87    6486    6487
CTETRA      2535       1    2242    2095     266    2251    6970    5647+ 
+           6966    2365    6971    6768
CTETRA      2536       1    4742    4743    3848    4749    5030    1359+ 
+           5439    5037    4913    2684
CTETRA      2537       1    1155    3149    3142    3144     816    3238+ 
+            814     525    3248    3242
CTETRA      2538       1     158    1196    1173     977    3178    2108+ 
+           6439     979    3179    6441
CTETRA      2539       1    2251     271    2243    2249    5618    5372+ 
+           2367    2375    5619    2371
CTETRA      2540       1    1042    3159    3157     977    1158    3200+ 
+           6302    2078    3199    3195
CTETRA      2541       1    4818    4822    4812    3892    5181    5180+ 
+           5178    5568    6617    5566
CTETRA      2542       1    5299     809     812    4792    5650    2888+ 
+            930    5646    5648    1523
CTETRA      2543       1     303      11     305    1601    3754    1841+ 
+           1820    6737    6876     820
CTETRA      2544       1    4464     310    1991    1993    6835    4604+ 
+           4508    4507    4602    1992
CTETRA      2545       1    1536    1539    1590    1641    1538    3520+ 
+           3521    3560    3559    5803
CTETRA      2546       1    5299    1896     812     129    2084    1528+ 
+            930     932    2087     811
CTETRA      2547       1     303    1551    1549    1601     829    1550+ 
+           6735    6737    3529    3530
CTETRA      2548       1    5312    1890     112     818    6065      99+ 
+           6453    6619    5617     819
CTETRA      2549       1    1137    4811    1140    4785    6972     831+ 
+           1139     835    5139    6499
CTETRA      2550       1    5299    4792    4791    4765    5646    5098+ 
+           2083     954    5096    5089
CTETRA      2551       1     288    1601     303    1779    6875    6737+ 
+           1842    1780    5683    3755
CTETRA      2552       1    5311     818     815    1890    6620     817+ 
+           5881    5880    5617    5878
CTETRA      2553       1     195    4770     192    1149     840    5997+ 
+           1069    3097    6196    3096
CTETRA      2554       1    4797    3802    3820    1893     463    4083+ 
+            458     439    4082    4078
CTETRA      2555       1     251     245    1304     540    1313    3340+ 
+           3341    5479    6658    3417
CTETRA      2556       1    4790    3810    3801    3802     393    4107+ 
+            427     395    4106    4105
CTETRA      2557       1     515    2077    3436     517    2076    5452+ 
+           3453     516    2519    3454
CTETRA      2558       1    1234     508     506     217    3422     507+ 
+           3432    3306    5953    5588
CTETRA      2559       1      76      75    2268     399     626    6474+ 
+           6062    2802    2803    2326
CTETRA      2560       1    1812     324     301    1593    1480    5497+ 
+           1811    6762    5510    5511
CTETRA      2561       1    5296    1118    1115    1083    6301    1116+ 
+            846    5554    3080    3079
CTETRA      2562       1    4784    1104    1100    1091    2463    1102+ 
+            872      21    3086    3089
CTETRA      2563       1     402    2770     623    2271    2809    2810+ 
+           2805    2332    6423    6033
CTETRA      2564       1    4791    1896    3809    3802    1496    3944+ 
+           5623    1510    4081    4084
CTETRA      2565       1    2077    2651    2650    2649    6760    2670+ 
+            853    6750    2673    2681
CTETRA      2566       1    4764    3809    1896     314    5622    3944+ 
+           1502    1486    3943    1898
CTETRA      2567       1     234       6    1271      40    1265    3320+ 
+           1270    5477     527    3319
CTETRA      2568       1    2071    2608    2613    2607    5951    2646+ 
+           5342    5341    2645    2641
CTETRA      2569       1    5293     188     943     148     857    3266+ 
+           5491    5490    3265     944
CTETRA      2570       1    5322     998    1178     994    1799    1172+ 
+           1815    1797    3030    1813
CTETRA      2571       1    5310    3680    1760    1793    5838    3688+ 
+           6477    6321    3689    3683
CTETRA      2572       1    5322     171     175     176    6673    1015+ 
+           1830    6109    3033    1018
CTETRA      2573       1    2652    2649    2655    2080    2683    2678+ 
+           2685    6751    6587    6588
CTETRA      2574       1    5322     171     163     175    6673    1077+ 
+           6672    1830    1015    3263
CTETRA      2575       1    2071    2074    2608    2609    2073    6146+ 
+           5951    5950    6076    2631
CTETRA      2576       1    1178    5322     176    1175    1815    6109+ 
+           3114    1177      95    3116
CTETRA      2577       1     227     236     229    2247    3373    1280+ 
+           1256    6797    5625     862
CTETRA      2578       1     998    1178    1190    1194    1172    3284+ 
+           3182    2105    3286    1192
CTETRA      2579       1    5307    2777    2776     613    6119    2819+ 
+           6351    6135    2825    2829
CTETRA      2580       1    5284    2188     349      10    5344    2203+ 
+           6188    6878    2202     350
CTETRA      2581       1    3805    4762    1083    1080     868    6300+ 
+           3969    3968     795    1082
CTETRA      2582       1    5311     870    2916    2163    5866    2933+ 
+           5641    5865    5864    6067
CTETRA      2583       1    5289    2253    2271    2770    6222    2338+ 
+           5565    5351    6437    6423
CTETRA      2584       1    4797    3820    3802    3801     458    4083+ 
+            463     460    4108    4105
CTETRA      2585       1    2095     252    3437      46    5435    3450+ 
+           5437    2094    2116    3448
CTETRA      2586       1    5291     588      63    2649    6792     589+ 
+           5444    6591    2671    2672
CTETRA      2587       1    5289    2253    2261    2271    6222    2390+ 
+           5401    5565    2338    2393
CTETRA      2588       1      69     547    2727      68     976    1562+ 
+           2744     594    6576    2746
CTETRA      2589       1    2247     236     229    2507    5625    1280+ 
+            862    6607    5614    6083
CTETRA      2590       1      39    3438    5292     222    3442    5788+ 
+           5484    2115    3441    5603
CTETRA      2591       1    5318    4677    2024    2027    6172    4706+ 
+           6256    6426    4683    2026
CTETRA      2592       1    2729     459    2425    2726    1886    2453+ 
+            639    2751    2846    5815
CTETRA      2593       1    2651      60    2077    2650    2666    6911+ 
+           6760    2670    2668     853
CTETRA      2594       1    3855    3854    3865    4717    4210    4209+ 
+           4211    6722    6721    1073
CTETRA      2595       1    1142    1100    1164    4784     879    6526+ 
+           3100     877     872     874
CTETRA      2596       1    5285     347    2187    2186    6203    2225+ 
+           6445    6204    2223    2227
CTETRA      2597       1    1042     963     181    1173    5768    3269+ 
+           3038    3121    6440     881
CTETRA      2598       1    3881    4718    3855    3882    6484    6468+ 
+           4213    4222    6482    4219
CTETRA      2599       1    5300     972     969    1034    5661    3020+ 
+           6182    5660    5652    3271
CTETRA      2600       1    5313     616    1807    2003    1616    3765+ 
+           6800    5904    5943    6692
CTETRA      2601       1    3878    2027    1601    4806     885    5685+ 
+           4042    6881    4863    6879
CTETRA      2602       1    1585    1588    3824    1999    1587    3930+ 
+           4038    2072    1602    2391
CTETRA      2603       1    5288    2261    5316    2267    5400    6236+ 
+           6023    5409    2400    6376
CTETRA      2604       1    2550     396     628    2274    6002    2807+ 
+           6913    6001    2322    6507
CTETRA      2605       1     303    1598    1549    1546    6736    3528+ 
+           6735     889    3526    1548
CTETRA      2606       1    3880    3853    3854    4813    4206    4202+ 
+           4205    5906    5364    1051
CTETRA      2607       1     132     110    1908     112    2884     891+ 
+           4562     801     752     894
CTETRA      2608       1    3854    3853    3861    4813    4202    4204+ 
+           4203    1051    5364    6825
CTETRA      2609       1    5299     127     638      78    6369    6889+ 
+           5634    6370    6366    2834
CTETRA      2610       1    4718    3854    3880    3881    6720    4205+ 
+           6893    6484    4212    4215
CTETRA      2611       1    5310    2255    5304    5316    5828    5827+ 
+           5821     898    6153    6143
CTETRA      2612       1     294     324     301    1812    5517    5497+ 
+           1844    3759    1480    1811
CTETRA      2613       1    4775    3815    4764    3814     505    6539+ 
+           5080     487    4124     900
CTETRA      2614       1    4732    4736    3865    4717    4962    1117+ 
+           1070    4950    4958    1073
CTETRA      2615       1     307    1619    1568    1566    5664    3540+ 
+           5663     654    3541    1567
CTETRA      2616       1    2612    2611     524    2074    2638    2623+ 
+           2619    6026    6056    6024
CTETRA      2617       1     781     638     887    2917    6374    2927+ 
+            906    6890    2918    2928
CTETRA      2618       1    5322    4786     174    1137    1508    1231+ 
+           6108    2015    1228    3092
CTETRA      2619       1    2185    3669    1755    5283    6951    3677+ 
+           5339     269    5370    6877
CTETRA      2620       1    5309     237     224    2071    5870    3383+ 
+           5988    5778    5974    1969
CTETRA      2621       1    2652    2653    2650    2077    2677    2667+ 
+           2682    6752    6929     853
CTETRA      2622       1    1590    1588    1999     169    1589    1602+ 
+           6646    3926    3929    6645
CTETRA      2623       1    5284    1613    1665    1823    6657    6786+ 
+           6886     223    5792    3729
CTETRA      2624       1    1590     299    1643    1812    5802    3715+ 
+           2719    2723    1814    3716
CTETRA      2625       1    1884     781     797     130    6934    2879+ 
+            912    6933    2878     798
CTETRA      2626       1     270    1360    1771    2244    1361    3660+ 
+           1770    6804    6726    5694
CTETRA      2627       1    5286    5287    5289    1782    5356    5396+ 
+           5387    5379    5374    6429
CTETRA      2628       1    4789     169    1999    3824    2061    6645+ 
+           4833    2063    3928    2391
CTETRA      2629       1     275    5292    5291     252    5422    5421+ 
+           5420    3400    6594    5430
CTETRA      2630       1    1999    4789    1997     169    4833    4834+ 
+           1998    6645    2061    6648
CTETRA      2631       1    5286    1785    3669    1782    5389    3676+ 
+           5367    5379    1784    3679
CTETRA      2632       1    5306    5310     291    1793    6360    6850+ 
+           6982    5732    6321    1794
CTETRA      2633       1    1046    5300    1186     183    6740       4+ 
+           3125    3040    6939     915
CTETRA      2634       1    1652    1551    1549     303    3570    1550+ 
+           3567    3721     829    6735
CTETRA      2635       1    2262    3669    1785    1374     919    3676+ 
+           6306    6935    3674    3671
CTETRA      2636       1    1588     298    1803    1639    1647    1802+ 
+            351     289    3713    3714
CTETRA      2637       1     969    5300     183     154    6182    6939+ 
+           3268     970    6183    1211
CTETRA      2638       1    1639    1588    1536    1534     289    3518+ 
+           3558    3556    3519    1535
CTETRA      2639       1    2272    1374    1785     274    6937    3671+ 
+           6936    6891    1375    1786
CTETRA      2640       1    4794    3817    3816    3825     942    4090+ 
+           1430    1417    4128    4129
CTETRA      2641       1    1512    5199    1734    5203    6562    5255+ 
+           6319    6318    5256    5251
CTETRA      2642       1    5322     175     163     994    1830    3263+ 
+           6672    1797    3264     993
CTETRA      2643       1    2612    2074    2608    2611    6026    6146+ 
+           2629    2638    6056    2648
CTETRA      2644       1    4330    4322    2980     890    4400    1702+ 
+           1725    4336    4398    2230
CTETRA      2645       1    5299     638     127    2917    5634    6889+ 
+           6369    5645    2918    6888
CTETRA      2646       1    4788    2001    1585    1999    4837    1973+ 
+           1966    4836    2000    2072
CTETRA      2647       1       9       7    2273     375     337    6907+ 
+           6906    2193    2194    2293
CTETRA      2648       1    5306    1590    1588    1999    1638    1589+ 
+           1608    6159    6646    1602
CTETRA      2649       1    5299     129     812     127     932     811+ 
+            930    6369     776    2887
CTETRA      2650       1    4812    3879    3891    3892    6978    4260+ 
+           5587    5566    4262    4264
CTETRA      2651       1    4800    4794    4793    3826    5155    5146+ 
+           5154     937     934     416
CTETRA      2652       1    1867     138     116    1870    4579     824+ 
+            615    1868    4577    1277
CTETRA      2653       1    2732    2564      69      51    6612    6462+ 
+           2757    2741    6463     596
CTETRA      2654       1    3830    2001    4787     285    1971    4840+ 
+           2312    3937    6898    2066
CTETRA      2655       1    4800    4794    3826    3817    5155     934+ 
+            937     945     942    4131
CTETRA      2656       1      53    2564     256    2095    6614    6461+ 
+           1325    6696    2574     141
CTETRA      2657       1    2095     241     266     252     572    1349+ 
+           5647    5435    1314    3399
CTETRA      2658       1    5322    1074    4786    4789    6671    1504+ 
+           1508    6988    6986    4835
CTETRA      2659       1    4800    4794    3817    4804    5155     942+ 
+            945    5158    5157     948
CTETRA      2660       1    2097    2726     459    2564    5816    2846+ 
+           2565    2571    5469    2573
CTETRA      2661       1    5299    4766    4765    4772     958    5093+ 
+            954     956    5094    5095
CTETRA      2662       1    2564     547      69     544    2577     976+ 
+           6462    2575     546    6837
CTETRA      2663       1    3822    3819    3821    4801    4135    4137+ 
+           4138     964     961    5546
CTETRA      2664       1    5284    1823    2018    1613     223    6659+ 
+           5849    6657    5792    5381
CTETRA      2665       1    4772     635    1509      78     968    3905+ 
+           6334    6333     634    2129
CTETRA      2666       1    1495    4755    5196    1493    5706     480+ 
+           5713    1494    5874    5756
CTETRA      2667       1    4799    4800    4801    3819    5165    5156+ 
+           5164     367      80     961
CTETRA      2668       1     571    2593    2564      22    2596    2605+ 
+           6694     570    2595    1946
CTETRA      2669       1    4772     635    3832    1509     968    3908+ 
+           6753    6334    3905    3956
CTETRA      2670       1    2425    2726     588    2729    5815    2748+ 
+           1686     639    2751    2736
CTETRA      2671       1    4775    1517    1520    3814     498    1518+ 
+           6383     487    4030    4029
CTETRA      2672       1    5200    1520    4776    1517    5721    6382+ 
+           6396    1453    1518    1003
CTETRA      2673       1     547      69     544     238     976    6837+ 
+            546    6932    1289    6610
CTETRA      2674       1    4725    2013    3831    4726    4851    6531+ 
+           6530    4852    4847    6533
CTETRA      2675       1    4779    4780    1514    4776    5107     978+ 
+           6379    4887    5110     981
CTETRA      2676       1    2729      24     588    2425    2735     586+ 
+           2736     639    2443    1686
CTETRA      2677       1    5299      79     638    2917    5635     637+ 
+           5634    5645    2919    2918
CTETRA      2678       1     284     285    1582     286    3513    3514+ 
+           1583    3553    7003    3554
CTETRA      2679       1    4776    4780    1514    3797    5110     978+ 
+            981     988     985    4028
CTETRA      2680       1     303    1650    1546    1652    3722    3569+ 
+            889    3721    1651    3568
CTETRA      2681       1    5299     635      79    4766    5636     636+ 
+           5635     958     990     992
CTETRA      2682       1    1585    1532    1639    1636    3515    3557+ 
+            292       1    3555    1637
CTETRA      2683       1    4776    4775    4780    3797    5108    5091+ 
+           5110     988     490     985
CTETRA      2684       1    1582    1633    1685     286    3516    6394+ 
+           2120    3554    7004    1687
CTETRA      2685       1      18     556      30     492    2780     558+ 
+            472    2465    6171    2464
CTETRA      2686       1    1505    2044    5202    5190    6402    5272+ 
+           6401    6764    5269    5249
CTETRA      2687       1    4776    1517    1514    5201    1003    1515+ 
+            981    1001     997     999
CTETRA      2688       1    4794    4795    3816    4804    5148    1420+ 
+           1430    5157    5135    1422
CTETRA      2689       1      71     412     414    2260    2794     413+ 
+           2789    6471    2343    2344
CTETRA      2690       1    5310    2258    2260    2259    5844    2346+ 
+           5837    5836    2399    2377
CTETRA      2691       1    5200    1524     283    2181     565    3483+ 
+           6572    5207    7007    6567
CTETRA      2692       1     286    1633    1685    1805    7004    6394+ 
+           1687    3703    6841    3704
CTETRA      2693       1    4774    2169      79    4766    4924    6407+ 
+           1007    4928    4926     992
CTETRA      2694       1    1585    2001    1805    1803    1973    6896+ 
+           7008       2    2070    1804
CTETRA      2695       1    4775    1517    3797    4776     498    4027+ 
+            490    5108    1003     988
CTETRA      2696       1    3855    4717    4736    4718    6722    4958+ 
+           6389    6468    4959    4957
CTETRA      2697       1    5299      79     867    4766    5635     866+ 
+           5644     958     992    1012
CTETRA      2698       1    5291    2726    2097    2564    5817    5816+ 
+           5810    5809    5469    2571
CTETRA      2699       1    5305     102    4528    4522    5674    6999+ 
+            541    1017    1014    4559
CTETRA      2700       1    2251    2425    2250    2097    6016    6637+ 
+           2363    5476    5814    5474
CTETRA      2701       1    4771    1505    5202    1509    6403    6401+ 
+           5698    6427    1507    6433
CTETRA      2702       1      23     467    2537     531    2064    6956+ 
+           2543     532    6072    2546
CTETRA      2703       1    4522    4523    4422     102    4561    5927+ 
+           5926    1014    6990    6995
CTETRA      2704       1    5283    2188    2185    2187    5347    2220+ 
+            269    6812    2228    2240
CTETRA      2705       1    1983    4519    4468     855    4642      49+ 
+           4499    6254    6255      61
CTETRA      2706       1    5285    2265    2186    2187    6208    6600+ 
+           6204    6445    6728    2227
CTETRA      2707       1     102    4523     104     101    6990    5770+ 
+            747     745    1019     748
CTETRA      2708       1    5297    5298    1157    3154    5569    6348+ 
+           1206    6098    6349    6347
CTETRA      2709       1    1052    5300     952     154    7005    6084+ 
+           3280    3279    6183     951
CTETRA      2710       1    1514    1734    1426    1429    2266    3604+ 
+           3488    3487    3603    1428
CTETRA      2711       1     107     105     773    5305     749    2875+ 
+            772    5709    5717     529
CTETRA      2712       1    3816    4804    1091    3798    1422    6513+ 
+           3981    3982    6515    3977
CTETRA      2713       1    2145      91    4463      89     684    1023+ 
+           4486    1029     724    1026
CTETRA      2714       1    4760    1149    4722    3896    6195    6038+ 
+           4989    2174    3996     219
CTETRA      2715       1    5305     102     773    4528    5674     774+ 
+            529     541    6999    5940
CTETRA      2716       1    2654     444      23     467    2656     442+ 
+           2657    6073    2438    2064
CTETRA      2717       1    3157    1162    3158    1164    6303    6523+ 
+           3261    6304    1163    6525
CTETRA      2718       1      34     499    2524     501    2067    5463+ 
+           2525    2460     500    5483
CTETRA      2719       1    2870     104    4320     105    2871    6919+ 
+           5716    2874     771    5715
CTETRA      2720       1    5291    2427     433    2425    6781    2449+ 
+           5796    5818    2444    2452
CTETRA      2721       1    4720    3894    3887    3897    6730    4282+ 
+           6556    6151    4284    4279
CTETRA      2722       1    2652    2080    2507    2077    6751    2516+ 
+             74    6752    2079    2512
CTETRA      2723       1    1724    1442    1438    1501    3611    1440+ 
+           3612     675    3495    3496
CTETRA      2724       1    5321     155    5300     204    6042    6683+ 
+           6086    5964    3173    6719
CTETRA      2725       1    4463    2142     311    1989    4503    1037+ 
+           6469    4504    2141    4607
CTETRA      2726       1    2010     295     309    1836    5928    1839+ 
+           6717    1559    3771    1837
CTETRA      2727       1     105    4328     104    4320    6918    5894+ 
+            771    5715    4373    6919
CTETRA      2728       1     692    1863    1860     832    3784    1862+ 
+           3787     697    6829     598
CTETRA      2729       1    1164    4784    1140    1142     874    6498+ 
+           3101    3100     877    1141
CTETRA      2730       1     303    1546    1549    1652     889    1548+ 
+           6735    3721    3568    3567
CTETRA      2731       1     705     701    4320     105     703    4369+ 
+           4368    5916     443    5715
CTETRA      2732       1    2027    5318    1779    2024    6426    6852+ 
+           5684    2026    6256    5681
CTETRA      2733       1    3854    4717    4813    3861    6721    4954+ 
+           1051    4203    1049    6825
CTETRA      2734       1    2001    1633    1805    2003    6897    6841+ 
+           6896    2002    6842    6693
CTETRA      2735       1     705     701     105     108     703     443+ 
+           5916    5915    5985     751
CTETRA      2736       1    3806    1085    4810    4782    3971    2093+ 
+           1138    2099    2572    5114
CTETRA      2737       1    3889    4721    3888    4758    5839    6865+ 
+           4278    5739    4986    1054
CTETRA      2738       1    2251    5290    5291     275    5620    5425+ 
+           5797    6770    5423    5420
CTETRA      2739       1    1699    1697    1468     194    1698    3633+ 
+           3631    6011     319    3471
CTETRA      2740       1     301    1818    1648    1596    1819    3719+ 
+           2125    5496    5493    2148
CTETRA      2741       1    5297    3151    3154    3153    1065    3219+ 
+           6098    1063    3256    3247
CTETRA      2742       1    3880    3854    4717    4813    4205    6721+ 
+           1373    5906    1051    4954
CTETRA      2743       1     809     807    2914    2913     808    5852+ 
+           5655    6227    1067    2944
CTETRA      2744       1    1805    1585    1636     286    7008       1+ 
+           3702    3703     382    1635
CTETRA      2745       1    4716    4732    3865    4717    4951    1070+ 
+           1075    4952    4950    1073
CTETRA      2746       1     286    1585    1636    1532     382       1+ 
+           1635    3552    3515    3555
CTETRA      2747       1    4733    3867    3866    3859     215    4239+ 
+           1081    6855    4236    4230
CTETRA      2748       1    5315    2776     616     613    6228    2828+ 
+           5941    6946    2829     614
CTETRA      2749       1    4819    1140    3900    3902    1088    3988+ 
+           1086    5559    3984    3989
CTETRA      2750       1    1585    1803    1636    1639       2    3736+ 
+              1     292    3714    1637
CTETRA      2751       1     809    2913    2982     861    6227    6226+ 
+           2992    3003    6234    3005
CTETRA      2752       1    1579    1683    1633    1630    3593    6393+ 
+           3551    3549    6094    1631
CTETRA      2753       1    3154    3140    1115    5298    3222    3221+ 
+           3217    6349    6191    6189
CTETRA      2754       1    3851    4739    4743    3849    6848    4910+ 
+           7002    3965    6851    6707
CTETRA      2755       1    1722    1499    5198    1720    1096     693+ 
+           5238    1721    6765    5239
CTETRA      2756       1    5313     296      73     297    5543    1849+ 
+           6820    5540    1800    3769
CTETRA      2757       1    3155    3152    5297    3156    3258    1098+ 
+           1103    3213    3259    1101
CTETRA      2758       1    1639     298    1641    1588    3713    3712+ 
+           1640     289    1647    5805
CTETRA      2759       1    4468    1937    4467    4326    4490    4494+ 
+           4495      19    4393      64
CTETRA      2760       1     623    1768    1766    2770    3657    1767+ 
+           3655    2810    1320    6425
CTETRA      2761       1    1160    3152    5297    3153    1110    1098+ 
+           1108    5734    3194    1063
CTETRA      2762       1     508      57    1234     218    5885    3303+ 
+           3422    3421    1232    1233
CTETRA      2763       1    4733    4734    3834    4738    5012     401+ 
+            409    5018    5019    6702
CTETRA      2764       1    1785     274    1402    2270    1786    1403+ 
+           3693    5385    2176    6548
CTETRA      2765       1    5296    1083    1115    1112    5554    3079+ 
+            846    5556    3078    1113
CTETRA      2766       1    4332    4329     838     785    4415    5959+ 
+            173    1666    5958    2999
CTETRA      2767       1    4326     859     882     855     650    1114+ 
+           4390      52    2908    6592
CTETRA      2768       1    5297    1106    1162    1142    6502    5593+ 
+           1187    2162    2160    3103
CTETRA      2769       1    4732    4736    3863    3865    4962    5601+ 
+           5600    1070    1117    4221
CTETRA      2770       1    1392    2260    2243    1397    2395    2368+ 
+           5371    3386    6521    6976
CTETRA      2771       1    4325    4324    4327     115    4388    4412+ 
+           4413    6141    6167     792
CTETRA      2772       1    2242    1392     266     258     806    3392+ 
+           6966    6863    1390    3391
CTETRA      2773       1    3835    4738    3850    3848    5442    6710+ 
+           4153    4160    5441    4164
CTETRA      2774       1    1397     270    2243    1392    1398    5373+ 
+           6976    3386    3387    5371
CTETRA      2775       1    4326     884     859    4327    4391    1122+ 
+            650    4396    4395    6265
CTETRA      2776       1    5306    5307     609    2778    5738    6157+ 
+           6160    1377    6118    2798
CTETRA      2777       1      44    2550     268    2088    2555    6787+ 
+           6490    2556    2562    6775
CTETRA      2778       1    2774    2258     408     412    5842    2340+ 
+           2816    2815    2341     410
CTETRA      2779       1    3812    4763    3813    3815    1131    1127+ 
+           4126    4125     476    4127
CTETRA      2780       1     118    4512    4513    4465    6687    4590+ 
+           6685    6652    1719    6908
CTETRA      2781       1    3855    4736    4717    3865    6389    4958+ 
+           6722    4211    1117    1073
CTETRA      2782       1    4463     680    4524      89    2766    1255+ 
+           6470    1026     679    1259
CTETRA      2783       1    4781    4762    4810    3806    5075    5069+ 
+           5078    6949    1136    1138
CTETRA      2784       1    1768    2770     293    5289    1320    5355+ 
+           1769    6237    5351    5354
CTETRA      2785       1    4417      88    1949    1951     209    4345+ 
+           4437    4436    4344    1950
CTETRA      2786       1     621     623    2770    1768     622    2810+ 
+           2801    3656    3657    1320
CTETRA      2787       1    4750    4741    3856    3857    5032     610+ 
+           6479    1144     608    4223
CTETRA      2788       1     402    2271     405    2770    2332    2333+ 
+            403    2809    6423    2808
CTETRA      2789       1    3156    3157    1162    3158    3260    6303+ 
+           5592    3210    3261    6523
CTETRA      2790       1    1766    2268    1402     260    6031    6494+ 
+           3692    1765    6061    1400
CTETRA      2791       1    3812    4762    4763    4781    6535    5073+ 
+           1131    6545    5075    5076
CTETRA      2792       1     402    2271     623    2268    2332    6033+ 
+           2805    2328    2334    6032
CTETRA      2793       1    4819    4818    3902    3900    5179    5557+ 
+           5559    1086    5553    3989
CTETRA      2794       1    2246      14    2247     227    6689    6749+ 
+           2317    6718    1254    6797
CTETRA      2795       1    3803    3807    4796    3800    4103    1150+ 
+           1153    4099    4092     379
CTETRA      2796       1      44     264     263    2550    6332    1336+ 
+           6491    2555    5329    6449
CTETRA      2797       1    4818    3892    3898    4821    5568    4291+ 
+           5551    5189    6162    6161
CTETRA      2798       1    3855    3863    4736    3865    4218    5601+ 
+           6389    4211    4221    1117
CTETRA      2799       1    4733    3858    3866    3834     407    4158+ 
+           1081     409    4151    4156
CTETRA      2800       1    3403    2686      55    2688    5413    2706+ 
+           5393    5414    2707    2704
CTETRA      2801       1    3159    1173    1042    1164    6485    3121+ 
+           1158    6486    3133    3132
CTETRA      2802       1    2550     556     628     396    6170    2785+ 
+           6913    6002    2779    2807
CTETRA      2803       1      46     544     244    1295     543    6609+ 
+            587    3446    3449    3335
CTETRA      2804       1    2550     489    2580     492    2560    6860+ 
+           6846    2559     491    6845
CTETRA      2805       1    3159    1196     977    1173    3198    3179+ 
+           3199    6485    2108    6441
CTETRA      2806       1     345    5318      11    2183    6262    6179+ 
+            344    2204    6009    2205
CTETRA      2807       1     544    1293     547     238    3468    3461+ 
+            546    6610    3331    6932
CTETRA      2808       1    4724    4725    3872    4729    4855    6979+ 
+           6663    4999    5000     170
CTETRA      2809       1     983     987     161    1190    3027     989+ 
+           3028    1169    3180    3181
CTETRA      2810       1    5317    3403     537     248    5967    3427+ 
+           5336    5338    3425    3428
CTETRA      2811       1    5290    2247    1365    2249    5627    5626+ 
+           5598    5621    2386    6387
CTETRA      2812       1     161     998    1178    1190     996    1172+ 
+           1176    3181    3182    3284
CTETRA      2813       1    2592     566    2564     571    2601     157+ 
+           1180    2602    2604    6694
CTETRA      2814       1    5297    1160    1145    1162    1108    3106+ 
+           6103    1187    1161    3102
CTETRA      2815       1     566      25    2729     455     568    2738+ 
+           2739    1193    2062    1191
CTETRA      2816       1    5297    1109    1112    3151    1198    1111+ 
+           6099    1065    3214    3215
CTETRA      2817       1    1220     205     519    1223    3300    6961+ 
+           3444    1222    3298    3467
CTETRA      2818       1    5297    1147    1145    1157    5570    1146+ 
+           6103    1206    3104    3105
CTETRA      2819       1    1223     205     519     206    3298    6961+ 
+           3467    3296    1213    6953
CTETRA      2820       1    4808    3895    1145    1147    1214    3994+ 
+           1210    1212    3993    1146
CTETRA      2821       1    4737    4738    3835    4742    5020    5442+ 
+            336    5026    5027    5440
CTETRA      2822       1    1178    1030    1025     200    3117    3036+ 
+           1221    1179    3118    1219
CTETRA      2823       1    2653      60    2507      42    2662    6910+ 
+           6930    2663     582    6904
CTETRA      2824       1    5297    1145    1160    1157    6103    3106+ 
+           1108    1206    3105    1159
CTETRA      2825       1    2077    2652    2653    2507    6752    2677+ 
+           6929    2512      74    6930
CTETRA      2826       1    5296    1112    1115    3154    5556    1113+ 
+            846    6100    3218    3217
CTETRA      2827       1     531    2507      42    2653    6046    6904+ 
+            530    2664    6930    2663
CTETRA      2828       1    3897    4719    4814    4821    5800    4974+ 
+           6150    5801    4968    4977
CTETRA      2829       1    4737    4742    3835    3862    5026    5440+ 
+            336     196     193    4162
CTETRA      2830       1     174     172    1137    4786    1011    1135+ 
+           3092    1231    6660    1228
CTETRA      2831       1     531    2080    2507    2652    6071    2516+ 
+           6046    2674    6751      74
CTETRA      2832       1    1137    1140    4811    3902    1139     831+ 
+           6972    3985    3984    5558
CTETRA      2833       1    4750    4746    3857    3877    5044    1235+ 
+           1144     719    5857    4185
CTETRA      2834       1    3883    3882    4751    4719    4252    6555+ 
+           6329    6327    6712    4972
CTETRA      2835       1    2260    2242     414     258    2350    2347+ 
+           2344    6964    6863    6861
CTETRA      2836       1    3846    3847    3851    2167    3960    3961+ 
+           3959    1245    1240    1242
CTETRA      2837       1    2564     244    2095     544    6538     135+ 
+           2574    2575    6609    2576
CTETRA      2838       1    4818    3901    3898    3892    5552    4293+ 
+           5551    5568    4288    4291
CTETRA      2839       1    5320    2013    2016    4673    5808    2014+ 
+           5846    5806    4699    4698
CTETRA      2840       1    3886    3882    4719    4718    4269    6712+ 
+           6478    6483    6482    4966
CTETRA      2841       1    1573     309    1677    1625    6579    3732+ 
+           3588    3546    6713    6704
CTETRA      2842       1    2145      89      93      91    1029     726+ 
+            687     684     724    2863
CTETRA      2843       1    1675     309    1677    1573    3733    3732+ 
+           1676    3585    6579    3588
CTETRA      2844       1    4818    3892    4821    4822    5568    6162+ 
+           5189    5181    6617    4970
CTETRA      2845       1    2013    1622    1832    1619    6532    6315+ 
+           6020    6421    1620    6649
CTETRA      2846       1      89     680    4524    1870     679    1255+ 
+           1259    3775    3776    4575
CTETRA      2847       1    2013    3831    1622    1619    6531    4062+ 
+           6532    6421    4063    1620
CTETRA      2848       1    4799    3820    3819    3821     109    4110+ 
+            367     111    4080    4137
CTETRA      2849       1    1628    3796    4727    2007    4070    6700+ 
+           6312    5896    7000    4844
CTETRA      2850       1    2142      93     311    4511    1269    3773+ 
+           1037    1267    6833    4598
CTETRA      2851       1    1675    1671    1832    1622    1673    3731+ 
+           3734    5596    5597    6315
CTETRA      2852       1    1865     921    1863     832    4636    4637+ 
+           1864     619    2973    6829
CTETRA      2853       1    1557    1560    1611    1660    1558    3534+ 
+           3535    3573    3576    6828
CTETRA      2854       1     680     116    4524    1870    1279    1275+ 
+           1255    3776    1277    4575
CTETRA      2855       1    1655    1605    1551     305    5651    2119+ 
+           3572    3724    6984    1281
CTETRA      2856       1    2593      22      25     453    2595     450+ 
+           2594    1287    2433    2437
CTETRA      2857       1    1601     305     303    1551     820    1820+ 
+           6737    3529    1281     829
CTETRA      2858       1      89     721      91    4463    2850     722+ 
+            724    1026    1291    1023
CTETRA      2859       1    1551     305     303    1652    1281    1820+ 
+            829    3570    3720    3721
CTETRA      2860       1    4469     721    4463    1931    6180    1291+ 
+           4489    4488    4350    4483
CTETRA      2861       1     303    1598    1546    1650    6736    3526+ 
+            889    3722    6985    3569
CTETRA      2862       1    4463     311    1987    1989    6469    4608+ 
+           4505    4504    4607    1988
CTETRA      2863       1    5289    1785    1782    3691    5384    1784+ 
+           6429    6232    3698    3701
CTETRA      2864       1     311      89    4524    1870    1854    1259+ 
+           4605    1872    3775    4575
CTETRA      2865       1    1785    3691    2270    1402    3698    6231+ 
+           5385    3693    3696    6548
CTETRA      2866       1     203     987     983    1190    3176    3027+ 
+           1307    1189    3180    1169
CTETRA      2867       1    2262    1374    2263    3669    6935     276+ 
+           2408     919    3674    1311
CTETRA      2868       1    2564    2592      53      51    1180    2598+ 
+           6614    6463    2600     569
CTETRA      2869       1     623    2770    1766    2271    2810    6425+ 
+           3655    6033    6423    6030
CTETRA      2870       1    1322     255     256      51    1321    6357+ 
+           1324    3344    1319    6464
CTETRA      2871       1    1768    1766    2770    3691    1767    6425+ 
+           1320    3699    3697    6424
CTETRA      2872       1    1322     255    3355     256    1321    1323+ 
+           3359    1324    6357    3360
CTETRA      2873       1    2550    2690    2088    2691    6854    6772+ 
+           2562    6280    2714    1328
CTETRA      2874       1    1166    1140    4785    1137    3099    6499+ 
+           6112    3094    1139     835
CTETRA      2875       1     562     489    2090    2692     201    2557+ 
+           6774    2696    6866    6258
CTETRA      2876       1     547      68     239      63    6576    1290+ 
+           3460    1335     593    3397
CTETRA      2877       1     562      32     489    2692     561    2065+ 
+            201    2696    2695    6866
CTETRA      2878       1    1190     203     200     983    1189    3282+ 
+           3281    1169    1307    1338
CTETRA      2879       1    5318    5320     347    4680    6212    6448+ 
+           6201    6253    6252    6773
CTETRA      2880       1     200    1173     182     181    1171    3120+ 
+           3119    1344     881    1032
CTETRA      2881       1    5287    2013    5320    4674    6044    5808+ 
+           5527    6043    4695    5807
CTETRA      2882       1     256      51      53    1322    6464     569+ 
+           1325    1324    3344    3343
CTETRA      2883       1    5286    3669    2262    2264    5367     919+ 
+           6307    5366    5368    2409
CTETRA      2884       1    2095     599    2771    2773    1350    2788+ 
+           6967    6968    2793    2822
CTETRA      2885       1    5286    2264    2262    2267    5366    2409+ 
+           6307    5411    2413    2403
CTETRA      2886       1    1173     963     181     200    6440    3269+ 
+            881    1171    1352    1344
CTETRA      2887       1    5288    5289    5316    2261    5395    5930+ 
+           6023    5400    5401    6236
CTETRA      2888       1    1711    1455    1452    1491    3621    1454+ 
+           3622    5813    3504    3505
CTETRA      2889       1    5313      73    5314     293    6820    6697+ 
+           5901    6821    1764    5353
CTETRA      2890       1    4743    4742    3848    4738    5030    5439+ 
+           1359    5029    5027    5441
CTETRA      2891       1    4734    3858    3834    3833     404    4151+ 
+            401    6993    4150    4148
CTETRA      2892       1    3844    4747    3840    3841    6414    6413+ 
+           4188    4189    1363    4187
CTETRA      2893       1    5310    2777    2258    2255    5845    5841+ 
+           5844    5828    6443    2388
CTETRA      2894       1    4737    3863    4736    4741    5602    5601+ 
+           5017    5024     723    5023
CTETRA      2895       1    1788    2013    5284    5320    6019    5990+ 
+           6198    6053    5808    5850
CTETRA      2896       1    4740    4741    4736    3856    5025    5023+ 
+           4969    6391     610    6388
CTETRA      2897       1    5283    3669    2264    2185    5370    5368+ 
+           5369     269    6951    1369
CTETRA      2898       1    3886    3883    4719    3882    4271    6327+ 
+           6478    4269    4252    6712
CTETRA      2899       1    2776    5315    5307     613    6228    6139+ 
+           6351    2829    6946    6135
CTETRA      2900       1    3880    4718    4822    4717    6893    4961+ 
+           6739    1373    4959    4960
CTETRA      2901       1    5287    1788    5285    5320    5375    6034+ 
+           5392    5527    6053    6047
CTETRA      2902       1    4740    3882    3855    4718    6711    4219+ 
+           6390    4965    6482    6468
CTETRA      2903       1    2186    2265    5285    5318    6600    6208+ 
+           6204    6200    6206    6202
CTETRA      2904       1    4717    4718    3854    3880    4959    6720+ 
+           6721    1373    6893    4205
CTETRA      2905       1    2272    2263    2262    1374    2412    2408+ 
+           2410    6937     276    6935
CTETRA      2906       1     855    4519    4468    4326    6255      49+ 
+             61      52      54      19
CTETRA      2907       1    2612      34     481     499    2618     482+ 
+           2615    6025    2067    2478
CTETRA      2908       1    5307    4676    4679    4678    6131    4714+ 
+           5579    6147    4712    4689
CTETRA      2909       1    5306     291    5310    2778    6982    6850+ 
+           6360    1377    6849    6120
CTETRA      2910       1     852    2915     882    4466    6586    2937+ 
+           6593    6510     769     126
CTETRA      2911       1    2272     274     272    1368    6891    1371+ 
+           5977    6626    3372    1370
CTETRA      2912       1     861    2915    2913     882    6286    2941+ 
+           6234    6233    2937    2940
CTETRA      2913       1    2273     232     231       7    6926    1262+ 
+           6909    6907    3315    1261
CTETRA      2914       1    5311     818     807     815    6620    2889+ 
+           5851    5881     817    2891
CTETRA      2915       1     508      58     217      57    5507    1230+ 
+           5953    5885     579    3302
CTETRA      2916       1     324     172    4786    1596    1386    6660+ 
+           4824    5495    2127    6662
CTETRA      2917       1    5282    2614      40      58    5955    2621+ 
+           5956    5506    2636     581
CTETRA      2918       1     718     115     843    4323    6166     844+ 
+           1393    4381    6165    1391
CTETRA      2919       1    2274     268     263    2550    6519    1355+ 
+           6573    6001    6787    6449
CTETRA      2920       1     870    4739    3849     873    6844    6851+ 
+           3962     871    6998    3924
CTETRA      2921       1    3817    4803    3818    4800    1399    1396+ 
+           4097     945    5166      82
CTETRA      2922       1    2016    1613    3872    1617    6656    4056+ 
+           1401    6655    1615    4057
CTETRA      2923       1    4796    3820    3801    3819     456    4108+ 
+           1405     373    4110    4102
CTETRA      2924       1    3851    2165     867    2167    6847    5687+ 
+           3958    1242    2166    1408
CTETRA      2925       1    4794    3826    3828    4793     934    4142+ 
+           5795    5146     416    5793
CTETRA      2926       1    4816    1109    5296    5297    6079    6887+ 
+            160    6504    1198    5574
CTETRA      2927       1    4794    4788    3830    3825    5144    1410+ 
+           1415    1417    1412    4143
CTETRA      2928       1    4784    3816    4795    4804    1427    1420+ 
+           5131    5124    1422    5135
CTETRA      2929       1    4794    3816    3817    4804    1430    4090+ 
+            942    5157    1422     948
CTETRA      2930       1    1160    1034    3153    1046    1432    6940+ 
+           5734    3134    3041    5736
CTETRA      2931       1    4794    3816    4795    3825    1430    1420+ 
+           5148    1417    4129    1435
CTETRA      2932       1    3851    3849    4743    3850    3965    6707+ 
+           7002    3964    3963    6709
CTETRA      2933       1    3798    4783    3799    4804    6514    1439+ 
+           4086    6515    5125    1441
CTETRA      2934       1    3899    4821    4817    3898    5605    5184+ 
+           5604    4298    6161    5611
CTETRA      2935       1    4803    3800    4796    4782     377     379+ 
+           5121    5117    1444    5111
CTETRA      2936       1    4794    3825    3829    3826    1417    4145+ 
+           1451     934    4133    4144
CTETRA      2937       1    4796    3819    4803    4799     373     365+ 
+           5121    5159     367    5161
CTETRA      2938       1    1740    1520    5200    1517    5722    5721+ 
+           5260    6493    1518    1453
CTETRA      2939       1    4803    4804    3817    3799    5128     948+ 
+           1399    1456    1441    4089
CTETRA      2940       1    3847    4749    4743    2167    1464    4913+ 
+           1462    1240    4911    4909
CTETRA      2941       1     263      44    2550     268    6491    2555+ 
+           6449    1355    6490    6787
CTETRA      2942       1      93    4510    1904     310    6830    4595+ 
+           4302    1851    4600    1903
CTETRA      2943       1    4763    4762    3811    4777    5073    6536+ 
+           1469    5074    5072    5692
CTETRA      2944       1    5313     293    1796     297    6821    1795+ 
+           5908    5540    1850    3770
CTETRA      2945       1    3812    3813    4763    3811    4126    1127+ 
+           1131    4121    4036    1469
CTETRA      2946       1    4800    4804    3817    4803    5158     948+ 
+            945    5166    5128    1399
CTETRA      2947       1    1083    1080    5324    3057    1082    6353+ 
+           6211    3067    3068    6342
CTETRA      2948       1     544     244    1295    1293    6609    3335+ 
+           3449    3468    3332    1294
CTETRA      2949       1    4767    3811    3805    4762    1477    4037+ 
+           1475    5066    6536     868
CTETRA      2950       1    5311    2914     809     807    5638    5655+ 
+           5656    5851    5852     808
CTETRA      2951       1    4762    1083    4761    4810    6300    5582+ 
+           5065    5069    5583    5068
CTETRA      2952       1    1593    1997    1812     324    1482    5729+ 
+           6762    5510    1996    1480
CTETRA      2953       1    4764    4780    4775     314    5086    5091+ 
+           5080    1486    1484     485
CTETRA      2954       1     178     180     994     175    1022    1489+ 
+           3262    1020    3034    3264
CTETRA      2955       1    4764    1896    4791    4765    1502    1496+ 
+           5090    5087    1498    5089
CTETRA      2956       1    5322    4786    1074     171    1508    1504+ 
+           6671    6673    1506    3053
CTETRA      2957       1    4790    3802    4791    3809     395    1510+ 
+           5092    5624    4084    5623
CTETRA      2958       1    1593    1645    1596     301    6763    6063+ 
+           1595    5511    3717    5496
CTETRA      2959       1    4775     314    3814    4764     485    3946+ 
+            487    5080    1486     900
CTETRA      2960       1    1593    1539    1541    1643    3523    1540+ 
+           3522    1516    3562    3561
CTETRA      2961       1     812    4792    5311    4798    1523    5657+ 
+           1519    1521    4934    5861
CTETRA      2962       1    4742    3848    3835    3836    5439    4160+ 
+           5440     371    4159    4161
CTETRA      2963       1    4791    1893     812    1896     434    1525+ 
+           1530    1496    1894    1528
CTETRA      2964       1     324    4805    2027    1596    4825    4826+ 
+           2028    5495    6674    5504
CTETRA      2965       1    4764    3809    4791    1896    5622    5623+ 
+           5090    1502    3944    1496
CTETRA      2966       1    3878    4806    4805    2027    6881    4865+ 
+           6680     885    4863    4826
CTETRA      2967       1    4791    1896    3802    1893    1496    4081+ 
+           1510     434    1894    4082
CTETRA      2968       1     324    1997     172    1593    1996    1537+ 
+           1386    5510    1482    3967
CTETRA      2969       1    5305    4526    4529    4525     539    4538+ 
+           5711    1542    4670    4671
CTETRA      2970       1    1818    2027     324    1779    5503    2028+ 
+           5494    3757    5684    6790
CTETRA      2971       1    4529    4530    4531    4416    4661    4672+ 
+           4539    5703    5826    5832
CTETRA      2972       1    4733    3867    4737    3866     215     211+ 
+           5016    1081    4239     338
CTETRA      2973       1    4523    1921    4515     646    4555    4556+ 
+           4554    5773    4314    1547
CTETRA      2974       1    4728    4732    4733    3867    4955    5009+ 
+           5007     804     213     215
CTETRA      2975       1    4764    4780     314    4765    5086    1484+ 
+           1486    5087    5088    1552
CTETRA      2976       1    4734    4735     873    4739    5014    6991+ 
+           6994    5021    4907    6998
CTETRA      2977       1    4779    4772    1512    1884    5106    6335+ 
+           6563    6559    6558    3907
CTETRA      2978       1    3849    4743    4738    4739    6707    5029+ 
+           6708    6851    4910    5022
CTETRA      2979       1    4780    4765    1884     314    5088    1556+ 
+           6557    1484    1552    1883
CTETRA      2980       1    5313    2010    1628    1836    5897    5895+ 
+           5890    6686    1559    6458
CTETRA      2981       1     288    2183    5303    1746    6005    6004+ 
+           6006    1745    6092    6018
CTETRA      2982       1     547      68      63    2727    6576     593+ 
+           1335    1562    2746    2749
CTETRA      2983       1    1527     197    1692    2056    1529    6924+ 
+           6810     584     580    5218
CTETRA      2984       1    1397    2260    2243    2259    6521    2368+ 
+           6976    6975    2377    2373
CTETRA      2985       1    4734    4735    4730    3833    5014    5013+ 
+           5011    6993    6992    1565
CTETRA      2986       1    4786     172     324    1997    6660    1386+ 
+           4824    4823    1537    1996
CTETRA      2987       1    1694    1471    1697     144    3636    3632+ 
+           1695    1572    3470     322
CTETRA      2988       1     270    1360    2249    1365    1361    6724+ 
+           6783    3369    3368    6387
CTETRA      2989       1    4769    5192     194    5193    6049    6048+ 
+           6050     329    5222     317
CTETRA      2990       1    1178    3160    1175    1194    1581      92+ 
+           1177    3286    3201    3287
CTETRA      2991       1     197    1692    2056    5193    6924    5218+ 
+            580    6928    5217    5219
CTETRA      2992       1    3816    4804    3798    3817    1422    6515+ 
+           3982    4090     948    4088
CTETRA      2993       1    1703    1481    1485    5195    1586    1483+ 
+           6064    5223     729     725
CTETRA      2994       1    5203    1509    1732    1512     595    6432+ 
+           5252    6318    1511    6320
CTETRA      2995       1    1703    1706    5195    1485    1705    5224+ 
+           5223    6064     778     725
CTETRA      2996       1    5322     165     168    1097    1594    1005+ 
+           1592    6114    3183    1095
CTETRA      2997       1    1699    1481    1703    5195    6223    1586+ 
+           1701    5211     729    5223
CTETRA      2998       1    3853    3879    3852    4813    4200    4199+ 
+           4197    5364    5905    5363
CTETRA      2999       1    5294    5295    1130    3147    5500    1599+ 
+           6815    6345    6343    3233
CTETRA      3000       1    5306    1588    1803    1999    1608     351+ 
+           1606    6159    1602    1604
CTETRA      3001       1    5294    3147    1130     149    6345    3233+ 
+           6815     253    3166    3164
CTETRA      3002       1    4801    3819    3821    4799     961    4137+ 
+           5546    5164     367     111
CTETRA      3003       1    5295    3148    1155    3145    5523    5544+ 
+           5513    6405    3250     521
CTETRA      3004       1    1805     285     286    1633    6899    7003+ 
+           3703    6841    1634    7004
CTETRA      3005       1    5323    1130    3056    1133    6817    3091+ 
+           1614    6818    1132    3090
CTETRA      3006       1    1541    1593    1645    1596    3522    6763+ 
+           3564    3525    1595    6063
CTETRA      3007       1     192    4770    5295    1149    5997    5998+ 
+           5512    3096    6196    5514
CTETRA      3008       1     616    2003    5313    5314    5943    5904+ 
+           1616    5944    5903    5901
CTETRA      3009       1    1699     194    1468    1466    6011    3471+ 
+           3631    3629    3475    1467
CTETRA      3010       1    3852    4807    4806    2024    5362    4864+ 
+           6880    1621    4859    4862
CTETRA      3011       1    4729    3872    3859    3858     170    4233+ 
+           6362    6869    4232    4231
CTETRA      3012       1    3868    1609    4807    1605    4048    1624+ 
+           6177    4047    1607    1626
CTETRA      3013       1    4730     100    3869    3833    6917    3921+ 
+           6528    1565    3918    4147
CTETRA      3014       1    3816    4795    3825    3824    1420    1435+ 
+           4129    3983    1632    4130
CTETRA      3015       1      40     524    2492    2522     526    5460+ 
+           5467    2529    2533    5970
CTETRA      3016       1    3853    3852    3868    4807    4197    4049+ 
+           4198    5365    5362    6177
CTETRA      3017       1     524    2492    2074    2611    5460    2493+ 
+           6024    2623    5418    6056
CTETRA      3018       1    5306    1590    1999    1997    1638    6646+ 
+           6159    5731    6647    1998
CTETRA      3019       1    1056     185     202     183    1055    3123+ 
+           3122    3045    1048     629
CTETRA      3020       1    5306     298      72    1803    6981    1847+ 
+           6983    1606    1802    3762
CTETRA      3021       1    4730    4726    3831     100    5003    6533+ 
+           6527    6917    6541    3922
CTETRA      3022       1    5289    2270    1785    3691    5386    5385+ 
+           5384    6232    6231    3698
CTETRA      3023       1     151     186    5321     952    1208    6116+ 
+           6575     953    3278    6085
CTETRA      3024       1    5311    2914    2165    4792    5638    5686+ 
+           5860    5657    5654    4930
CTETRA      3025       1    4725    2016    3872    1617    4850    1401+ 
+           6979    6980    6655    4057
CTETRA      3026       1    1641    1588     298     299    5805    1647+ 
+           3712    3711    5804    1810
CTETRA      3027       1    1056    1182     186    1052    3127    5996+ 
+           3047    3046     617    1050
CTETRA      3028       1    1860     832     834     692     598     833+ 
+           1653    3787     697     741
CTETRA      3029       1     334    2277     372    2492    6435    2284+ 
+           2191    6947    5432    5454
CTETRA      3030       1     807    2914     864     803    5852    1656+ 
+           3002     805    5639    2989
CTETRA      3031       1    5305     701    1945    4416      45    4347+ 
+           5700      47      43    4433
CTETRA      3032       1    2507     366      15     391    5485     368+ 
+           6082    5486    2213    2214
CTETRA      3033       1    4332     652      81     785    4333     651+ 
+           4334    1666    1663    6324
CTETRA      3034       1    2080     433     430    2252     473     432+ 
+           6090    1670    2360    2318
CTETRA      3035       1    4331     104     655     787    5891    1672+ 
+           4360    5892     788    1674
CTETRA      3036       1    4792    2914    2165     867    5654    5686+ 
+           4930    5642    2931    5687
CTETRA      3037       1    4332     785     838     787    1666    2999+ 
+            173    6920     786    2984
CTETRA      3038       1    2097    5291    2251    2425    5810    5797+ 
+           5476    5814    5818    6016
CTETRA      3039       1    5323    1130    3054    3056    6817    3073+ 
+           6400    1614    3091    3076
CTETRA      3040       1    2654    2080    2655    2427    6074    6588+ 
+           2660    6853    6089    6779
CTETRA      3041       1     544      69     244     238    6837    6355+ 
+           6609    6610    1289    1300
CTETRA      3042       1    5312     740     100     873    6058     742+ 
+           6057    6069    2925     875
CTETRA      3043       1    5324    1125    1080    1128    6293    3069+ 
+           6353    6294    1126    3072
CTETRA      3044       1    4799    4802    3821    4801    5163     103+ 
+            111    5164    4940    5546
CTETRA      3045       1    4725    2016    1617    1619    4850    6655+ 
+           6980    6653    6420    1618
CTETRA      3046       1     781     638     641     887    6374     640+ 
+           6373     906    2927    2926
CTETRA      3047       1    5323    1080    3056    3054    6416    3063+ 
+           1614    6400    3075    3076
CTETRA      3048       1    5291     588    2655    2425    6792    2679+ 
+           6590    5818    1686    6780
CTETRA      3049       1    4776    5201    1514    2048    1001     999+ 
+            981    4886    5277    6378
CTETRA      3050       1    4715    3860    3870    4716    5466    4242+ 
+           6417    4947    5464    1690
CTETRA      3051       1    5200    2051    5201    4776    5279    5276+ 
+           5261    6396    4885    1001
CTETRA      3052       1    2914     807     864    2913    5852    3002+ 
+           1656    2944    1067    6284
CTETRA      3053       1    1517    1514    5201    1737    1515     999+ 
+            997    6492    1696    5258
CTETRA      3054       1    1613    1823    1662    1665    5792    3741+ 
+           5791    6786    3729    1664
CTETRA      3055       1    4775    4776    1520    1517    5108    6382+ 
+           6383     498    1003    1518
CTETRA      3056       1    2524     501     330       3    5483    5482+ 
+           2528    2527    2459     331
CTETRA      3057       1    4321     843    2980    4322    1707    3006+ 
+           1704    4408    1700    1702
CTETRA      3058       1     464    2537     366      16    6955    2545+ 
+            354    2429    2544     364
CTETRA      3059       1     841    4330    4329    4321    1717    4410+ 
+           5960    1715    4409    4379
CTETRA      3060       1     323    4466    4465    4512    4476    4474+ 
+           4477    4591    6511    1719
CTETRA      3061       1    4321    4330    4322    2980    4409    4400+ 
+           4408    1704    1725    1702
CTETRA      3062       1      39     236     207     208    6744    3324+ 
+            642    1729    1282    1216
CTETRA      3063       1     115    4327    4323    4324     792    4411+ 
+           6165    6167    4412    4385
CTETRA      3064       1    5311    2163    4802    4798    5865    4935+ 
+           5884    5861    4933    4937
CTETRA      3065       1    4323     115     843    2981    6165     844+ 
+           1391    1735    2987    2986
CTETRA      3066       1    5312     818     112     803    6619     819+ 
+           6453    6075    2886    2885
CTETRA      3067       1    1935     721    4469    1931    2130    6180+ 
+           4487    1933    4350    4488
CTETRA      3068       1    1884     314     130    1913    1883    1739+ 
+           6933    4315    1912    1742
CTETRA      3069       1    5315    4676    4675    4674    6138    4710+ 
+           5921    5922    4709    4697
CTETRA      3070       1    4803    3800    3799    3818     377    4091+ 
+           1456    1396    4094    4095
CTETRA      3071       1     156     200     158     983    1751    6447+ 
+            980     984    1338    3026
CTETRA      3072       1     809    2913    2914    2917    6227    2944+ 
+           5655    5649    2943    2932
CTETRA      3073       1     812    1893     902    1896    1525    4626+ 
+           2953    1528    1894    2149
CTETRA      3074       1    4764    3809     314    3814    5622    3943+ 
+           1486     900    4085    3946
CTETRA      3075       1     812     815     902    1893     813    2954+ 
+           2953    1525    5877    4626
CTETRA      3076       1    2537     467    2507     531    6956    2517+ 
+           6045    2546    6072    6046
CTETRA      3077       1     812     815    5311     809     813    5881+ 
+           1519    2888    2890    5656
CTETRA      3078       1     815     899     902    1893    2956     901+ 
+           2954    5877    4627    4626
CTETRA      3079       1    4725    4730    4726    3831    5002    5003+ 
+           4852    6530    6527    6533
CTETRA      3080       1     464     366      17      16     354    2215+ 
+           2428    2429     364     369
CTETRA      3081       1     737     110    1906    2902    6456    6758+ 
+           4303    6248    2904    6250
CTETRA      3082       1    1890     112     896     132      99    2950+ 
+           4566    4567     801     895
CTETRA      3083       1    3812    4781    3803    3804    6545    6543+ 
+           4115    4114    6950    4113
CTETRA      3084       1    5301    5310    3680    2259    5825    5838+ 
+           6714    6168    5836    5834
CTETRA      3085       1    3807    3808    4782    3799    4096    1772+ 
+           1777    4093    4087    1775
CTETRA      3086       1    1890     818     896     112    5617    2951+ 
+           4566      99     819    2950
CTETRA      3087       1    5311     870    2165    2914    5866    5688+ 
+           5860    5638    2930    5686
CTETRA      3088       1    1901    1908     110     112    4306     891+ 
+           6957    6451     894     752
CTETRA      3089       1    4786     174     171    5322    1231    1013+ 
+           1506    1508    6108    6673
CTETRA      3090       1    1598    3878    2027    1601    4041     885+ 
+           6676    1600    4042    5685
CTETRA      3091       1     168    1097    4785    5322    1095    6113+ 
+           1783    1592    6114    6115
CTETRA      3092       1    3658    2245    1748    2183    5677    6870+ 
+           3664    6093    6742    6091
CTETRA      3093       1     171    4786    1074     172    1506    1504+ 
+           3053    1010    6660    1076
CTETRA      3094       1    1598    1650    1648    1546    6985    1649+ 
+           1789    3526    3569    3565
CTETRA      3095       1    5322    1166    3160    1097    6110      90+ 
+           1792    6114    6111    3186
CTETRA      3096       1    5322     998     994     165    1799    3030+ 
+           1797    1594    1000    3031
CTETRA      3097       1    1093     168    1097    4785    3061    1095+ 
+           3062    1801    1783    6113
CTETRA      3098       1    1036     963     974     966    3273    3024+ 
+           6931    3272     965    3023
CTETRA      3099       1    5322     163     168     165    6672    3032+ 
+           1592    1594    1002    1005
CTETRA      3100       1    3159    1164    1100    1097    6486    6526+ 
+           3202    3203    1809    1099
CTETRA      3101       1     180     994    5322    1178    1489    1797+ 
+           1817    2103    1813    1815
CTETRA      3102       1    1162    1142    1100    1164    3103     879+ 
+           6524    1163    3100    6526
CTETRA      3103       1    3160     998    1178    5322    3184    1172+ 
+           1581    1792    1799    1815
CTETRA      3104       1    1093    3816    4795    4784    3980    1420+ 
+           1822      26    1427    5131
CTETRA      3105       1     172     174     171    4786    1011    1013+ 
+           1010    6660    1231    1506
CTETRA      3106       1    1633    1582    1683    1579    3516    3594+ 
+           6393    3551    1580    3593
CTETRA      3107       1    5322     180     176     175    1817    1021+ 
+           6109    1830    3034    1018
CTETRA      3108       1    4760    4770    4722    1149    4997    4994+ 
+           4989    6195    6196    6038
CTETRA      3109       1     140    1906     119    1904    4564    6604+ 
+            845    4588    1905    1834
CTETRA      3110       1     244      46     243    2095     587    6598+ 
+           1299     135    2094     574
CTETRA      3111       1    2945    1906     131     110    6605    4565+ 
+           2948    2947    6758     799
CTETRA      3112       1    5290    1365     271    2249    5598    1366+ 
+           5599    5621    6387    5619
CTETRA      3113       1    4724    3872    4725    2016    6663    6979+ 
+           4855    4854    1401    4850
CTETRA      3114       1    1683    1630    1579    1681    6094    3549+ 
+           3593    1682    6095    3592
CTETRA      3115       1    2771    2097    2095    2242    6894    2096+ 
+           6967    6969    5475    6970
CTETRA      3116       1    3827     316    2154    3823    3953     177+ 
+            179    3955    3947     162
CTETRA      3117       1    2727    3437     551    2564    1845    3447+ 
+           1843    6608    5782    2578
CTETRA      3118       1    5301    2259    3680    1771    6168    5834+ 
+           6714    5696    6973    3687
CTETRA      3119       1    2095    2771     571    2097    6967    2784+ 
+           6695    2096    6894    1848
CTETRA      3120       1    3891    4812    3902    3890    5587    5586+ 
+           4287    4261    6682    3986
CTETRA      3121       1    2095     257     599     266     137    3346+ 
+           1350    5647    1351     536
CTETRA      3122       1    1097    4784    1140    1164    6496    6498+ 
+           6497    1809     874    3101
CTETRA      3123       1    2095     241      46     243     572    6606+ 
+           2094     574    1298    6598
CTETRA      3124       1    2242    2243    2251    1392    2366    2367+ 
+           2365     806    5371    6769
CTETRA      3125       1    2095     252      46     241    5435    2116+ 
+           2094     572    1314    6606
CTETRA      3126       1    2246     230      13     227    1853    1258+ 
+           6688    6718    1260    3314
CTETRA      3127       1     599    2773     266     258    2793    6965+ 
+            536    3347    6862    3391
CTETRA      3128       1     692     832     834     709     697     833+ 
+            741    2858     662    5947
CTETRA      3129       1    4750    3877    3857    3873     719    4185+ 
+           1144    6480    4229    4226
CTETRA      3130       1    1617    1613    1665    5284    1615    6786+ 
+           6777    6644    6657    6886
CTETRA      3131       1      70     599     258    2773     600    3347+ 
+           1329    2792    2793    6862
CTETRA      3132       1    4730    3869     100    3831    6528    3921+ 
+           6917    6527    3920    3922
CTETRA      3133       1    2650      60    2077    2653    2668    6911+ 
+            853    2667    2662    6929
CTETRA      3134       1    1341     264     251     265    1340    1356+ 
+           3365    1342    6028    6313
CTETRA      3135       1     517      60     206     519    6912    1226+ 
+           6954     518    6962    6953
CTETRA      3136       1     828     116     115     683     827     755+ 
+           2896    6767     612    1861
CTETRA      3137       1     257      53    2095     599    3345    6696+ 
+            137    3346     597    1350
CTETRA      3138       1    1625     309    1677    1836    6713    3732+ 
+           6704    6705    1837    3735
CTETRA      3139       1    2242     266    2095    2773    6966    5647+ 
+           6970    6864    6965    6968
CTETRA      3140       1    2018     347    1825    1823    6216    3751+ 
+           1869    6659    3753    1824
CTETRA      3141       1    4715    3870    2021    4807    6417    6489+ 
+           4856    4861    1871    4860
CTETRA      3142       1    3405    3403     534    2088    3434    3426+ 
+           3414    6784    5325    2086
CTETRA      3143       1    2095    2773     266     599    6968    6965+ 
+           5647    1350    2793     536
CTETRA      3144       1    4465    4464    4510      97    4481    6840+ 
+           6843    6517    6690    6639
CTETRA      3145       1    5318    1779    2024     288    6852    5681+ 
+           6256    6008    1780    6874
CTETRA      3146       1     254     246     268      44    1316    1353+ 
+           3401    2114    5378    6490
CTETRA      3147       1      11    1601     303     288    6876    6737+ 
+           3754    1750    6875    1842
CTETRA      3148       1     247     245      44    1304    3339    6654+ 
+           3412    1303    3340    3413
CTETRA      3149       1    5284     306      10     349    6885    1840+ 
+           6878    6188    3747     350
CTETRA      3150       1    1901     110    1908     737    6957     891+ 
+           4306    4305    6456    4307
CTETRA      3151       1    5303    5304    5319    4677    5520    6012+ 
+           6014    6175    6155    6174
CTETRA      3152       1     864     852     118    4466    2910     851+ 
+           2909    1882    6510    6651
CTETRA      3153       1      11     356    2183     288     357    2206+ 
+           2205    1750    3638    6005
CTETRA      3154       1    2564     459     455    2729    2573     457+ 
+           2567    6616    1886    1191
CTETRA      3155       1    5317      50     265     264    6193    1343+ 
+           6194    5328    6029    6028
CTETRA      3156       1     117    4524     680     116    6123    1255+ 
+           6106     757    1275    1279
CTETRA      3157       1    2088    3403     537    5317    5325    3427+ 
+           2561    6274    5967    5336
CTETRA      3158       1     117     115     116     680     759     755+ 
+            757    6106    6105    1279
CTETRA      3159       1     250     251     265    1341    1312    6313+ 
+           1357    3366    3365    1342
CTETRA      3160       1    5286    2262    3669    1785    6307     919+ 
+           5367    5389    6306    3676
CTETRA      3161       1    5283    5284    1788     290    5349    6198+ 
+           5377    6431    6430    1787
CTETRA      3162       1     117    4469     721    4524    6125    6180+ 
+           6107    6123    6124    1892
CTETRA      3163       1    2021    1825    1827    1609    1897    1826+ 
+           1895    6488    6831    6622
CTETRA      3164       1    5285    2264    2265    2187    6039    2306+ 
+           6208    6445    1899    6728
CTETRA      3165       1    2021    1611    2018    1825    5607    5608+ 
+           2019    1897    6778    1869
CTETRA      3166       1    2614    2071    5282    2492    5416    5509+ 
+           5955    5417    2503    5333
CTETRA      3167       1    1306     248      67    5317    1308    1309+ 
+           3338    5337    5338    5968
CTETRA      3168       1    4512     118     142     852    6687     847+ 
+           4593    6505     851    2976
CTETRA      3169       1    2691      50    2550     562    2701    5399+ 
+           6280    2702     563    5397
CTETRA      3170       1    4328     838     105     104    5919     837+ 
+           6918    5894    2983     771
CTETRA      3171       1    5310    2255    2258    2259    5828    2388+ 
+           5844    5836    2394    2399
CTETRA      3172       1    5308    2693    2456    2457    5984    5981+ 
+           5745    5744    6229    2477
CTETRA      3173       1    5301    2245    2244    3658    5678    2378+ 
+           5689    5676    5677    5695
CTETRA      3174       1      44    3405     534    2088    3415    3414+ 
+            533    2556    6784    2086
CTETRA      3175       1    5301    2255    5310    2259    5829    5828+ 
+           5825    6168    2394    5836
CTETRA      3176       1    4512    4466    4465     118    6511    4474+ 
+           1719    6687    6651    6652
CTETRA      3177       1    5301    2259    1771    2244    6168    6973+ 
+           5696    5689    2374    5694
CTETRA      3178       1     248     279      55    3403    1414    1383+ 
+           3398    3425    3418    5393
CTETRA      3179       1    4715    1611    2021    3870    5609    5607+ 
+           4856    6417    4051    6489
CTETRA      3180       1    4466     878     118     864    6599    6597+ 
+           6651    1882    6595    2909
CTETRA      3181       1    5304    1774    1793     294    5823    3684+ 
+           6163    5516    1776    1791
CTETRA      3182       1    2280     268    2550    2088    6520    6787+ 
+           6003    6630    6775    2562
CTETRA      3183       1    5309     281     224     277    5987    1389+ 
+           5988    5986    1388    3384
CTETRA      3184       1    2280    2550    2090    2088    6003    2551+ 
+           6629    6630    2562    2089
CTETRA      3185       1    5308    2088    3405     281    6247    6784+ 
+           6785    1911    1909    3430
CTETRA      3186       1      48    2579     556    2550    2587    2589+ 
+            554    6287    5398    6170
CTETRA      3187       1     486    2090     489    2692    2091    2557+ 
+            488    6856    6258    6866
CTETRA      3188       1    4512    4466    1981     323    6511    4475+ 
+           4623    4591    4476    1980
CTETRA      3189       1     477     489    2692     486    2471    6866+ 
+           2694    2489     488    6856
CTETRA      3190       1      75    2268     399     402    6474    2326+ 
+           2803    2804    2328     400
CTETRA      3191       1    5302    2256    2265    2267    5992    2385+ 
+           5994    6372    2398    2401
CTETRA      3192       1    4464    1991    4511    2142    4508    4603+ 
+           6834    4509    4506    1267
CTETRA      3193       1       9    2263    1753     342    6905    1924+ 
+           3643     343    6943    3644
CTETRA      3194       1      76    2274    2268     262    6508    2330+ 
+           6062    1334    6506    6060
CTETRA      3195       1     232    2263    2273    1368    6925    2299+ 
+           6926    3370     273    6634
CTETRA      3196       1    1685    1807    1805    1633    3742    1806+ 
+           3704    6394    6836    6841
CTETRA      3197       1    5283    2264    2187    2185    5369    1899+ 
+           6812     269    1369    2240
CTETRA      3198       1    1981    4518    4467     852    4643    1932+ 
+           4498    6509    6273    1934
CTETRA      3199       1    5283    5287    5286    1782    5359    5356+ 
+           5361    5376    5374    5379
CTETRA      3200       1    2274     268    1406     262    6519    3395+ 
+           6460    6506    3394    1404
CTETRA      3201       1    5283    1788    1782    3669    5377    3673+ 
+           5376    5370    3678    3679
CTETRA      3202       1    3903    3904    2010    4727    4068     790+ 
+           6311    6310     184    4843
CTETRA      3203       1    5283    5285    2187    2264    5348    6445+ 
+           6812    5369    6039    1899
CTETRA      3204       1     396     421    2550      18    2287    6782+ 
+           6002     394     419    6169
CTETRA      3205       1    2264    2265    2187     381    2306    6728+ 
+           1899    2300    2305    2238
CTETRA      3206       1     119      97     120     118    6665     736+ 
+            761     760    6638     762
CTETRA      3207       1    2264    2263    2185    3669    2303    1943+ 
+           1369    5368    1311    6951
CTETRA      3208       1     571      22    2564    2097     570    1946+ 
+           6694    1848    1948    2571
CTETRA      3209       1    2690    2088    2691    2687    6772    1328+ 
+           2714    2718    6771    2709
CTETRA      3210       1     237     233     334     231    1283    3317+ 
+           1955    3376    1264    3318
CTETRA      3211       1      58      40    5282     235     581    5956+ 
+           5506    1273    1268    5595
CTETRA      3212       1     852     118    4466    4512     851    6651+ 
+           6510    6505    6687    6511
CTETRA      3213       1      58    2606    2071    2614    2634    5343+ 
+           5508    2636    2635    5416
CTETRA      3214       1       7     231    2273     334    1261    6909+ 
+           6907     333    3318    6436
CTETRA      3215       1      58    2606    2610    2071    2634    2633+ 
+           2624    5508    5343    5918
CTETRA      3216       1    4744    4721    4758    3888    4978    4986+ 
+           4990    6296    6865    1054
CTETRA      3217       1    4788    3830    3824    1585    1410    4039+ 
+           1964    1966    3936    4038
CTETRA      3218       1     224      38    2071     237    2112    2499+ 
+           1969    3383    5408    5974
CTETRA      3219       1    4788    3830    1585    2001    1410    3936+ 
+           1966    4837    1971    1973
CTETRA      3220       1    3854    3861    3865    4717    4203    4214+ 
+           4209    6721    1049    1073
CTETRA      3221       1    4783    3799    4804    4803    1439    1441+ 
+           5125    5116    1456    5128
CTETRA      3222       1     254    2088      44     268    6963    2556+ 
+           2114    3401    6775    6490
CTETRA      3223       1    4800    3822    4793    4801      84     411+ 
+           5154    5156     964    4943
CTETRA      3224       1    1234    1237     214     506    1236    3305+ 
+           3307    3432    3410    5428
CTETRA      3225       1    4794    3826    3817    3825     934    4131+ 
+            942    1417    4133    4128
CTETRA      3226       1     947    5293    1204     943    5529    6577+ 
+           3169    3014    5491    6602
CTETRA      3227       1    4794    3828    3826    3829    5795    4142+ 
+            934    1451    4146    4144
CTETRA      3228       1     657     320    4421    4422    4338    4426+ 
+           5747    5746    4424    4427
CTETRA      3229       1    1155    3145    5298    5295     521    6291+ 
+            523    5513    6405    6404
CTETRA      3230       1    4744    4758    3885    3888    4990     249+ 
+           6745    6296    1054    4276
CTETRA      3231       1    5324    3054    5295    1128    6399    6398+ 
+           6397    6294    3074    6811
CTETRA      3232       1    1368     232     231    2273    3370    1262+ 
+           1367    6634    6926    6909
CTETRA      3233       1    5324    1123    1120    3057    6352    1121+ 
+           6209    6342    3071    3082
CTETRA      3234       1     375     378    2263       9     376    2296+ 
+           2297    2193    2199    6905
CTETRA      3235       1    5306    1803     609    1999    1606    3763+ 
+           6160    6159    1604    6158
CTETRA      3236       1    4724    2018    1613    2016    4853    5381+ 
+           5383    4854    2017    6656
CTETRA      3237       1    4762    4767    1080    3805    5066     302+ 
+            795     868    1475    3968
CTETRA      3238       1    4720    4721    3888    3896    4980    6865+ 
+           6729    6731    6734    4285
CTETRA      3239       1    5323    5324    4767    1080    6269    6266+ 
+           6268    6416    6353     302
CTETRA      3240       1    3893    4718    3881    3886    6892    6484+ 
+           4266    4270    6483    4268
CTETRA      3241       1    5299    4772    1884      78     956    6558+ 
+           6368    6370    6333    1885
CTETRA      3242       1     963     200     158     156    1352    6447+ 
+           3021     962    1751     980
CTETRA      3243       1    4764    3814    3815    3809     900    4124+ 
+           6539    5622    4085    4123
CTETRA      3244       1     232       7    2273       9    3315    6907+ 
+           6926    1263     337    6906
CTETRA      3245       1    4780    4772    1884    4765    5097    6558+ 
+           6557    5088    5095    1556
CTETRA      3246       1    2262    3669    2263    2264     919    1311+ 
+           2408    2409    5368    2303
CTETRA      3247       1    4763    4775    4777    3813    5081    5084+ 
+           5074    1127     513    1994
CTETRA      3248       1     342    2263    1753    2185    6943    1924+ 
+           3644    2219    1943    6952
CTETRA      3249       1    5192    2058    4723     325    5214    4831+ 
+           6052    5210    2060    4830
CTETRA      3250       1    2263    1753    1374     232    1924    3670+ 
+            276    6925    1752    1372
CTETRA      3251       1    1699     199    5192     195    2009    2004+ 
+           5208    6010    1152    2006
CTETRA      3252       1    3799    4803    3818    3817    1456    1396+ 
+           4095    4089    1399    4097
CTETRA      3253       1    5192    2058    4769    4723    5214    4895+ 
+           6049    6052    4831    4897
CTETRA      3254       1    2263    1368     232    1374     273    3370+ 
+           6925     276    3371    1372
CTETRA      3255       1    1699     325    1481    5195    5209    2011+ 
+           6223    5211    5212     729
CTETRA      3256       1    5322    1166    1137     174    6110    3094+ 
+           2015    6108    3093    3092
CTETRA      3257       1    1699     195    5192     194    6010    2006+ 
+           5208    6011    1071    6048
CTETRA      3258       1     203     158    1196     200    3177    3178+ 
+           1197    3282    6447    3283
CTETRA      3259       1    1694    5193     145     144    5216     327+ 
+           2020    1572     315     933
CTETRA      3260       1    3808    1085    4816    1089    3975    6080+ 
+           2025    3974    1087    2023
CTETRA      3261       1    1743    1421     283    1520    2123    1419+ 
+           3597    5720    3480    3481
CTETRA      3262       1    1160    1162    3157    1044    1161    6303+ 
+           2033    3135    3130    2031
CTETRA      3263       1    2021    1827    1825     345    1895    1826+ 
+           1897    6261    3749    3752
CTETRA      3264       1    2492      38     237    2071    2498    5408+ 
+           2036    2503    2499    5974
CTETRA      3265       1    4523    4422    4319     657    5927    5899+ 
+           5771    2039    5746    4358
CTETRA      3266       1     737    1906     110    1908    4303    6758+ 
+           6456    4307    1907     891
CTETRA      3267       1     773     914     107    4526    2966    2965+ 
+            772    5939    4535     545
CTETRA      3268       1    4465    1993    4513    4510    4478    4624+ 
+           6908    6843    4601    4597
CTETRA      3269       1    4319     657    4422     320    4358    5746+ 
+           5899    4359    4338    4424
CTETRA      3270       1    1622    1573    1675    1570    3543    3585+ 
+           5596    3544    1571    3586
CTETRA      3271       1    5305     102    2870     773    5674    2872+ 
+           5673     529     774    2873
CTETRA      3272       1    2185     378     342    2263    2221    2197+ 
+           2219    1943    2296    6943
CTETRA      3273       1    5306     299     291     298    2049    1846+ 
+           6982    6981    1810    3761
CTETRA      3274       1     496    2277    2457    2074    6941    5971+ 
+           2488    2075    5433    6938
CTETRA      3275       1    5294     149    1133     148     253    3161+ 
+           6816    5488     940    2053
CTETRA      3276       1       6     233     334    2492    3316    3317+ 
+            335    5969    5335    6947
CTETRA      3277       1    5295    3147    1128    1130    6343    3234+ 
+           6811    1599    3233    1129
CTETRA      3278       1    2492     237     334    2277    2036    1955+ 
+           6947    5432    5867    6435
CTETRA      3279       1    4789    3824    1093     169    2063    3927+ 
+           2059    2061    3928    1094
CTETRA      3280       1    2276     268    1406    2274    6518    3395+ 
+           5404    2419    6519    6460
CTETRA      3281       1    5295    3054    1130    1128    6398    3073+ 
+           1599    6811    3074    1129
CTETRA      3282       1     285    2001    4787    1633    6898    4840+ 
+           2066    1634    6897    6839
CTETRA      3283       1    4332    4330    4329     785    4337    4410+ 
+           4415    1666    2068    5958
CTETRA      3284       1    1585    2001    1803    1999    1973    2070+ 
+              2    2072    2000    1604
CTETRA      3285       1    5323    5294    3108    5295    6819    6341+ 
+           6385    6384    5500    6340
CTETRA      3286       1    4787    2003    1633    2001    4839    6842+ 
+           6839    4840    2002    6897
CTETRA      3287       1    5293    1155    3148    3149    5545    5544+ 
+           5522    5531     816    3252
CTETRA      3288       1    1901    1908     112    1888    4306     894+ 
+           6451    5726    4569    6996
CTETRA      3289       1    5324    1128    1080    3054    6294    3072+ 
+           6353    6399    3074    3075
CTETRA      3290       1    4463    1929    1931      91    4484    1930+ 
+           4483    1023    4349    4351
CTETRA      3291       1     185    1186     202     183    3124    1188+ 
+           3123    1048     915     629
CTETRA      3292       1      94    1929    2145      91    4348    4485+ 
+            689     728    4349     684
CTETRA      3293       1    1052     202     183    1056    7006     629+ 
+           1053    3046    3122    3045
CTETRA      3294       1     307    1619    1832    1671    5664    6649+ 
+           1833    3730    5662    3731
CTETRA      3295       1     185    1186     183    1046    3124     915+ 
+           1048    1047    3125    3040
CTETRA      3296       1    4525    4416    1978    1976    5702    4459+ 
+           4657    4658    4460    1977
CTETRA      3297       1    1173     977    1042     963    6441    2078+ 
+           3121    6440    3022    5768
CTETRA      3298       1     613    1999     609    1803    6136    6158+ 
+            611    3766    1604    3763
CTETRA      3299       1    3157     977    1044    1042    3195    6585+ 
+           2031    6302    2078    1043
CTETRA      3300       1    2001     613    5307    2003    6133    6135+ 
+           6134    2002    6945    6148
CTETRA      3301       1     181    1173     182    1042     881    3120+ 
+           1032    3038    3121    1041
CTETRA      3302       1    4793    2154    3828    4787    4942     164+ 
+           5793    4944    4842    5794
CTETRA      3303       1     963     977    1042    1044    3022    2078+ 
+           5768    6444    6585    1043
CTETRA      3304       1    4463     311    2142      89    6469    1037+ 
+           4503    1026    1854    2082
CTETRA      3305       1     781    2982     887    2979    2990    6239+ 
+            906    2994    2995    6240
CTETRA      3306       1    4771    5203    1512    1509    5697    6318+ 
+           6566    6427     595    1511
CTETRA      3307       1    5299    4765    4791    1896     954    5089+ 
+           2083    2084    1498    1496
CTETRA      3308       1    2982     884    2913    2917    2085    2939+ 
+           6226    6225    2942    2943
CTETRA      3309       1     812     129    1896     902     811    2087+ 
+           1528    2953    2952    2149
CTETRA      3310       1    2003     613    5307    5315    6945    6135+ 
+           6148    5942    6946    6139
CTETRA      3311       1      89      93    2142    2145     726    1269+ 
+           2082    1029     687    2144
CTETRA      3312       1    3847    3851    4743    3850    3961    7002+ 
+           1462    4196    3964    6709
CTETRA      3313       1    1668     306     307    1566    3727    1829+ 
+           3726    3582    5680     654
CTETRA      3314       1    5313     616    5314      73    1616    5944+ 
+           5901    6820     618    6697
CTETRA      3315       1    2145      89    4463    2142    1029    1026+ 
+           4486    2144    2082    4503
CTETRA      3316       1    5313    1630    1807     296    5539    6684+ 
+           6800    5543    5542    1808
CTETRA      3317       1    2592     566      51    2564    2601     564+ 
+           2600    1180     157    6463
CTETRA      3318       1    4793    4801    3823    2156    4943      12+ 
+            167    4941    4939       8
CTETRA      3319       1    4511      93    4464    2142    6833    6832+ 
+           6834    1267    1269    4509
CTETRA      3320       1     843    4323    2981    4322    1391    1735+ 
+           2986    1700    4407    2092
CTETRA      3321       1      97      93    4464    4510    2864    6832+ 
+           6690    6639    6830    6840
CTETRA      3322       1    5313    2010    1836    1796    5897    1559+ 
+           6686    5908    5909    3772
CTETRA      3323       1    3887    3897    3886    4719    4279    4280+ 
+           4274    6326    5800    6478
CTETRA      3324       1    5307    1999     609     613    5581    6158+ 
+           6157    6135    6136     611
CTETRA      3325       1     118    1904     119      96    6358    1834+ 
+            760    6641    4301    6664
CTETRA      3326       1    1901     737      98     740    4305     735+ 
+           1900    6958    2866    2867
CTETRA      3327       1    3806    1085    1083    4810    3971    1084+ 
+           3972    1138    2093    5583
CTETRA      3328       1     324     172    1596    1593    1386    2127+ 
+           5495    5510    3967    1595
CTETRA      3329       1    3806    4782    4810    4781    2099    5114+ 
+           1138    6949    5113    5078
CTETRA      3330       1    2027    5303    1779    5318    6176    6017+ 
+           5684    6426    6007    6852
CTETRA      3331       1    3807    4796    3800    4782    1150     379+ 
+           4092    1777    5111    1444
CTETRA      3332       1    1921     101     124    1919    2101     767+ 
+           4553    1920    2100    4552
CTETRA      3333       1    3804    4781    3803    3807    6950    6543+ 
+           4113    4112    6948    4103
CTETRA      3334       1    1681    1630    1579    1577    6095    3549+ 
+           3592    3589    3550    1578
CTETRA      3335       1    3806    4781    3807    4782    6949    6948+ 
+           4120    2099    5113    1777
CTETRA      3336       1    5304     324    1997    4679    5515    1996+ 
+           6126    6127    4682    4681
CTETRA      3337       1    5285     347     349    2187    6203     348+ 
+           6187    6445    2225    2226
CTETRA      3338       1    4820    4815    4817    1142    5185    5183+ 
+           5186    2109    2106    2107
CTETRA      3339       1    4804    1091    4784    3816    6513      21+ 
+           5124    1422    3981    1427
CTETRA      3340       1    4812    4813    3879    4822    5171    5905+ 
+           6978    5180    4963    6738
CTETRA      3341       1    5287    5289    1782     295    5396    6429+ 
+           5374    5949    5954    1781
CTETRA      3342       1    3880    4813    4717    4822    5906    4954+ 
+           1373    6739    4963    4960
CTETRA      3343       1     566      51    2564    2732     564    6463+ 
+            157    2740    2741    6612
CTETRA      3344       1    4759    4758    4756    3885    5043    5059+ 
+           5058    2111     249    5629
CTETRA      3345       1    1093    4789     169     168    2059    2061+ 
+           1094    3061    2113    1009
CTETRA      3346       1    5296    4761    4810    4809    5585    5068+ 
+           5584    5578    5062    5071
CTETRA      3347       1    4789    4795    1093    3824    5141    1822+ 
+           2059    2063    1632    3927
CTETRA      3348       1    3899    3895    4814    3894    3995    2118+ 
+           5606    4296    4295    6706
CTETRA      3349       1    2722    2724    2727    2564    2760    2759+ 
+           2754    2121    5470    6608
CTETRA      3350       1    4808    3895    3894    4814    1214    4295+ 
+           2122    4984    2118    6706
CTETRA      3351       1     296     297    1630    1681    1800    5541+ 
+           5542    3706    3705    6095
CTETRA      3352       1    3889    3888    3885    4758    4278    4276+ 
+           4005    5739    1054     249
CTETRA      3353       1    3827    2154    3796    1630     179    7001+ 
+           3951    4072    2124    4069
CTETRA      3354       1    3899    3897    4821    3898    4297    5801+ 
+           5605    4298    4294    6161
CTETRA      3355       1     316    1888    1901    2156    1887    5726+ 
+           1902    2126    5724    5725
CTETRA      3356       1    3899    4815    1145    1142    2131    2128+ 
+           3990    3991    2106    1143
CTETRA      3357       1    3827    2003    4787    2154    2133    4839+ 
+            387     179    2153    4842
CTETRA      3358       1    4745    3876    3875    4759    6732    4011+ 
+           6746    5042     397     763
CTETRA      3359       1    3796    2154     316    4727    7001     177+ 
+           3952    6700    4846    6701
CTETRA      3360       1    4521    1879     312      86    4609    1880+ 
+           4610    2138    3791    1873
CTETRA      3361       1     316    1908    1901    1888    1910    4306+ 
+           1902    1887    4569    5726
CTETRA      3362       1    4720    4744    3888    4721    4979    6296+ 
+           6729    4980    4978    6865
CTETRA      3363       1      53    2095     599    2771    6696    1350+ 
+            597    2787    6967    2788
CTETRA      3364       1    4417     312    2134      86    2140    5783+ 
+           4462    2139    1873     431
CTETRA      3365       1     303    1601    1598    1818    6737    1600+ 
+           6736    1816    6788    6789
CTETRA      3366       1    2136    1949    4417      88    4438    4437+ 
+           4439    2143    4345     209
CTETRA      3367       1    1598    1648    1650    1818    1789    1649+ 
+           6985    6789    3719    3723
CTETRA      3368       1    2136      86      88    4417    2147     678+ 
+           2143    4439    2139     209
CTETRA      3369       1    1598    1648    1596    1544    1789    2148+ 
+           1597    3527    3566    3524
CTETRA      3370       1    4792     867    2917    2914    5642    2920+ 
+           5643    5654    2931    2932
CTETRA      3371       1    1598    1648    1544    1546    1789    3566+ 
+           3527    3526    3565    1545
CTETRA      3372       1    4792    2167    4766     867    4929    4927+ 
+           4931    5642    1408    1012
CTETRA      3373       1    2001     613    2003    1805    6133    6945+ 
+           2002    6896    3768    6693
CTETRA      3374       1     809    2914    4792    2917    5655    5654+ 
+           5648    5649    2932    5643
CTETRA      3375       1    5284    1617     307     306    6644    6642+ 
+           6643    6885    6776    1829
CTETRA      3376       1    5297    4809    4815    1145    5576    5172+ 
+           6503    6103    6102    2128
CTETRA      3377       1      98    4731     100    4726    6546    6916+ 
+            744    6542    5005    6541
CTETRA      3378       1    5297    1160    3153    1157    1108    5734+ 
+           1063    1206    1159    5735
CTETRA      3379       1    2021     347    2018    4680    6260    6216+ 
+           2019    4702    6773    4703
CTETRA      3380       1    5299     127    1884     129    6369    6367+ 
+           6368     932     776    2152
CTETRA      3381       1    4724    3872    2016    1613    6663    1401+ 
+           4854    5383    4056    6656
CTETRA      3382       1    3142    1184    1157    1186    6942    3138+ 
+           2157    5855    1185    3137
CTETRA      3383       1    5284    2018    1823     349    5849    6659+ 
+            223    6188    6185    3750
CTETRA      3384       1    1046    1157    3142    3153    3136    2157+ 
+           5856    5736    5735    3192
CTETRA      3385       1    4725    3869    1619    1617    6529    4059+ 
+           6653    6980    4060    1618
CTETRA      3386       1    5297    1106    1142    4815    6502    2160+ 
+           2162    6503    6501    2106
CTETRA      3387       1    2691      65    2687    5317    2700    2710+ 
+           2709    6241    6192    6813
CTETRA      3388       1    4720    3894    4808    3896    6730    2122+ 
+           4981    6731    4286    6733
CTETRA      3389       1    2731    2564    2724    2722    6613    5470+ 
+           2761    2762    2121    2760
CTETRA      3390       1    4798    4792    4791     812    4934    5098+ 
+           5152    1521    1523    1530
CTETRA      3391       1    2687    5317    2088    2691    6813    6274+ 
+           6771    2709    6241    1328
CTETRA      3392       1    1271     217     214     234    3327    1229+ 
+           3328    1270    5594    1286
CTETRA      3393       1    5303    2265    2245    2183    6317    2310+ 
+           5679    6004    6316    6742
CTETRA      3394       1    3143    1120    5324    3145    3224    6209+ 
+           6289    3228    3227    6292
CTETRA      3395       1    5320    4680    4676    4674    6252    4711+ 
+           6336    5807    4708    4709
CTETRA      3396       1    1173     158     963     200    6439    3021+ 
+           6440    1171    6447    1352
CTETRA      3397       1    2265    2245    2183     384    2310    6742+ 
+           6316    2304    2308    2241
CTETRA      3398       1    4760    3896    1147    1149    2174    3997+ 
+           6097    6195    3996    1148
CTETRA      3399       1    2272     274    1785    2270    6891    1786+ 
+           6936    2414    2176    5385
CTETRA      3400       1    1699     199    1466    1481    2009    3476+ 
+           3629    6223    1479    3479
CTETRA      3401       1    2264    2185     378     381    1369    2221+ 
+           2302    2300    2234     380
CTETRA      3402       1    4772    4774    3832     635    5099    6754+ 
+           6753     968    2177    3908
CTETRA      3403       1    5319    4677    4679    4676    6174    4685+ 
+           6129    6130    4713    4714
CTETRA      3404       1     217     235     234    1271    1288    5478+ 
+           5594    3327    1272    1270
CTETRA      3405       1    5303    1779     294     324    6017    1778+ 
+           5519    5518    6790    5517
CTETRA      3406       1     657     320      85    4421    4338    4339+ 
+            658    5747    4426    5727
CTETRA      3407       1    5318      11     288    2024    6179    1750+ 
+           6008    6256    6857    6874
CTETRA      3408       1    4522    4515    4514    4422    4665    4622+ 
+           4666    5926    5750    5935
CTETRA      3409       1    4790    3802    4797    4791     395     463+ 
+           5150    5092    1510    5149
CTETRA      3410       1     974     963    1036    1044    3024    3273+ 
+           6931    6581    6444    3042
CTETRA      3411       1    3807    4782    4781    4796    1777    5113+ 
+           6948    1150    5111    5112
CTETRA      3412       1    3157    1042    1044    1162    6302    1043+ 
+           2031    6303    3131    3130
CTETRA      3413       1     676    1953    4418    4419    4366    4440+ 
+           6670    6669    4444    4445
CTETRA      3414       1    5297    3155    3151    3152    1103    3216+ 
+           1065    1098    3258    3257
CTETRA      3415       1    2870    4319    4320     104    5671    4404+ 
+           5716    2871    5769    6919
CTETRA      3416       1    1104    1142    1100    1162    2178     879+ 
+           1102    5591    3103    6524
CTETRA      3417       1    5305     105    4320     701    5717    5715+ 
+           5701      45     443    4369
CTETRA      3418       1    4777    3813    1524    3811    1994    4031+ 
+           5691    5692    4036    4035
CTETRA      3419       1    5305    4527    4526    4525    2179    4669+ 
+            539    1542    4662    4670
CTETRA      3420       1    4421    1958     320      85    4425    1959+ 
+           4426    5727    4340    4339
CTETRA      3421       1    4529    4526     107     121    4538     545+ 
+           5707    4537    4536     764
CTETRA      3422       1     668    4516    4420    4419    2184    5719+ 
+           6802    6805    5723    4448
CTETRA      3423       1    5305    4525    4529    4416    1542    4671+ 
+           5711      47    5702    5703
CTETRA      3424       1    5298    1155    1149    1147     523    3098+ 
+            267    5571    3107    1148
CTETRA      3425       1    5305    4422    4522    4527    5900    5926+ 
+           1017    2179    5936    4667
CTETRA      3426       1    5289    2770    3691    1768    5351    6424+ 
+           6232    6237    1320    3699
CTETRA      3427       1     102    4528    4523     125    6999    4560+ 
+           6990     770    4558    4549
CTETRA      3428       1    5297    1157    5298    1147    1206    6348+ 
+           5569    5570    3104    5571
CTETRA      3429       1     102     101     124    4523     745     767+ 
+           2869    6990    1019    4550
CTETRA      3430       1    1155    3142    1184    1157     814    6942+ 
+           3128    1156    2157    3138
CTETRA      3431       1     914     121     107    4526     916     764+ 
+           2965    4535    4536     545
CTETRA      3432       1    4530    1974     312    2134    4644    4612+ 
+           4545    5784    2132    5783
CTETRA      3433       1    4771    1509    4772    3832    6427    6334+ 
+           5104    6428    3956    6753
CTETRA      3434       1     698     108     695    1858    5975    6757+ 
+            696    3788    5972    3785
CTETRA      3435       1    4772    4774     635    4766    5099    2177+ 
+            968    5094    4928     990
CTETRA      3436       1     663      88      86    4417    2843     678+ 
+            661     150     209    2139
CTETRA      3437       1     314    4780    4775    3797    1484    5091+ 
+            485    3942     985     490
CTETRA      3438       1    5297    3151    1112    3154    1065    3215+ 
+           6099    6098    3219    3218
CTETRA      3439       1     199     325    1699    5192    2195    5209+ 
+           2009    2004    5210    5208
CTETRA      3440       1    4763    4777    3811    3813    5074    5692+ 
+           1469    1127    1994    4036
CTETRA      3441       1    1703    1706    1485    1460    1705     778+ 
+           6064    3628    3624    3508
CTETRA      3442       1    5322    1166    4785    1137    6110    6112+ 
+           6115    2015    3094     835
CTETRA      3443       1    5192     325    4723     199    5210    4830+ 
+           6052    2004    2195     743
CTETRA      3444       1    4521    4418     663    4417    2200     152+ 
+           2198     123    4442     150
CTETRA      3445       1     325    1481    5195    4757    2011     729+ 
+           5212    4829     228     727
CTETRA      3446       1    1867     116     138     923     615     824+ 
+           4579    4578    2969     924
CTETRA      3447       1     325    2030    4757    5195    2029    4828+ 
+           4829    5212    5213     727
CTETRA      3448       1    4324     718     115     721    4384    6166+ 
+           6167    4383     720    6104
CTETRA      3449       1    1481     199     325    1699    1479    2195+ 
+           2011    6223    2009    5209
CTETRA      3450       1     666     668    4516    1875     667    2184+ 
+           2211    3795    3790    4646
CTETRA      3451       1    1471    1694     145     144    3636    2020+ 
+           3469    3470    1572     933
CTETRA      3452       1    5299    4765    1884    4772     954    1556+ 
+           6368     956    5095    6558
CTETRA      3453       1    1803    2001     613    1999    2070    6133+ 
+           3766    1604    2000    6136
CTRIA3      5632       2    7111    7073    7051     0.0     0.0
CTRIA3      5633       2    7089    7264    7054     0.0     0.0
CTRIA3      5634       2    7009    7095    7010     0.0     0.0
CTRIA3      5635       2    7101    7270    7055     0.0     0.0
CTRIA3      5636       2    7275    7274    7057     0.0     0.0
CTRIA3      5637       2    7073    7111    7058     0.0     0.0
CTRIA3      5638       2    7267    7238    7239     0.0     0.0
CTRIA3      5639       2    7266    7236    7237     0.0     0.0
CTRIA3      5640       2    7265    7087    7086     0.0     0.0
CTRIA3      5641       2    7269    7092    7091     0.0     0.0
CTRIA3      5642       2    7268    7094    7093     0.0     0.0
CTRIA3      5643       2    7272    7098    7097     0.0     0.0
CTRIA3      5644       2    7271    7100    7099     0.0     0.0
CTRIA3      5645       2    7273    7104    7103     0.0     0.0
CTRIA3      5646       2    7263    7113    7112     0.0     0.0
CTRIA3      5647       2    7278    7277    7276     0.0     0.0
CQUAD4      5648       2    7051    7079    7112    7111     0.0     0.0
CQUAD4      5649       2    7073    7058    7255    7052     0.0     0.0
CQUAD4      5650       2    7052    7255    7254    7102     0.0     0.0
CQUAD4      5651       2    7108    7074    7053    7109     0.0     0.0
CQUAD4      5652       2    7109    7053    7081    7110     0.0     0.0
CQUAD4      5653       2    7212    7080    7054    7208     0.0     0.0
CQUAD4      5654       2    7208    7054    7264    7214     0.0     0.0
CQUAD4      5655       2    7082    7029    7028    7267     0.0     0.0
CQUAD4      5656       2    7090    7055    7200    7199     0.0     0.0
CQUAD4      5657       2    7055    7270    7194    7200     0.0     0.0
CQUAD4      5658       2    7056    7211    7209    7096     0.0     0.0
CQUAD4      5659       2    7107    7210    7211    7056     0.0     0.0
CQUAD4      5660       2    7262    7108    7057    7274     0.0     0.0
CQUAD4      5661       2    7057    7110    7213    7275     0.0     0.0
CQUAD4      5662       2    7058    7113    7254    7255     0.0     0.0
CQUAD4      5663       2    7075    7074    7108    7262     0.0     0.0
CQUAD4      5664       2    7076    7075    7262    7256     0.0     0.0
CQUAD4      5665       2    7077    7076    7256    7257     0.0     0.0
CQUAD4      5666       2    7263    7078    7077    7257     0.0     0.0
CQUAD4      5667       2    7112    7079    7078    7263     0.0     0.0
CQUAD4      5668       2    7110    7081    7080    7213     0.0     0.0
CQUAD4      5669       2    7275    7213    7080    7212     0.0     0.0
CQUAD4      5670       2    7084    7083    7239    7266     0.0     0.0
CQUAD4      5671       2    7083    7082    7267    7239     0.0     0.0
CQUAD4      5672       2    7265    7086    7085    7237     0.0     0.0
CQUAD4      5673       2    7085    7084    7266    7237     0.0     0.0
CQUAD4      5674       2    7205    7088    7087    7235     0.0     0.0
CQUAD4      5675       2    7235    7087    7265    7234     0.0     0.0
CQUAD4      5676       2    7264    7089    7088    7205     0.0     0.0
CQUAD4      5677       2    7095    7094    7011    7010     0.0     0.0
CQUAD4      5678       2    7094    7268    7012    7011     0.0     0.0
CQUAD4      5679       2    7268    7197    7013    7012     0.0     0.0
CQUAD4      5680       2    7197    7204    7014    7013     0.0     0.0
CQUAD4      5681       2    7204    7198    7015    7014     0.0     0.0
CQUAD4      5682       2    7198    7202    7016    7015     0.0     0.0
CQUAD4      5683       2    7202    7203    7017    7016     0.0     0.0
CQUAD4      5684       2    7203    7196    7018    7017     0.0     0.0
CQUAD4      5685       2    7196    7226    7019    7018     0.0     0.0
CQUAD4      5686       2    7226    7224    7020    7019     0.0     0.0
CQUAD4      5687       2    7224    7221    7021    7020     0.0     0.0
CQUAD4      5688       2    7221    7246    7022    7021     0.0     0.0
CQUAD4      5689       2    7246    7247    7023    7022     0.0     0.0
CQUAD4      5690       2    7247    7248    7024    7023     0.0     0.0
CQUAD4      5691       2    7248    7230    7025    7024     0.0     0.0
CQUAD4      5692       2    7230    7240    7026    7025     0.0     0.0
CQUAD4      5693       2    7240    7238    7027    7026     0.0     0.0
CQUAD4      5694       2    7238    7267    7028    7027     0.0     0.0
CQUAD4      5695       2    7091    7090    7199    7269     0.0     0.0
CQUAD4      5696       2    7093    7092    7197    7268     0.0     0.0
CQUAD4      5697       2    7092    7269    7204    7197     0.0     0.0
CQUAD4      5698       2    7096    7209    7215    7097     0.0     0.0
CQUAD4      5699       2    7097    7215    7207    7272     0.0     0.0
CQUAD4      5700       2    7098    7272    7216    7099     0.0     0.0
CQUAD4      5701       2    7099    7216    7217    7271     0.0     0.0
CQUAD4      5702       2    7100    7228    7270    7101     0.0     0.0
CQUAD4      5703       2    7100    7271    7229    7228     0.0     0.0
CQUAD4      5704       2    7102    7254    7259    7103     0.0     0.0
CQUAD4      5705       2    7259    7258    7273    7103     0.0     0.0
CQUAD4      5706       2    7273    7260    7105    7104     0.0     0.0
CQUAD4      5707       2    7105    7260    7193    7106     0.0     0.0
CQUAD4      5708       2    7106    7193    7210    7107     0.0     0.0
CQUAD4      5709       2    7113    7263    7259    7254     0.0     0.0
CQUAD4      5710       2    7193    7274    7275    7210     0.0     0.0
CQUAD4      5711       2    7261    7274    7193    7260     0.0     0.0
CQUAD4      5712       2    7200    7194    7195    7201     0.0     0.0
CQUAD4      5713       2    7194    7222    7227    7195     0.0     0.0
CQUAD4      5714       2    7270    7228    7222    7194     0.0     0.0
CQUAD4      5715       2    7201    7195    7196    7203     0.0     0.0
CQUAD4      5716       2    7195    7227    7226    7196     0.0     0.0
CQUAD4      5717       2    7199    7200    7202    7198     0.0     0.0
CQUAD4      5718       2    7269    7199    7198    7204     0.0     0.0
CQUAD4      5719       2    7200    7201    7203    7202     0.0     0.0
CQUAD4      5720       2    7214    7264    7205    7206     0.0     0.0
CQUAD4      5721       2    7206    7205    7235    7245     0.0     0.0
CQUAD4      5722       2    7215    7214    7206    7207     0.0     0.0
CQUAD4      5723       2    7207    7206    7245    7244     0.0     0.0
CQUAD4      5724       2    7272    7207    7244    7216     0.0     0.0
CQUAD4      5725       2    7211    7212    7208    7209     0.0     0.0
CQUAD4      5726       2    7209    7208    7214    7215     0.0     0.0
CQUAD4      5727       2    7210    7275    7212    7211     0.0     0.0
CQUAD4      5728       2    7216    7244    7243    7217     0.0     0.0
CQUAD4      5729       2    7271    7217    7218    7229     0.0     0.0
CQUAD4      5730       2    7217    7243    7276    7218     0.0     0.0
CQUAD4      5731       2    7229    7218    7219    7223     0.0     0.0
CQUAD4      5732       2    7218    7276    7277    7219     0.0     0.0
CQUAD4      5733       2    7223    7219    7220    7225     0.0     0.0
CQUAD4      5734       2    7219    7277    7249    7220     0.0     0.0
CQUAD4      5735       2    7225    7220    7221    7224     0.0     0.0
CQUAD4      5736       2    7220    7249    7246    7221     0.0     0.0
CQUAD4      5737       2    7222    7223    7225    7227     0.0     0.0
CQUAD4      5738       2    7228    7229    7223    7222     0.0     0.0
CQUAD4      5739       2    7227    7225    7224    7226     0.0     0.0
CQUAD4      5740       2    7231    7241    7240    7230     0.0     0.0
CQUAD4      5741       2    7251    7231    7230    7248     0.0     0.0
CQUAD4      5742       2    7232    7236    7241    7231     0.0     0.0
CQUAD4      5743       2    7252    7232    7231    7251     0.0     0.0
CQUAD4      5744       2    7233    7237    7236    7232     0.0     0.0
CQUAD4      5745       2    7253    7233    7232    7252     0.0     0.0
CQUAD4      5746       2    7234    7265    7237    7233     0.0     0.0
CQUAD4      5747       2    7242    7234    7233    7253     0.0     0.0
CQUAD4      5748       2    7245    7235    7234    7242     0.0     0.0
CQUAD4      5749       2    7236    7266    7239    7241     0.0     0.0
CQUAD4      5750       2    7241    7239    7238    7240     0.0     0.0
CQUAD4      5751       2    7244    7245    7242    7243     0.0     0.0
CQUAD4      5752       2    7243    7242    7253    7276     0.0     0.0
CQUAD4      5753       2    7249    7250    7247    7246     0.0     0.0
CQUAD4      5754       2    7250    7251    7248    7247     0.0     0.0
CQUAD4      5755       2    7277    7278    7250    7249     0.0     0.0
CQUAD4      5756       2    7278    7252    7251    7250     0.0     0.0
CQUAD4      5757       2    7276    7253    7252    7278     0.0     0.0
CQUAD4      5758       2    7257    7256    7261    7258     0.0     0.0
CQUAD4      5759       2    7256    7262    7274    7261     0.0     0.0
CQUAD4      5760       2    7263    7257    7258    7259     0.0     0.0
CQUAD4      5761       2    7258    7261    7260    7273     0.0     0.0
CTRIA3      5770       2    7284    7283    7114     0.0     0.0
CQUAD4      5771       2    7281    7101    7055    7060     0.0     0.0
CQUAD4      5772       2    7056    7096    7284    7118     0.0     0.0
CQUAD4      5773       2    7118    7284    7114    7059     0.0     0.0
CQUAD4      5774       2    7282    7281    7060    7117     0.0     0.0
CQUAD4      5775       2    7096    7097    7283    7284     0.0     0.0
CQUAD4      5776       2    7097    7098    7279    7283     0.0     0.0
CQUAD4      5777       2    7098    7099    7280    7279     0.0     0.0
CQUAD4      5778       2    7099    7100    7282    7280     0.0     0.0
CQUAD4      5779       2    7100    7101    7281    7282     0.0     0.0
CQUAD4      5780       2    7283    7279    7115    7114     0.0     0.0
CQUAD4      5781       2    7279    7280    7116    7115     0.0     0.0
CQUAD4      5782       2    7280    7282    7117    7116     0.0     0.0
CTRIA3      5783       2    7300    7125    7124     0.0     0.0
CQUAD4      5784       2    7052    7102    7300    7124     0.0     0.0
CQUAD4      5785       2    7107    7056    7118    7290     0.0     0.0
CQUAD4      5786       2    7296    7118    7059    7123     0.0     0.0
CQUAD4      5787       2    7126    7299    7119    7061     0.0     0.0
CQUAD4      5788       2    7102    7103    7294    7300     0.0     0.0
CQUAD4      5789       2    7103    7104    7293    7294     0.0     0.0
CQUAD4      5790       2    7104    7105    7292    7293     0.0     0.0
CQUAD4      5791       2    7105    7106    7291    7292     0.0     0.0
CQUAD4      5792       2    7106    7107    7290    7291     0.0     0.0
CQUAD4      5793       2    7290    7118    7296    7285     0.0     0.0
CQUAD4      5794       2    7299    7298    7120    7119     0.0     0.0
CQUAD4      5795       2    7298    7295    7121    7120     0.0     0.0
CQUAD4      5796       2    7295    7297    7122    7121     0.0     0.0
CQUAD4      5797       2    7297    7296    7123    7122     0.0     0.0
CQUAD4      5798       2    7125    7289    7299    7126     0.0     0.0
CQUAD4      5799       2    7300    7294    7289    7125     0.0     0.0
CQUAD4      5800       2    7291    7290    7285    7286     0.0     0.0
CQUAD4      5801       2    7286    7285    7296    7297     0.0     0.0
CQUAD4      5802       2    7292    7291    7286    7287     0.0     0.0
CQUAD4      5803       2    7287    7286    7297    7295     0.0     0.0
CQUAD4      5804       2    7293    7292    7287    7288     0.0     0.0
CQUAD4      5805       2    7288    7287    7295    7298     0.0     0.0
CQUAD4      5806       2    7294    7293    7288    7289     0.0     0.0
CQUAD4      5807       2    7289    7288    7298    7299     0.0     0.0
CTRIA3      5808       2    7009    7132    7095     0.0     0.0
CQUAD4      5809       2    7060    7055    7090    7127     0.0     0.0
CQUAD4      5810       2    7127    7090    7091    7128     0.0     0.0
CQUAD4      5811       2    7128    7091    7092    7129     0.0     0.0
CQUAD4      5812       2    7129    7092    7093    7130     0.0     0.0
CQUAD4      5813       2    7130    7093    7094    7131     0.0     0.0
CQUAD4      5814       2    7131    7094    7095    7132     0.0     0.0
CTRIA3      5847       2    7370    7144    7064     0.0     0.0
CTRIA3      5848       2    7050    7049    7150     0.0     0.0
CTRIA3      5849       2    7167    7171    7067     0.0     0.0
CTRIA3      5850       2    7171    7167    7069     0.0     0.0
CTRIA3      5851       2    7141    7369    7140     0.0     0.0
CTRIA3      5852       2    7147    7371    7146     0.0     0.0
CTRIA3      5853       2    7149    7372    7148     0.0     0.0
CTRIA3      5854       2    7373    7355    7356     0.0     0.0
CTRIA3      5855       2    7353    7374    7354     0.0     0.0
CTRIA3      5856       2    7170    7375    7160     0.0     0.0
CTRIA3      5857       2    7173    7361    7165     0.0     0.0
CTRIA3      5858       2    7378    7377    7376     0.0     0.0
CTRIA3      5859       2    7381    7380    7379     0.0     0.0
CTRIA3      5860       2    7384    7383    7382     0.0     0.0
CQUAD4      5861       2    7062    7367    7069    7167     0.0     0.0
CQUAD4      5862       2    7062    7133    7366    7367     0.0     0.0
CQUAD4      5863       2    7138    7063    7319    7318     0.0     0.0
CQUAD4      5864       2    7063    7139    7320    7319     0.0     0.0
CQUAD4      5865       2    7145    7308    7309    7064     0.0     0.0
CQUAD4      5866       2    7064    7309    7305    7370     0.0     0.0
CQUAD4      5867       2    7374    7031    7030    7151     0.0     0.0
CQUAD4      5868       2    7316    7336    7158    7065     0.0     0.0
CQUAD4      5869       2    7317    7316    7065    7159     0.0     0.0
CQUAD4      5870       2    7170    7160    7066    7169     0.0     0.0
CQUAD4      5871       2    7168    7169    7066    7161     0.0     0.0
CQUAD4      5872       2    7171    7172    7166    7067     0.0     0.0
CQUAD4      5873       2    7363    7301    7068    7168     0.0     0.0
CQUAD4      5874       2    7301    7375    7170    7068     0.0     0.0
CQUAD4      5875       2    7367    7366    7173    7069     0.0     0.0
CQUAD4      5876       2    7133    7134    7382    7366     0.0     0.0
CQUAD4      5877       2    7134    7135    7384    7382     0.0     0.0
CQUAD4      5878       2    7135    7136    7364    7384     0.0     0.0
CQUAD4      5879       2    7136    7137    7302    7364     0.0     0.0
CQUAD4      5880       2    7137    7138    7318    7302     0.0     0.0
CQUAD4      5881       2    7139    7140    7314    7320     0.0     0.0
CQUAD4      5882       2    7140    7369    7337    7314     0.0     0.0
CQUAD4      5883       2    7141    7142    7331    7369     0.0     0.0
CQUAD4      5884       2    7142    7143    7326    7331     0.0     0.0
CQUAD4      5885       2    7144    7370    7330    7143     0.0     0.0
CQUAD4      5886       2    7143    7330    7325    7326     0.0     0.0
CQUAD4      5887       2    7146    7371    7308    7145     0.0     0.0
CQUAD4      5888       2    7148    7372    7307    7147     0.0     0.0
CQUAD4      5889       2    7147    7307    7306    7371     0.0     0.0
CQUAD4      5890       2    7150    7049    7048    7149     0.0     0.0
CQUAD4      5891       2    7149    7048    7047    7372     0.0     0.0
CQUAD4      5892       2    7372    7047    7046    7307     0.0     0.0
CQUAD4      5893       2    7307    7046    7045    7306     0.0     0.0
CQUAD4      5894       2    7306    7045    7044    7310     0.0     0.0
CQUAD4      5895       2    7310    7044    7043    7313     0.0     0.0
CQUAD4      5896       2    7313    7043    7042    7312     0.0     0.0
CQUAD4      5897       2    7312    7042    7041    7303     0.0     0.0
CQUAD4      5898       2    7303    7041    7040    7328     0.0     0.0
CQUAD4      5899       2    7328    7040    7039    7327     0.0     0.0
CQUAD4      5900       2    7327    7039    7038    7329     0.0     0.0
CQUAD4      5901       2    7329    7038    7037    7321     0.0     0.0
CQUAD4      5902       2    7321    7037    7036    7357     0.0     0.0
CQUAD4      5903       2    7357    7036    7035    7356     0.0     0.0
CQUAD4      5904       2    7356    7035    7034    7373     0.0     0.0
CQUAD4      5905       2    7373    7034    7033    7351     0.0     0.0
CQUAD4      5906       2    7351    7033    7032    7353     0.0     0.0
CQUAD4      5907       2    7353    7032    7031    7374     0.0     0.0
CQUAD4      5908       2    7352    7354    7152    7153     0.0     0.0
CQUAD4      5909       2    7354    7374    7151    7152     0.0     0.0
CQUAD4      5910       2    7342    7352    7153    7154     0.0     0.0
CQUAD4      5911       2    7380    7342    7154    7155     0.0     0.0
CQUAD4      5912       2    7379    7380    7155    7156     0.0     0.0
CQUAD4      5913       2    7334    7379    7156    7157     0.0     0.0
CQUAD4      5914       2    7336    7334    7157    7158     0.0     0.0
CQUAD4      5915       2    7375    7317    7159    7160     0.0     0.0
CQUAD4      5916       2    7363    7168    7161    7162     0.0     0.0
CQUAD4      5917       2    7368    7363    7162    7163     0.0     0.0
CQUAD4      5918       2    7362    7368    7163    7164     0.0     0.0
CQUAD4      5919       2    7361    7362    7164    7165     0.0     0.0
CQUAD4      5920       2    7172    7173    7165    7166     0.0     0.0
CQUAD4      5921       2    7366    7382    7361    7173     0.0     0.0
CQUAD4      5922       2    7302    7318    7375    7301     0.0     0.0
CQUAD4      5923       2    7364    7302    7301    7365     0.0     0.0
CQUAD4      5924       2    7365    7301    7363    7368     0.0     0.0
CQUAD4      5925       2    7311    7312    7303    7304     0.0     0.0
CQUAD4      5926       2    7304    7303    7328    7378     0.0     0.0
CQUAD4      5927       2    7309    7311    7304    7305     0.0     0.0
CQUAD4      5928       2    7305    7304    7378    7376     0.0     0.0
CQUAD4      5929       2    7370    7305    7376    7330     0.0     0.0
CQUAD4      5930       2    7371    7306    7310    7308     0.0     0.0
CQUAD4      5931       2    7308    7310    7311    7309     0.0     0.0
CQUAD4      5932       2    7310    7313    7312    7311     0.0     0.0
CQUAD4      5933       2    7320    7314    7315    7319     0.0     0.0
CQUAD4      5934       2    7314    7337    7335    7315     0.0     0.0
CQUAD4      5935       2    7319    7315    7316    7317     0.0     0.0
CQUAD4      5936       2    7315    7335    7336    7316     0.0     0.0
CQUAD4      5937       2    7318    7319    7317    7375     0.0     0.0
CQUAD4      5938       2    7327    7329    7321    7322     0.0     0.0
CQUAD4      5939       2    7322    7321    7357    7360     0.0     0.0
CQUAD4      5940       2    7377    7327    7322    7323     0.0     0.0
CQUAD4      5941       2    7323    7322    7360    7338     0.0     0.0
CQUAD4      5942       2    7324    7323    7338    7343     0.0     0.0
CQUAD4      5943       2    7376    7377    7323    7324     0.0     0.0
CQUAD4      5944       2    7330    7376    7324    7325     0.0     0.0
CQUAD4      5945       2    7325    7324    7343    7344     0.0     0.0
CQUAD4      5946       2    7326    7325    7344    7331     0.0     0.0
CQUAD4      5947       2    7378    7328    7327    7377     0.0     0.0
CQUAD4      5948       2    7369    7331    7332    7337     0.0     0.0
CQUAD4      5949       2    7331    7344    7346    7332     0.0     0.0
CQUAD4      5950       2    7337    7332    7333    7335     0.0     0.0
CQUAD4      5951       2    7332    7346    7348    7333     0.0     0.0
CQUAD4      5952       2    7335    7333    7334    7336     0.0     0.0
CQUAD4      5953       2    7333    7348    7379    7334     0.0     0.0
CQUAD4      5954       2    7343    7338    7339    7345     0.0     0.0
CQUAD4      5955       2    7338    7360    7358    7339     0.0     0.0
CQUAD4      5956       2    7345    7339    7340    7347     0.0     0.0
CQUAD4      5957       2    7339    7358    7359    7340     0.0     0.0
CQUAD4      5958       2    7347    7340    7341    7381     0.0     0.0
CQUAD4      5959       2    7340    7359    7349    7341     0.0     0.0
CQUAD4      5960       2    7341    7349    7352    7342     0.0     0.0
CQUAD4      5961       2    7381    7341    7342    7380     0.0     0.0
CQUAD4      5962       2    7344    7343    7345    7346     0.0     0.0
CQUAD4      5963       2    7346    7345    7347    7348     0.0     0.0
CQUAD4      5964       2    7348    7347    7381    7379     0.0     0.0
CQUAD4      5965       2    7349    7350    7354    7352     0.0     0.0
CQUAD4      5966       2    7359    7355    7350    7349     0.0     0.0
CQUAD4      5967       2    7350    7351    7353    7354     0.0     0.0
CQUAD4      5968       2    7355    7373    7351    7350     0.0     0.0
CQUAD4      5969       2    7358    7356    7355    7359     0.0     0.0
CQUAD4      5970       2    7360    7357    7356    7358     0.0     0.0
CQUAD4      5971       2    7382    7383    7362    7361     0.0     0.0
CQUAD4      5972       2    7383    7365    7368    7362     0.0     0.0
CQUAD4      5973       2    7384    7364    7365    7383     0.0     0.0
CTRIA3      5982       2    7390    7389    7175     0.0     0.0
CQUAD4      5983       2    7063    7174    7389    7139     0.0     0.0
CQUAD4      5984       2    7144    7387    7070    7064     0.0     0.0
CQUAD4      5985       2    7178    7070    7387    7388     0.0     0.0
CQUAD4      5986       2    7175    7389    7174    7071     0.0     0.0
CQUAD4      5987       2    7139    7389    7390    7140     0.0     0.0
CQUAD4      5988       2    7140    7390    7385    7141     0.0     0.0
CQUAD4      5989       2    7141    7385    7386    7142     0.0     0.0
CQUAD4      5990       2    7142    7386    7388    7143     0.0     0.0
CQUAD4      5991       2    7143    7388    7387    7144     0.0     0.0
CQUAD4      5992       2    7176    7385    7390    7175     0.0     0.0
CQUAD4      5993       2    7176    7177    7386    7385     0.0     0.0
CQUAD4      5994       2    7177    7178    7388    7386     0.0     0.0
CTRIA3      5995       2    7180    7406    7179     0.0     0.0
CQUAD4      5996       2    7062    7179    7406    7133     0.0     0.0
CQUAD4      5997       2    7138    7396    7174    7063     0.0     0.0
CQUAD4      5998       2    7071    7174    7402    7186     0.0     0.0
CQUAD4      5999       2    7182    7405    7181    7072     0.0     0.0
CQUAD4      6000       2    7133    7406    7400    7134     0.0     0.0
CQUAD4      6001       2    7134    7400    7399    7135     0.0     0.0
CQUAD4      6002       2    7135    7399    7398    7136     0.0     0.0
CQUAD4      6003       2    7136    7398    7397    7137     0.0     0.0
CQUAD4      6004       2    7137    7397    7396    7138     0.0     0.0
CQUAD4      6005       2    7396    7395    7402    7174     0.0     0.0
CQUAD4      6006       2    7405    7391    7180    7181     0.0     0.0
CQUAD4      6007       2    7406    7180    7391    7400     0.0     0.0
CQUAD4      6008       2    7183    7404    7405    7182     0.0     0.0
CQUAD4      6009       2    7184    7401    7404    7183     0.0     0.0
CQUAD4      6010       2    7185    7403    7401    7184     0.0     0.0
CQUAD4      6011       2    7186    7402    7403    7185     0.0     0.0
CQUAD4      6012       2    7400    7391    7392    7399     0.0     0.0
CQUAD4      6013       2    7404    7392    7391    7405     0.0     0.0
CQUAD4      6014       2    7399    7392    7393    7398     0.0     0.0
CQUAD4      6015       2    7401    7393    7392    7404     0.0     0.0
CQUAD4      6016       2    7398    7393    7394    7397     0.0     0.0
CQUAD4      6017       2    7403    7394    7393    7401     0.0     0.0
CQUAD4      6018       2    7397    7394    7395    7396     0.0     0.0
CQUAD4      6019       2    7402    7395    7394    7403     0.0     0.0
CTRIA3      6020       2    7150    7192    7050     0.0     0.0
CQUAD4      6021       2    7070    7187    7145    7064     0.0     0.0
CQUAD4      6022       2    7187    7188    7146    7145     0.0     0.0
CQUAD4      6023       2    7188    7189    7147    7146     0.0     0.0
CQUAD4      6024       2    7189    7190    7148    7147     0.0     0.0
CQUAD4      6025       2    7190    7191    7149    7148     0.0     0.0
CQUAD4      6026       2    7191    7192    7150    7149     0.0     0.0
CBEAM       6473       7    7407    7413-.906308-.422618     0.0
CBEAM       6474       7    7413    7408-.906308-.422618     0.0
CBEAM       6475      10    7408    7414-.906308-.422618     0.0
CBEAM       6476      10    7414    7415-.906308-.422618     0.0
CBEAM       6477      10    7415    7416-.906308-.422618     0.0
CBEAM       6478      10    7416    7409-.906308-.422618     0.0
CBEAM       6504       7    7410    7417-.906308-.422618     0.0
CBEAM       6505       7    7417    7411-.906308-.422618     0.0
CBEAM       6506      10    7411    7418-.906308-.422618     0.0
CBEAM       6507      10    7418    7419-.906308-.422618     0.0
CBEAM       6508      10    7419    7420-.906308-.422618     0.0
CBEAM       6509      10    7420    7412-.906308-.422618     0.0
CBEAM       6542      11    7421    7424     0.01.000000     0.0
CBEAM       6543      11    7424    7422     0.01.000000     0.0
CBEAM       6544      11    7422    7425     0.0.4226183.9063078
CBEAM       6545      11    7425    7423     0.01.000000     0.0
CBEAM       6546      11    7426    7428     0.0-1.000001.1490-7
CBEAM       6547      11    7428    7429-.906308-.422618     0.0
CBEAM       6548      11    7429    7430-.906308-.422618     0.0
CBEAM       6549      11    7430    7427-.906308-.422618     0.0
CBEAM       6558       5    7409    7433-.422618.9063078     0.0
CBEAM       6559       5    7433    7434-.422618.9063078     0.0
CBEAM       6560       5    7434    7435-.422618.9063078     0.0
CBEAM       6561       5    7435    7412-.422618.9063078     0.0
CBEAM       6562       5    7412    7436-.422619.9063074     0.0
CBEAM       6563       5    7436    7426-.422618.9063079     0.0
CBEAM       6564       5    7426    7437     0.01.9229-71.000000
CBEAM       6565       5    7437    7409-.422619.9063074     0.0
CBEAM       6566       5    7432    7438-.422618.9063078     0.0
CBEAM       6567       5    7438    7439-.422618.9063078     0.0
CBEAM       6568       5    7439    7440-.422618.9063078     0.0
CBEAM       6569       5    7440    7431-.422618.9063078     0.0
CBEAM       6570       5    7431    7441-.422619.9063074     0.0
CBEAM       6571       5    7441    7442-.422621.9063067     0.0
CBEAM       6572       5    7442    7443-.422619.9063074     0.0
CBEAM       6573       5    7443    7427     0.0-9.546-71.000000
CBEAM       6574       5    7427    7444     0.0-9.546-71.000000
CBEAM       6575       5    7444    7445     0.0-9.546-71.000000
CBEAM       6576       5    7445    7446-.422621.9063067     0.0
CBEAM       6577       5    7446    7432-.422619.90630735.2717-9
CBUSH       6578       8   10005   10001                               0
CBUSH       6579       8   10006   10002                               0
CBUSH       6580       8   10007   10003                               0
CBUSH       6581       8   10008   10004                               0
RBE2        6582   10001  123456    7110
RBE2        6583   10001  123456    7109
RBE2        6584   10001  123456    7108
RBE2        6585   10001  123456    7057
RBE2        6586   10002  123456    7113
RBE2        6587   10002  123456    7112
RBE2        6588   10002  123456    7111
RBE2        6589   10002  123456    7058
RBE2        6590   10003  123456    7170
RBE2        6591   10003  123456    7169
RBE2        6592   10003  123456    7168
RBE2        6593   10003  123456    7068
RBE2        6594   10004  123456    7173
RBE2        6595   10004  123456    7172
RBE2        6596   10004  123456    7171
RBE2        6597   10004  123456    7069
RBE2        6598   10005  123456    1182
RBE2        6599   10005  123456    1184
RBE2        6600   10005  123456    1186
RBE2        6601   10005  123456     202
RBE2        6602   10006  123456    1173
RBE2        6603   10006  123456    1175
RBE2        6604   10006  123456    1178
RBE2        6605   10006  123456     200
RBE2        6606    7410  123456   10007
RBE2        6607    7410  123456   10008
RBE2        6608    7410  123456    7421
RBE2        6609    7423  123456     405
RBE2        6610    7423  123456     408
RBE2        6611    7423  123456     412
RBE2        6612    7423  123456     414
RBE2        6613    7423  123456     417
RBE2        6614    7423  123456      20
RBE2        6615    7423  123456      18
RBE2        6616    7423  123456     396
RBE2        6617    7423  123456     399
RBE2        6618    7423  123456     402
CBEAM       6620       6    7409    7447.9063078.4226184     0.0        + 
+                       -5.43-15-2.53-157.618803-5.43-15-2.53-157.618803
CBEAM       6621       6    7447    7448.9063078.4226184     0.0        + 
+                       -5.43-15-1.20-147.618803-5.43-15-1.20-147.618803
CBEAM       6622       6    7448    7449.9063080.4226179     0.0        + 
+                       -5.43-15-1.20-147.618803-5.43-15-1.20-147.618803
CBEAM       6623       6    7449    7432.9063078.4226184     0.0        + 
+                       -5.43-15-2.53-157.618803-5.43-15-2.53-157.618803
CBEAM       6624       6    7412    7450-.906308-.422618     0.0        + 
+                            0.0     0.0-7.61880     0.0     0.0-7.61880
CBEAM       6625       6    7450    7451-.906308-.422618     0.0        + 
+                            0.0-9.46-15-7.61880     0.0-9.46-15-7.61880
CBEAM       6626       6    7451    7452-.906308-.422618     0.0        + 
+                            0.0-9.46-15-7.61880     0.0-9.46-15-7.61880
CBEAM       6627       6    7452    7431-.906308-.422618     0.0        + 
+                            0.0     0.0-7.61880     0.0     0.0-7.61880
RBE2        6628   10009  123456    1956
RBE2        6629   10009  123456    1958
RBE2        6630   10009  123456     320
RBE2        6631   10009  123456    1942
RBE2        6632   10010  123456    1937
RBE2        6633   10010  123456    1939
RBE2        6634   10010  123456     318
RBE2        6635   10010  123456    1925
RBE2        6636    7407  123456    2051
RBE2        6637    7407  123456    2048
RBE2        6638    7407  123456    2046
RBE2        6639    7407  123456    2044
RBE2        6640    7407  123456    2042
RBE2        6641    7407  123456    2040
RBE2        6642    7407  123456    2037
RBE2        6643    7407  123456    2034
RBE2        6644    7407  123456    2030
RBE2        6645    7407  123456     325
RBE2        6646    7407  123456    2058
RBE2        6647    7407  123456    2056
RBE2        6648    7407  123456    2054
CTRIA3      6649       3    7454    7479    7482     0.0     0.0
CTRIA3      6650       3    7548    7479    7478     0.0     0.0
CTRIA3      6651       3    7516    7517    7481     0.0     0.0
CTRIA3      6652       3    7535    7534    7013     0.0     0.0
CTRIA3      6653       3    7567    7566    7021     0.0     0.0
CQUAD4      6654       3    7459    7453    7481    7517     0.0     0.0
CQUAD4      6655       3    7515    7480    7009    7010     0.0     0.0
CQUAD4      6656       3    7551    7028    7029    7455     0.0     0.0
CQUAD4      6657       3    7552    7551    7455    7483     0.0     0.0
CQUAD4      6658       3    7460    7459    7517    7523     0.0     0.0
CQUAD4      6659       3    7461    7460    7523    7529     0.0     0.0
CQUAD4      6660       3    7461    7529    7538    7462     0.0     0.0
CQUAD4      6661       3    7462    7538    7537    7463     0.0     0.0
CQUAD4      6662       3    7463    7537    7536    7464     0.0     0.0
CQUAD4      6663       3    7464    7536    7524    7465     0.0     0.0
CQUAD4      6664       3    7465    7524    7518    7466     0.0     0.0
CQUAD4      6665       3    7466    7518    7512    7467     0.0     0.0
CQUAD4      6666       3    7467    7512    7511    7468     0.0     0.0
CQUAD4      6667       3    7468    7511    7555    7469     0.0     0.0
CQUAD4      6668       3    7469    7555    7561    7470     0.0     0.0
CQUAD4      6669       3    7470    7561    7570    7471     0.0     0.0
CQUAD4      6670       3    7471    7570    7569    7472     0.0     0.0
CQUAD4      6671       3    7472    7569    7568    7473     0.0     0.0
CQUAD4      6672       3    7473    7568    7556    7474     0.0     0.0
CQUAD4      6673       3    7474    7556    7539    7475     0.0     0.0
CQUAD4      6674       3    7475    7539    7544    7476     0.0     0.0
CQUAD4      6675       3    7476    7544    7547    7477     0.0     0.0
CQUAD4      6676       3    7477    7547    7548    7478     0.0     0.0
CQUAD4      6677       3    7548    7483    7482    7479     0.0     0.0
CQUAD4      6678       3    7516    7481    7480    7515     0.0     0.0
CQUAD4      6679       3    7521    7515    7010    7011     0.0     0.0
CQUAD4      6680       3    7521    7011    7012    7527     0.0     0.0
CQUAD4      6681       3    7527    7012    7013    7534     0.0     0.0
CQUAD4      6682       3    7535    7013    7014    7533     0.0     0.0
CQUAD4      6683       3    7533    7014    7015    7526     0.0     0.0
CQUAD4      6684       3    7526    7015    7016    7520     0.0     0.0
CQUAD4      6685       3    7520    7016    7017    7514     0.0     0.0
CQUAD4      6686       3    7514    7017    7018    7509     0.0     0.0
CQUAD4      6687       3    7509    7018    7019    7553     0.0     0.0
CQUAD4      6688       3    7553    7019    7020    7559     0.0     0.0
CQUAD4      6689       3    7559    7020    7021    7566     0.0     0.0
CQUAD4      6690       3    7567    7021    7022    7565     0.0     0.0
CQUAD4      6691       3    7565    7022    7023    7558     0.0     0.0
CQUAD4      6692       3    7558    7023    7024    7541     0.0     0.0
CQUAD4      6693       3    7541    7024    7025    7542     0.0     0.0
CQUAD4      6694       3    7542    7025    7026    7545     0.0     0.0
CQUAD4      6695       3    7545    7026    7027    7550     0.0     0.0
CQUAD4      6696       3    7550    7027    7028    7551     0.0     0.0
CQUAD4      6697       3    7548    7549    7552    7483     0.0     0.0
CQUAD4      6698       3    7513    7514    7509    7510     0.0     0.0
CQUAD4      6699       3    7510    7509    7553    7554     0.0     0.0
CQUAD4      6700       3    7512    7513    7510    7511     0.0     0.0
CQUAD4      6701       3    7511    7510    7554    7555     0.0     0.0
CQUAD4      6702       3    7518    7519    7513    7512     0.0     0.0
CQUAD4      6703       3    7519    7520    7514    7513     0.0     0.0
CQUAD4      6704       3    7522    7516    7515    7521     0.0     0.0
CQUAD4      6705       3    7523    7517    7516    7522     0.0     0.0
CQUAD4      6706       3    7524    7525    7519    7518     0.0     0.0
CQUAD4      6707       3    7525    7526    7520    7519     0.0     0.0
CQUAD4      6708       3    7522    7521    7527    7528     0.0     0.0
CQUAD4      6709       3    7529    7523    7522    7528     0.0     0.0
CQUAD4      6710       3    7536    7530    7525    7524     0.0     0.0
CQUAD4      6711       3    7530    7533    7526    7525     0.0     0.0
CQUAD4      6712       3    7528    7527    7534    7532     0.0     0.0
CQUAD4      6713       3    7529    7528    7532    7538     0.0     0.0
CQUAD4      6714       3    7531    7535    7533    7530     0.0     0.0
CQUAD4      6715       3    7537    7531    7530    7536     0.0     0.0
CQUAD4      6716       3    7532    7534    7535    7531     0.0     0.0
CQUAD4      6717       3    7538    7532    7531    7537     0.0     0.0
CQUAD4      6718       3    7539    7540    7543    7544     0.0     0.0
CQUAD4      6719       3    7556    7557    7540    7539     0.0     0.0
CQUAD4      6720       3    7540    7541    7542    7543     0.0     0.0
CQUAD4      6721       3    7557    7558    7541    7540     0.0     0.0
CQUAD4      6722       3    7543    7542    7545    7546     0.0     0.0
CQUAD4      6723       3    7544    7543    7546    7547     0.0     0.0
CQUAD4      6724       3    7546    7545    7550    7549     0.0     0.0
CQUAD4      6725       3    7547    7546    7549    7548     0.0     0.0
CQUAD4      6726       3    7549    7550    7551    7552     0.0     0.0
CQUAD4      6727       3    7554    7553    7559    7560     0.0     0.0
CQUAD4      6728       3    7555    7554    7560    7561     0.0     0.0
CQUAD4      6729       3    7568    7562    7557    7556     0.0     0.0
CQUAD4      6730       3    7562    7565    7558    7557     0.0     0.0
CQUAD4      6731       3    7560    7559    7566    7564     0.0     0.0
CQUAD4      6732       3    7561    7560    7564    7570     0.0     0.0
CQUAD4      6733       3    7563    7567    7565    7562     0.0     0.0
CQUAD4      6734       3    7569    7563    7562    7568     0.0     0.0
CQUAD4      6735       3    7564    7566    7567    7563     0.0     0.0
CQUAD4      6736       3    7570    7564    7563    7569     0.0     0.0
CTRIA3      6737       3    7456    7484    7508     0.0     0.0
CTRIA3      6738       3    7596    7597    7046     0.0     0.0
CTRIA3      6739       3    7628    7629    7038     0.0     0.0
CTRIA3      6740       3    7578    7579    7486     0.0     0.0
CTRIA3      6741       3    7508    7607    7507     0.0     0.0
CQUAD4      6742       3    7457    7030    7031    7613     0.0     0.0
CQUAD4      6743       3    7485    7457    7613    7614     0.0     0.0
CQUAD4      6744       3    7579    7049    7050    7486     0.0     0.0
CQUAD4      6745       3    7488    7577    7487    7458     0.0     0.0
CQUAD4      6746       3    7508    7484    7485    7607     0.0     0.0
CQUAD4      6747       3    7607    7485    7614    7612     0.0     0.0
CQUAD4      6748       3    7585    7048    7049    7579     0.0     0.0
CQUAD4      6749       3    7591    7047    7048    7585     0.0     0.0
CQUAD4      6750       3    7596    7046    7047    7591     0.0     0.0
CQUAD4      6751       3    7595    7045    7046    7597     0.0     0.0
CQUAD4      6752       3    7586    7044    7045    7595     0.0     0.0
CQUAD4      6753       3    7580    7043    7044    7586     0.0     0.0
CQUAD4      6754       3    7574    7042    7043    7580     0.0     0.0
CQUAD4      6755       3    7573    7041    7042    7574     0.0     0.0
CQUAD4      6756       3    7617    7040    7041    7573     0.0     0.0
CQUAD4      6757       3    7623    7039    7040    7617     0.0     0.0
CQUAD4      6758       3    7628    7038    7039    7623     0.0     0.0
CQUAD4      6759       3    7627    7037    7038    7629     0.0     0.0
CQUAD4      6760       3    7618    7036    7037    7627     0.0     0.0
CQUAD4      6761       3    7601    7035    7036    7618     0.0     0.0
CQUAD4      6762       3    7606    7034    7035    7601     0.0     0.0
CQUAD4      6763       3    7606    7610    7033    7034     0.0     0.0
CQUAD4      6764       3    7610    7611    7032    7033     0.0     0.0
CQUAD4      6765       3    7613    7031    7032    7611     0.0     0.0
CQUAD4      6766       3    7577    7578    7486    7487     0.0     0.0
CQUAD4      6767       3    7489    7583    7577    7488     0.0     0.0
CQUAD4      6768       3    7490    7589    7583    7489     0.0     0.0
CQUAD4      6769       3    7491    7598    7589    7490     0.0     0.0
CQUAD4      6770       3    7492    7599    7598    7491     0.0     0.0
CQUAD4      6771       3    7493    7600    7599    7492     0.0     0.0
CQUAD4      6772       3    7494    7588    7600    7493     0.0     0.0
CQUAD4      6773       3    7495    7582    7588    7494     0.0     0.0
CQUAD4      6774       3    7496    7576    7582    7495     0.0     0.0
CQUAD4      6775       3    7497    7571    7576    7496     0.0     0.0
CQUAD4      6776       3    7498    7615    7571    7497     0.0     0.0
CQUAD4      6777       3    7499    7621    7615    7498     0.0     0.0
CQUAD4      6778       3    7500    7630    7621    7499     0.0     0.0
CQUAD4      6779       3    7501    7631    7630    7500     0.0     0.0
CQUAD4      6780       3    7502    7632    7631    7501     0.0     0.0
CQUAD4      6781       3    7503    7620    7632    7502     0.0     0.0
CQUAD4      6782       3    7504    7603    7620    7503     0.0     0.0
CQUAD4      6783       3    7505    7604    7603    7504     0.0     0.0
CQUAD4      6784       3    7505    7506    7608    7604     0.0     0.0
CQUAD4      6785       3    7507    7607    7608    7506     0.0     0.0
CQUAD4      6786       3    7571    7572    7575    7576     0.0     0.0
CQUAD4      6787       3    7615    7616    7572    7571     0.0     0.0
CQUAD4      6788       3    7572    7573    7574    7575     0.0     0.0
CQUAD4      6789       3    7616    7617    7573    7572     0.0     0.0
CQUAD4      6790       3    7575    7574    7580    7581     0.0     0.0
CQUAD4      6791       3    7576    7575    7581    7582     0.0     0.0
CQUAD4      6792       3    7583    7584    7578    7577     0.0     0.0
CQUAD4      6793       3    7584    7585    7579    7578     0.0     0.0
CQUAD4      6794       3    7581    7580    7586    7587     0.0     0.0
CQUAD4      6795       3    7582    7581    7587    7588     0.0     0.0
CQUAD4      6796       3    7589    7590    7584    7583     0.0     0.0
CQUAD4      6797       3    7590    7591    7585    7584     0.0     0.0
CQUAD4      6798       3    7587    7586    7595    7594     0.0     0.0
CQUAD4      6799       3    7588    7587    7594    7600     0.0     0.0
CQUAD4      6800       3    7598    7592    7590    7589     0.0     0.0
CQUAD4      6801       3    7592    7596    7591    7590     0.0     0.0
CQUAD4      6802       3    7593    7597    7596    7592     0.0     0.0
CQUAD4      6803       3    7599    7593    7592    7598     0.0     0.0
CQUAD4      6804       3    7594    7595    7597    7593     0.0     0.0
CQUAD4      6805       3    7600    7594    7593    7599     0.0     0.0
CQUAD4      6806       3    7605    7606    7601    7602     0.0     0.0
CQUAD4      6807       3    7602    7601    7618    7619     0.0     0.0
CQUAD4      6808       3    7604    7605    7602    7603     0.0     0.0
CQUAD4      6809       3    7603    7602    7619    7620     0.0     0.0
CQUAD4      6810       3    7604    7608    7609    7605     0.0     0.0
CQUAD4      6811       3    7605    7609    7610    7606     0.0     0.0
CQUAD4      6812       3    7608    7607    7612    7609     0.0     0.0
CQUAD4      6813       3    7609    7612    7611    7610     0.0     0.0
CQUAD4      6814       3    7612    7614    7613    7611     0.0     0.0
CQUAD4      6815       3    7621    7622    7616    7615     0.0     0.0
CQUAD4      6816       3    7622    7623    7617    7616     0.0     0.0
CQUAD4      6817       3    7619    7618    7627    7626     0.0     0.0
CQUAD4      6818       3    7620    7619    7626    7632     0.0     0.0
CQUAD4      6819       3    7630    7624    7622    7621     0.0     0.0
CQUAD4      6820       3    7624    7628    7623    7622     0.0     0.0
CQUAD4      6821       3    7625    7629    7628    7624     0.0     0.0
CQUAD4      6822       3    7631    7625    7624    7630     0.0     0.0
CQUAD4      6823       3    7626    7627    7629    7625     0.0     0.0
CQUAD4      6824       3    7632    7626    7625    7631     0.0     0.0
CQUAD4      6825       4    7633    7635    7658    7653     0.0     0.0
CQUAD4      6826       4    7634    7655    7656    7636     0.0     0.0
CQUAD4      6827       4    7653    7658    7657    7654     0.0     0.0
CQUAD4      6828       4    7654    7657    7656    7655     0.0     0.0
CQUAD4      6829       4    7662    7633    7663    7726     0.0     0.0
CQUAD4      6830       4    7637    7659    7728    7640     0.0     0.0
CQUAD4      6831       4    7726    7663    7638    7664     0.0     0.0
CQUAD4      6832       4    7640    7728    7639    7667     0.0     0.0
CQUAD4      6833       4    7728    7727    7666    7639     0.0     0.0
CQUAD4      6834       4    7659    7660    7727    7728     0.0     0.0
CQUAD4      6835       4    7660    7661    7729    7727     0.0     0.0
CQUAD4      6836       4    7661    7662    7726    7729     0.0     0.0
CQUAD4      6837       4    7729    7726    7664    7665     0.0     0.0
CQUAD4      6838       4    7727    7729    7665    7666     0.0     0.0
CQUAD4      6839       4    7633    7653    7731    7663     0.0     0.0
CQUAD4      6840       4    7730    7655    7634    7668     0.0     0.0
CQUAD4      6841       4    7731    7732    7638    7663     0.0     0.0
CQUAD4      6842       4    7732    7730    7668    7638     0.0     0.0
CQUAD4      6843       4    7653    7654    7732    7731     0.0     0.0
CQUAD4      6844       4    7654    7655    7730    7732     0.0     0.0
CQUAD4      6845       4    7662    7669    7635    7633     0.0     0.0
CQUAD4      6846       4    7641    7672    7659    7637     0.0     0.0
CQUAD4      6847       4    7659    7672    7671    7660     0.0     0.0
CQUAD4      6848       4    7660    7671    7670    7661     0.0     0.0
CQUAD4      6849       4    7661    7670    7669    7662     0.0     0.0
CQUAD4      6850       4    7678    7642    7643    7673     0.0     0.0
CQUAD4      6851       4    7644    7645    7676    7675     0.0     0.0
CQUAD4      6852       4    7677    7678    7673    7674     0.0     0.0
CQUAD4      6853       4    7676    7677    7674    7675     0.0     0.0
CQUAD4      6854       4    7683    7645    7687    7733     0.0     0.0
CQUAD4      6855       4    7735    7684    7647    7646     0.0     0.0
CQUAD4      6856       4    7648    7735    7646    7679     0.0     0.0
CQUAD4      6857       4    7682    7734    7735    7648     0.0     0.0
CQUAD4      6858       4    7649    7683    7733    7680     0.0     0.0
CQUAD4      6859       4    7680    7733    7736    7681     0.0     0.0
CQUAD4      6860       4    7681    7736    7734    7682     0.0     0.0
CQUAD4      6861       4    7734    7685    7684    7735     0.0     0.0
CQUAD4      6862       4    7736    7686    7685    7734     0.0     0.0
CQUAD4      6863       4    7733    7687    7686    7736     0.0     0.0
CQUAD4      6864       4    7642    7678    7737    7688     0.0     0.0
CQUAD4      6865       4    7683    7677    7676    7645     0.0     0.0
CQUAD4      6866       4    7688    7737    7683    7649     0.0     0.0
CQUAD4      6867       4    7737    7678    7677    7683     0.0     0.0
CQUAD4      6868       4    7687    7645    7644    7689     0.0     0.0
CQUAD4      6869       4    7647    7684    7692    7650     0.0     0.0
CQUAD4      6870       4    7684    7685    7691    7692     0.0     0.0
CQUAD4      6871       4    7685    7686    7690    7691     0.0     0.0
CQUAD4      6872       4    7686    7687    7689    7690     0.0     0.0
CQUAD4      6873       4    7881    7658    7635    7739     0.0     0.0
CQUAD4      6874       4    7739    7635    7669    7749     0.0     0.0
CQUAD4      6875       4    7879    7454    7636    7656     0.0     0.0
CQUAD4      6876       4    7743    7672    7641    7699     0.0     0.0
CQUAD4      6877       4    7651    7693    7792    7717     0.0     0.0
CQUAD4      6878       4    7782    7698    7453    7783     0.0     0.0
CQUAD4      6879       4    7783    7453    7459    7776     0.0     0.0
CQUAD4      6880       4    7876    7479    7454    7880     0.0     0.0
CQUAD4      6881       4    7878    7880    7454    7879     0.0     0.0
CQUAD4      6882       4    7747    7748    7700    7652     0.0     0.0
CQUAD4      6883       4    7701    7746    7747    7652     0.0     0.0
CQUAD4      6884       4    7751    7879    7656    7657     0.0     0.0
CQUAD4      6885       4    7883    7751    7657    7658     0.0     0.0
CQUAD4      6886       4    7882    7883    7658    7881     0.0     0.0
CQUAD4      6887       4    7749    7669    7670    7742     0.0     0.0
CQUAD4      6888       4    7742    7670    7671    7744     0.0     0.0
CQUAD4      6889       4    7744    7671    7672    7743     0.0     0.0
CQUAD4      6890       4    7792    7693    7694    7793     0.0     0.0
CQUAD4      6891       4    7793    7694    7695    7791     0.0     0.0
CQUAD4      6892       4    7791    7695    7696    7775     0.0     0.0
CQUAD4      6893       4    7775    7696    7697    7780     0.0     0.0
CQUAD4      6894       4    7780    7697    7698    7782     0.0     0.0
CQUAD4      6895       4    7776    7459    7460    7769     0.0     0.0
CQUAD4      6896       4    7769    7460    7461    7770     0.0     0.0
CQUAD4      6897       4    7770    7461    7462    7759     0.0     0.0
CQUAD4      6898       4    7759    7462    7463    7802     0.0     0.0
CQUAD4      6899       4    7802    7463    7464    7801     0.0     0.0
CQUAD4      6900       4    7801    7464    7465    7800     0.0     0.0
CQUAD4      6901       4    7800    7465    7466    7803     0.0     0.0
CQUAD4      6902       4    7803    7466    7467    7804     0.0     0.0
CQUAD4      6903       4    7804    7467    7468    7754     0.0     0.0
CQUAD4      6904       4    7754    7468    7469    7835     0.0     0.0
CQUAD4      6905       4    7835    7469    7470    7829     0.0     0.0
CQUAD4      6906       4    7829    7470    7471    7847     0.0     0.0
CQUAD4      6907       4    7847    7471    7472    7843     0.0     0.0
CQUAD4      6908       4    7843    7472    7473    7844     0.0     0.0
CQUAD4      6909       4    7844    7473    7474    7825     0.0     0.0
CQUAD4      6910       4    7825    7474    7475    7856     0.0     0.0
CQUAD4      6911       4    7856    7475    7476    7851     0.0     0.0
CQUAD4      6912       4    7851    7476    7477    7875     0.0     0.0
CQUAD4      6913       4    7875    7477    7478    7872     0.0     0.0
CQUAD4      6914       4    7872    7478    7479    7876     0.0     0.0
CQUAD4      6915       4    7748    7743    7699    7700     0.0     0.0
CQUAD4      6916       4    7702    7740    7746    7701     0.0     0.0
CQUAD4      6917       4    7703    7738    7740    7702     0.0     0.0
CQUAD4      6918       4    7704    7885    7738    7703     0.0     0.0
CQUAD4      6919       4    7705    7753    7885    7704     0.0     0.0
CQUAD4      6920       4    7706    7866    7753    7705     0.0     0.0
CQUAD4      6921       4    7707    7855    7866    7706     0.0     0.0
CQUAD4      6922       4    7708    7828    7855    7707     0.0     0.0
CQUAD4      6923       4    7709    7839    7828    7708     0.0     0.0
CQUAD4      6924       4    7710    7834    7839    7709     0.0     0.0
CQUAD4      6925       4    7711    7758    7834    7710     0.0     0.0
CQUAD4      6926       4    7712    7810    7758    7711     0.0     0.0
CQUAD4      6927       4    7713    7821    7810    7712     0.0     0.0
CQUAD4      6928       4    7714    7764    7821    7713     0.0     0.0
CQUAD4      6929       4    7715    7765    7764    7714     0.0     0.0
CQUAD4      6930       4    7716    7787    7765    7715     0.0     0.0
CQUAD4      6931       4    7717    7792    7787    7716     0.0     0.0
CQUAD4      6932       4    7738    7750    7741    7740     0.0     0.0
CQUAD4      6933       4    7886    7887    7750    7738     0.0     0.0
CQUAD4      6934       4    7885    7884    7886    7738     0.0     0.0
CQUAD4      6935       4    7887    7739    7749    7750     0.0     0.0
CQUAD4      6936       4    7886    7881    7739    7887     0.0     0.0
CQUAD4      6937       4    7740    7741    7745    7746     0.0     0.0
CQUAD4      6938       4    7741    7742    7744    7745     0.0     0.0
CQUAD4      6939       4    7750    7749    7742    7741     0.0     0.0
CQUAD4      6940       4    7745    7744    7743    7748     0.0     0.0
CQUAD4      6941       4    7746    7745    7748    7747     0.0     0.0
CQUAD4      6942       4    7871    7863    7751    7883     0.0     0.0
CQUAD4      6943       4    7863    7878    7879    7751     0.0     0.0
CQUAD4      6944       4    7753    7868    7869    7752     0.0     0.0
CQUAD4      6945       4    7753    7752    7884    7885     0.0     0.0
CQUAD4      6946       4    7752    7869    7882    7884     0.0     0.0
CQUAD4      6947       4    7866    7865    7868    7753     0.0     0.0
CQUAD4      6948       4    7795    7804    7754    7755     0.0     0.0
CQUAD4      6949       4    7755    7754    7835    7836     0.0     0.0
CQUAD4      6950       4    7805    7795    7755    7756     0.0     0.0
CQUAD4      6951       4    7756    7755    7836    7837     0.0     0.0
CQUAD4      6952       4    7813    7805    7756    7757     0.0     0.0
CQUAD4      6953       4    7757    7756    7837    7838     0.0     0.0
CQUAD4      6954       4    7814    7813    7757    7892     0.0     0.0
CQUAD4      6955       4    7892    7757    7838    7888     0.0     0.0
CQUAD4      6956       4    7810    7823    7891    7758     0.0     0.0
CQUAD4      6957       4    7758    7888    7833    7834     0.0     0.0
CQUAD4      6958       4    7758    7891    7892    7888     0.0     0.0
CQUAD4      6959       4    7771    7770    7759    7760     0.0     0.0
CQUAD4      6960       4    7760    7759    7802    7799     0.0     0.0
CQUAD4      6961       4    7889    7771    7760    7761     0.0     0.0
CQUAD4      6962       4    7761    7760    7799    7809     0.0     0.0
CQUAD4      6963       4    7767    7889    7761    7762     0.0     0.0
CQUAD4      6964       4    7762    7761    7809    7817     0.0     0.0
CQUAD4      6965       4    7766    7767    7762    7763     0.0     0.0
CQUAD4      6966       4    7763    7762    7817    7818     0.0     0.0
CQUAD4      6967       4    7894    7893    7766    7763     0.0     0.0
CQUAD4      6968       4    7894    7763    7818    7824     0.0     0.0
CQUAD4      6969       4    7764    7765    7894    7824     0.0     0.0
CQUAD4      6970       4    7764    7824    7822    7821     0.0     0.0
CQUAD4      6971       4    7787    7794    7789    7765     0.0     0.0
CQUAD4      6972       4    7765    7789    7893    7894     0.0     0.0
CQUAD4      6973       4    7772    7785    7767    7766     0.0     0.0
CQUAD4      6974       4    7893    7895    7772    7766     0.0     0.0
CQUAD4      6975       4    7785    7786    7889    7767     0.0     0.0
CQUAD4      6976       4    7768    7769    7770    7771     0.0     0.0
CQUAD4      6977       4    7777    7776    7769    7768     0.0     0.0
CQUAD4      6978       4    7786    7768    7771    7889     0.0     0.0
CQUAD4      6979       4    7778    7777    7768    7786     0.0     0.0
CQUAD4      6980       4    7773    7779    7785    7772     0.0     0.0
CQUAD4      6981       4    7788    7773    7772    7895     0.0     0.0
CQUAD4      6982       4    7774    7781    7779    7773     0.0     0.0
CQUAD4      6983       4    7790    7774    7773    7788     0.0     0.0
CQUAD4      6984       4    7774    7775    7780    7781     0.0     0.0
CQUAD4      6985       4    7790    7791    7775    7774     0.0     0.0
CQUAD4      6986       4    7890    7783    7776    7777     0.0     0.0
CQUAD4      6987       4    7778    7784    7890    7777     0.0     0.0
CQUAD4      6988       4    7779    7781    7784    7778     0.0     0.0
CQUAD4      6989       4    7779    7778    7786    7785     0.0     0.0
CQUAD4      6990       4    7781    7780    7782    7784     0.0     0.0
CQUAD4      6991       4    7784    7782    7783    7890     0.0     0.0
CQUAD4      6992       4    7792    7793    7794    7787     0.0     0.0
CQUAD4      6993       4    7794    7790    7788    7789     0.0     0.0
CQUAD4      6994       4    7789    7788    7895    7893     0.0     0.0
CQUAD4      6995       4    7793    7791    7790    7794     0.0     0.0
CQUAD4      6996       4    7796    7803    7804    7795     0.0     0.0
CQUAD4      6997       4    7806    7796    7795    7805     0.0     0.0
CQUAD4      6998       4    7797    7800    7803    7796     0.0     0.0
CQUAD4      6999       4    7807    7797    7796    7806     0.0     0.0
CQUAD4      7000       4    7798    7801    7800    7797     0.0     0.0
CQUAD4      7001       4    7808    7798    7797    7807     0.0     0.0
CQUAD4      7002       4    7799    7802    7801    7798     0.0     0.0
CQUAD4      7003       4    7809    7799    7798    7808     0.0     0.0
CQUAD4      7004       4    7812    7806    7805    7813     0.0     0.0
CQUAD4      7005       4    7815    7807    7806    7812     0.0     0.0
CQUAD4      7006       4    7816    7808    7807    7815     0.0     0.0
CQUAD4      7007       4    7817    7809    7808    7816     0.0     0.0
CQUAD4      7008       4    7821    7822    7823    7810     0.0     0.0
CQUAD4      7009       4    7811    7812    7813    7814     0.0     0.0
CQUAD4      7010       4    7820    7815    7812    7811     0.0     0.0
CQUAD4      7011       4    7891    7811    7814    7892     0.0     0.0
CQUAD4      7012       4    7823    7820    7811    7891     0.0     0.0
CQUAD4      7013       4    7819    7816    7815    7820     0.0     0.0
CQUAD4      7014       4    7818    7817    7816    7819     0.0     0.0
CQUAD4      7015       4    7824    7818    7819    7822     0.0     0.0
CQUAD4      7016       4    7822    7819    7820    7823     0.0     0.0
CQUAD4      7017       4    7845    7844    7825    7826     0.0     0.0
CQUAD4      7018       4    7826    7825    7856    7857     0.0     0.0
CQUAD4      7019       4    7846    7845    7826    7858     0.0     0.0
CQUAD4      7020       4    7858    7826    7857    7859     0.0     0.0
CQUAD4      7021       4    7839    7840    7827    7828     0.0     0.0
CQUAD4      7022       4    7828    7827    7854    7855     0.0     0.0
CQUAD4      7023       4    7840    7841    7846    7827     0.0     0.0
CQUAD4      7024       4    7827    7846    7858    7854     0.0     0.0
CQUAD4      7025       4    7836    7835    7829    7830     0.0     0.0
CQUAD4      7026       4    7830    7829    7847    7848     0.0     0.0
CQUAD4      7027       4    7837    7836    7830    7831     0.0     0.0
CQUAD4      7028       4    7831    7830    7848    7849     0.0     0.0
CQUAD4      7029       4    7838    7837    7831    7832     0.0     0.0
CQUAD4      7030       4    7832    7831    7849    7850     0.0     0.0
CQUAD4      7031       4    7888    7838    7832    7833     0.0     0.0
CQUAD4      7032       4    7833    7832    7850    7840     0.0     0.0
CQUAD4      7033       4    7834    7833    7840    7839     0.0     0.0
CQUAD4      7034       4    7850    7849    7841    7840     0.0     0.0
CQUAD4      7035       4    7841    7842    7845    7846     0.0     0.0
CQUAD4      7036       4    7849    7848    7842    7841     0.0     0.0
CQUAD4      7037       4    7842    7843    7844    7845     0.0     0.0
CQUAD4      7038       4    7848    7847    7843    7842     0.0     0.0
CQUAD4      7039       4    7857    7856    7851    7852     0.0     0.0
CQUAD4      7040       4    7852    7851    7875    7874     0.0     0.0
CQUAD4      7041       4    7859    7857    7852    7853     0.0     0.0
CQUAD4      7042       4    7853    7852    7874    7860     0.0     0.0
CQUAD4      7043       4    7867    7859    7853    7860     0.0     0.0
CQUAD4      7044       4    7855    7854    7865    7866     0.0     0.0
CQUAD4      7045       4    7854    7858    7859    7867     0.0     0.0
CQUAD4      7046       4    7854    7867    7864    7865     0.0     0.0
CQUAD4      7047       4    7867    7860    7861    7864     0.0     0.0
CQUAD4      7048       4    7860    7874    7873    7861     0.0     0.0
CQUAD4      7049       4    7864    7861    7862    7870     0.0     0.0
CQUAD4      7050       4    7861    7873    7877    7862     0.0     0.0
CQUAD4      7051       4    7870    7862    7863    7871     0.0     0.0
CQUAD4      7052       4    7862    7877    7878    7863     0.0     0.0
CQUAD4      7053       4    7865    7864    7870    7868     0.0     0.0
CQUAD4      7054       4    7868    7870    7871    7869     0.0     0.0
CQUAD4      7055       4    7869    7871    7883    7882     0.0     0.0
CQUAD4      7056       4    7874    7875    7872    7873     0.0     0.0
CQUAD4      7057       4    7873    7872    7876    7877     0.0     0.0
CQUAD4      7058       4    7877    7876    7880    7878     0.0     0.0
CQUAD4      7059       4    7884    7882    7881    7886     0.0     0.0
CQUAD4      7060       4    8012    8013    7643    7456     0.0     0.0
CQUAD4      7061       4    8009    7673    7643    8013     0.0     0.0
CQUAD4      7062       4    7908    8021    7644    7675     0.0     0.0
CQUAD4      7063       4    8021    7896    7689    7644     0.0     0.0
CQUAD4      7064       4    7902    7718    7650    7692     0.0     0.0
CQUAD4      7065       4    7651    7717    7931    7720     0.0     0.0
CQUAD4      7066       4    7701    7652    7719    7901     0.0     0.0
CQUAD4      7067       4    8010    8012    7456    7508     0.0     0.0
CQUAD4      7068       4    7939    7933    7488    7458     0.0     0.0
CQUAD4      7069       4    7938    7939    7458    7725     0.0     0.0
CQUAD4      7070       4    8019    7674    7673    8009     0.0     0.0
CQUAD4      7071       4    8014    7908    7675    7674     0.0     0.0
CQUAD4      7072       4    8015    8014    7674    8019     0.0     0.0
CQUAD4      7073       4    7896    7906    7690    7689     0.0     0.0
CQUAD4      7074       4    7906    7899    7691    7690     0.0     0.0
CQUAD4      7075       4    7899    7902    7692    7691     0.0     0.0
CQUAD4      7076       4    7702    7701    7901    7905     0.0     0.0
CQUAD4      7077       4    7703    7702    7905    7898     0.0     0.0
CQUAD4      7078       4    7704    7703    7898    7907     0.0     0.0
CQUAD4      7079       4    7705    7704    7907    7997     0.0     0.0
CQUAD4      7080       4    7706    7705    7997    7998     0.0     0.0
CQUAD4      7081       4    7707    7706    7998    7989     0.0     0.0
CQUAD4      7082       4    7708    7707    7989    7964     0.0     0.0
CQUAD4      7083       4    7709    7708    7964    7982     0.0     0.0
CQUAD4      7084       4    7710    7709    7982    7970     0.0     0.0
CQUAD4      7085       4    7711    7710    7970    7909     0.0     0.0
CQUAD4      7086       4    7712    7711    7909    7958     0.0     0.0
CQUAD4      7087       4    7713    7712    7958    7961     0.0     0.0
CQUAD4      7088       4    7714    7713    7961    7914     0.0     0.0
CQUAD4      7089       4    7715    7714    7914    7924     0.0     0.0
CQUAD4      7090       4    7716    7715    7924    7928     0.0     0.0
CQUAD4      7091       4    7717    7716    7932    7931     0.0     0.0
CQUAD4      7092       4    7932    7716    7928    7929     0.0     0.0
CQUAD4      7093       4    7903    7719    7718    7902     0.0     0.0
CQUAD4      7094       4    7901    7719    7903    7900     0.0     0.0
CQUAD4      7095       4    7933    7920    7489    7488     0.0     0.0
CQUAD4      7096       4    7920    7925    7490    7489     0.0     0.0
CQUAD4      7097       4    7925    7919    7491    7490     0.0     0.0
CQUAD4      7098       4    7919    7952    7492    7491     0.0     0.0
CQUAD4      7099       4    7952    7951    7493    7492     0.0     0.0
CQUAD4      7100       4    7951    7948    7494    7493     0.0     0.0
CQUAD4      7101       4    7948    7949    7495    7494     0.0     0.0
CQUAD4      7102       4    7949    7950    7496    7495     0.0     0.0
CQUAD4      7103       4    7950    7913    7497    7496     0.0     0.0
CQUAD4      7104       4    7913    7974    7498    7497     0.0     0.0
CQUAD4      7105       4    7974    7973    7499    7498     0.0     0.0
CQUAD4      7106       4    7973    7987    7500    7499     0.0     0.0
CQUAD4      7107       4    7987    7978    7501    7500     0.0     0.0
CQUAD4      7108       4    7978    7983    7502    7501     0.0     0.0
CQUAD4      7109       4    7983    7969    7503    7502     0.0     0.0
CQUAD4      7110       4    7969    7994    7504    7503     0.0     0.0
CQUAD4      7111       4    7994    7993    7505    7504     0.0     0.0
CQUAD4      7112       4    7993    8004    7506    7505     0.0     0.0
CQUAD4      7113       4    8004    8003    7507    7506     0.0     0.0
CQUAD4      7114       4    8003    8010    7508    7507     0.0     0.0
CQUAD4      7115       4    7720    7931    7930    7721     0.0     0.0
CQUAD4      7116       4    7721    7930    7941    7722     0.0     0.0
CQUAD4      7117       4    7941    7942    7723    7722     0.0     0.0
CQUAD4      7118       4    7942    7937    7724    7723     0.0     0.0
CQUAD4      7119       4    7937    7938    7725    7724     0.0     0.0
CQUAD4      7120       4    7897    7904    7906    7896     0.0     0.0
CQUAD4      7121       4    8022    7897    7896    8021     0.0     0.0
CQUAD4      7122       4    7898    7905    7904    7897     0.0     0.0
CQUAD4      7123       4    7907    7898    7897    8022     0.0     0.0
CQUAD4      7124       4    7900    7903    7902    7899     0.0     0.0
CQUAD4      7125       4    7904    7900    7899    7906     0.0     0.0
CQUAD4      7126       4    7905    7901    7900    7904     0.0     0.0
CQUAD4      7127       4    7997    7907    8030    8017     0.0     0.0
CQUAD4      7128       4    8030    7907    8022    8029     0.0     0.0
CQUAD4      7129       4    8030    8029    7908    8014     0.0     0.0
CQUAD4      7130       4    8029    8022    8021    7908     0.0     0.0
CQUAD4      7131       4    7909    7910    8024    7960     0.0     0.0
CQUAD4      7132       4    7909    7970    7971    7910     0.0     0.0
CQUAD4      7133       4    7958    7909    7960    7957     0.0     0.0
CQUAD4      7134       4    7910    7971    8026    7977     0.0     0.0
CQUAD4      7135       4    8024    7910    7977    8023     0.0     0.0
CQUAD4      7136       4    7955    7911    7912    7947     0.0     0.0
CQUAD4      7137       4    7911    7976    7975    7912     0.0     0.0
CQUAD4      7138       4    7959    8023    7911    7955     0.0     0.0
CQUAD4      7139       4    8023    7977    7976    7911     0.0     0.0
CQUAD4      7140       4    7947    7912    7913    7950     0.0     0.0
CQUAD4      7141       4    7912    7975    7974    7913     0.0     0.0
CQUAD4      7142       4    7924    7914    7915    7923     0.0     0.0
CQUAD4      7143       4    7914    7961    7962    7915     0.0     0.0
CQUAD4      7144       4    7923    7915    7916    8025     0.0     0.0
CQUAD4      7145       4    7915    7962    7963    7916     0.0     0.0
CQUAD4      7146       4    8025    7916    7917    7927     0.0     0.0
CQUAD4      7147       4    7916    7963    7953    7917     0.0     0.0
CQUAD4      7148       4    7927    7917    7918    7926     0.0     0.0
CQUAD4      7149       4    7917    7953    7943    7918     0.0     0.0
CQUAD4      7150       4    7926    7918    7919    7925     0.0     0.0
CQUAD4      7151       4    7918    7943    7952    7919     0.0     0.0
CQUAD4      7152       4    7921    7926    7925    7920     0.0     0.0
CQUAD4      7153       4    7934    7921    7920    7933     0.0     0.0
CQUAD4      7154       4    7922    7927    7926    7921     0.0     0.0
CQUAD4      7155       4    7935    7922    7921    7934     0.0     0.0
CQUAD4      7156       4    7923    8025    7927    7922     0.0     0.0
CQUAD4      7157       4    7936    7923    7922    7935     0.0     0.0
CQUAD4      7158       4    7928    7924    7923    7936     0.0     0.0
CQUAD4      7159       4    7929    7928    7936    7940     0.0     0.0
CQUAD4      7160       4    7931    7932    7929    7930     0.0     0.0
CQUAD4      7161       4    7930    7929    7940    7941     0.0     0.0
CQUAD4      7162       4    7938    7934    7933    7939     0.0     0.0
CQUAD4      7163       4    7937    7935    7934    7938     0.0     0.0
CQUAD4      7164       4    7940    7936    7935    7937     0.0     0.0
CQUAD4      7165       4    7941    7940    7937    7942     0.0     0.0
CQUAD4      7166       4    7953    7945    7944    7943     0.0     0.0
CQUAD4      7167       4    7943    7944    7951    7952     0.0     0.0
CQUAD4      7168       4    7944    7945    7948    7951     0.0     0.0
CQUAD4      7169       4    7945    7946    7949    7948     0.0     0.0
CQUAD4      7170       4    7953    7954    7946    7945     0.0     0.0
CQUAD4      7171       4    7946    7947    7950    7949     0.0     0.0
CQUAD4      7172       4    7954    7955    7947    7946     0.0     0.0
CQUAD4      7173       4    7963    7956    7954    7953     0.0     0.0
CQUAD4      7174       4    7956    7959    7955    7954     0.0     0.0
CQUAD4      7175       4    7957    7960    7959    7956     0.0     0.0
CQUAD4      7176       4    7962    7957    7956    7963     0.0     0.0
CQUAD4      7177       4    7961    7958    7957    7962     0.0     0.0
CQUAD4      7178       4    7960    8024    8023    7959     0.0     0.0
CQUAD4      7179       4    7982    7964    7965    7981     0.0     0.0
CQUAD4      7180       4    7964    7989    7990    7965     0.0     0.0
CQUAD4      7181       4    7981    7965    7966    7986     0.0     0.0
CQUAD4      7182       4    7965    7990    8028    7966     0.0     0.0
CQUAD4      7183       4    7986    7966    7967    7985     0.0     0.0
CQUAD4      7184       4    7966    8028    7996    7967     0.0     0.0
CQUAD4      7185       4    7985    7967    7968    7984     0.0     0.0
CQUAD4      7186       4    7967    7996    7995    7968     0.0     0.0
CQUAD4      7187       4    7984    7968    7969    7983     0.0     0.0
CQUAD4      7188       4    7968    7995    7994    7969     0.0     0.0
CQUAD4      7189       4    7970    7982    7981    7971     0.0     0.0
CQUAD4      7190       4    7971    7981    7986    8026     0.0     0.0
CQUAD4      7191       4    7975    7972    7973    7974     0.0     0.0
CQUAD4      7192       4    7972    7988    7987    7973     0.0     0.0
CQUAD4      7193       4    7976    7980    7972    7975     0.0     0.0
CQUAD4      7194       4    7980    7979    7988    7972     0.0     0.0
CQUAD4      7195       4    7977    8026    7980    7976     0.0     0.0
CQUAD4      7196       4    7979    7984    7983    7978     0.0     0.0
CQUAD4      7197       4    7988    7979    7978    7987     0.0     0.0
CQUAD4      7198       4    7980    7985    7984    7979     0.0     0.0
CQUAD4      7199       4    8026    7986    7985    7980     0.0     0.0
CQUAD4      7200       4    7989    7998    7999    7990     0.0     0.0
CQUAD4      7201       4    7990    7999    8000    8006     0.0     0.0
CQUAD4      7202       4    8028    7990    8006    8027     0.0     0.0
CQUAD4      7203       4    7996    7991    7992    7995     0.0     0.0
CQUAD4      7204       4    7991    8007    8005    7992     0.0     0.0
CQUAD4      7205       4    8028    8027    7991    7996     0.0     0.0
CQUAD4      7206       4    8027    8006    8007    7991     0.0     0.0
CQUAD4      7207       4    7995    7992    7993    7994     0.0     0.0
CQUAD4      7208       4    7992    8005    8004    7993     0.0     0.0
CQUAD4      7209       4    7998    7997    8017    8018     0.0     0.0
CQUAD4      7210       4    7998    8018    8016    7999     0.0     0.0
CQUAD4      7211       4    7999    8016    8020    8000     0.0     0.0
CQUAD4      7212       4    8006    8000    8001    8007     0.0     0.0
CQUAD4      7213       4    8000    8020    8008    8001     0.0     0.0
CQUAD4      7214       4    8007    8001    8002    8005     0.0     0.0
CQUAD4      7215       4    8001    8008    8011    8002     0.0     0.0
CQUAD4      7216       4    8005    8002    8003    8004     0.0     0.0
CQUAD4      7217       4    8002    8011    8010    8003     0.0     0.0
CQUAD4      7218       4    8008    8009    8013    8011     0.0     0.0
CQUAD4      7219       4    8020    8019    8009    8008     0.0     0.0
CQUAD4      7220       4    8011    8013    8012    8010     0.0     0.0
CQUAD4      7221       4    8017    8030    8014    8015     0.0     0.0
CQUAD4      7222       4    8018    8017    8015    8016     0.0     0.0
CQUAD4      7223       4    8016    8015    8019    8020     0.0     0.0
$*
$*  MATERIAL CARDS
$*
$*
$*  I-DEAS Material: 1  name: STEEL IDEAS MTABLE
MAT1           12.0680+88.0155+7.29000007.8200-61.1700-521.85000     0.0+ 
+       150000.0150000.068000.00
$*
$*  I-DEAS Material: 2  name: PLASTIC IDEAS MTABLE
MAT1           22.0680+7        .29000007.8200-61.1700-5295.0000     0.0+ 
+       150000.0150000.068000.00
$*
$*  I-DEAS Material: 3  name: ALUMINUM IDEAS MTABLE
MAT1           37.0000+7        .29000004.0000-61.1700-5295.0000     0.0+ 
+       150000.0150000.068000.00
$*
$*  PROPERTY CARDS
$*
$*
$*  I-DEAS property: 1  name: SOLIDS IDEAS PTABLE
PSOLID         1       3       0
$*
$*  I-DEAS property: 2  name: SHELL 4MM IDEAS PTABLE
PSHELL         2       24.000000       21.000000       2.8333330
$*
$*  I-DEAS property: 3  name: SHELL 3MM IDEAS PTABLE
PSHELL         3       23.000000       21.000000       2.8333330
$*
$*  I-DEAS property: 4  name: SHELL 2MM IDEAS PTABLE
PSHELL         4       22.000000       21.000000       2.8333330
$*
$*  I-DEAS property: 5  name: BEAM BY XSEC IDEAS PTABLE
$*  Fore Section   : 1  name: TRIPLE TREE
PBEAML         5       1MSCBML0 BAR                                     + 
+       15.0000025.00000     0.0YES     1.00000015.0000025.00000     0.0
$*
$*  I-DEAS property: 5  name: BEAM BY XSEC IDEAS PTABLE
$*  Fore Section   : 2  name: SOLID TUBE
PBEAML         7       1MSCBML0 ROD                                     + 
+       21.00000     0.0YES     1.00000021.00000     0.0
$*
$*  I-DEAS property: 5  name: BEAM BY XSEC IDEAS PTABLE
$*  Fore Section   : 3  name: HOLLOW TUBE
PBEAML        10       1MSCBML0 TUBE                                    + 
+       24.0000021.00000     0.0YES     1.00000024.0000021.00000     0.0
$*
$*  I-DEAS property: 5  name: BEAM BY XSEC IDEAS PTABLE
$*  Fore Section   : 4  name: AXLE
PBEAML        11       1MSCBML0 ROD                                     + 
+       15.00000     0.0YES     1.00000015.00000     0.0
$*
$*  I-DEAS property: 6  name: GENERAL BEAM IDEAS PTABLE
$*  Fore Section   : 5  name: HOLLOW TUBE WITH PAD
PBEAM          6       1833.1517128425.1323882.5     0.0298625.5     0.0+ 
+               31.62010.698025131.6099512.00000-32.3799-12.0000-32.3799+ 
+       YES     1.000000833.1517128425.1323882.5     0.0298625.5     0.0+ 
+               31.62010.698025131.6099512.00000-32.3799-12.0000-32.3799+ 
+       .4395604.4033884                                9.3280+69.3280+6+ 
+                                               -7.82120        -7.82120
$*
$*  I-DEAS property: 8  name: BUSHING IDEAS PTABLE
PBUSH          8K       100000.0100000.0100000.01.0000+71.0000+71.0000+7
$*
$*  RESTRAINT CARDS
$*
SPC1           1       1    7431THRU        7432
SPC1           1       3    7443THRU        7444
SPC1           1      12    7426THRU        7427
$*
$*  LOAD CARDS
$*
FORCE          1    7422      231.000000     0.0     0.01.0000+6
FORCE          1   10009      221.000000     0.0-1.000+7     0.0
FORCE          1   10010      221.000000     0.0-1.000+7     0.0
PLOAD4         1    687350.00000
PLOAD4         1    687450.00000
PLOAD4         1    687550.00000
PLOAD4         1    687650.00000
PLOAD4         1    687750.00000
PLOAD4         1    687850.00000
PLOAD4         1    687950.00000
PLOAD4         1    688050.00000
PLOAD4         1    688150.00000
PLOAD4         1    688250.00000
PLOAD4         1    688350.00000
PLOAD4         1    688450.00000
PLOAD4         1    688550.00000
PLOAD4         1    688650.00000
PLOAD4         1    688750.00000
PLOAD4         1    688850.00000
PLOAD4         1    688950.00000
PLOAD4         1    689050.00000
PLOAD4         1    689150.00000
PLOAD4         1    689250.00000
PLOAD4         1    689350.00000
PLOAD4         1    689450.00000
PLOAD4         1    689550.00000
PLOAD4         1    689650.00000
PLOAD4         1    689750.00000
PLOAD4         1    689850.00000
PLOAD4         1    689950.00000
PLOAD4         1    690050.00000
PLOAD4         1    690150.00000
PLOAD4         1    690250.00000
PLOAD4         1    690350.00000
PLOAD4         1    690450.00000
PLOAD4         1    690550.00000
PLOAD4         1    690650.00000
PLOAD4         1    690750.00000
PLOAD4         1    690850.00000
PLOAD4         1    690950.00000
PLOAD4         1    691050.00000
PLOAD4         1    691150.00000
PLOAD4         1    691250.00000
PLOAD4         1    691350.00000
PLOAD4         1    691450.00000
PLOAD4         1    691550.00000
PLOAD4         1    691650.00000
PLOAD4         1    691750.00000
PLOAD4         1    691850.00000
PLOAD4         1    691950.00000
PLOAD4         1    692050.00000
PLOAD4         1    692150.00000
PLOAD4         1    692250.00000
PLOAD4         1    692350.00000
PLOAD4         1    692450.00000
PLOAD4         1    692550.00000
PLOAD4         1    692650.00000
PLOAD4         1    692750.00000
PLOAD4         1    692850.00000
PLOAD4         1    692950.00000
PLOAD4         1    693050.00000
PLOAD4         1    693150.00000
PLOAD4         1    693250.00000
PLOAD4         1    693350.00000
PLOAD4         1    693450.00000
PLOAD4         1    693550.00000
PLOAD4         1    693650.00000
PLOAD4         1    693750.00000
PLOAD4         1    693850.00000
PLOAD4         1    693950.00000
PLOAD4         1    694050.00000
PLOAD4         1    694150.00000
PLOAD4         1    694250.00000
PLOAD4         1    694350.00000
PLOAD4         1    694450.00000
PLOAD4         1    694550.00000
PLOAD4         1    694650.00000
PLOAD4         1    694750.00000
PLOAD4         1    694850.00000
PLOAD4         1    694950.00000
PLOAD4         1    695050.00000
PLOAD4         1    695150.00000
PLOAD4         1    695250.00000
PLOAD4         1    695350.00000
PLOAD4         1    695450.00000
PLOAD4         1    695550.00000
PLOAD4         1    695650.00000
PLOAD4         1    695750.00000
PLOAD4         1    695850.00000
PLOAD4         1    695950.00000
PLOAD4         1    696050.00000
PLOAD4         1    696150.00000
PLOAD4         1    696250.00000
PLOAD4         1    696350.00000
PLOAD4         1    696450.00000
PLOAD4         1    696550.00000
PLOAD4         1    696650.00000
PLOAD4         1    696750.00000
PLOAD4         1    696850.00000
PLOAD4         1    696950.00000
PLOAD4         1    697050.00000
PLOAD4         1    697150.00000
PLOAD4         1    697250.00000
PLOAD4         1    697350.00000
PLOAD4         1    697450.00000
PLOAD4         1    697550.00000
PLOAD4         1    697650.00000
PLOAD4         1    697750.00000
PLOAD4         1    697850.00000
PLOAD4         1    697950.00000
PLOAD4         1    698050.00000
PLOAD4         1    698150.00000
PLOAD4         1    698250.00000
PLOAD4         1    698350.00000
PLOAD4         1    698450.00000
PLOAD4         1    698550.00000
PLOAD4         1    698650.00000
PLOAD4         1    698750.00000
PLOAD4         1    698850.00000
PLOAD4         1    698950.00000
PLOAD4         1    699050.00000
PLOAD4         1    699150.00000
PLOAD4         1    699250.00000
PLOAD4         1    699350.00000
PLOAD4         1    699450.00000
PLOAD4         1    699550.00000
PLOAD4         1    699650.00000
PLOAD4         1    699750.00000
PLOAD4         1    699850.00000
PLOAD4         1    699950.00000
PLOAD4         1    700050.00000
PLOAD4         1    700150.00000
PLOAD4         1    700250.00000
PLOAD4         1    700350.00000
PLOAD4         1    700450.00000
PLOAD4         1    700550.00000
PLOAD4         1    700650.00000
PLOAD4         1    700750.00000
PLOAD4         1    700850.00000
PLOAD4         1    700950.00000
PLOAD4         1    701050.00000
PLOAD4         1    701150.00000
PLOAD4         1    701250.00000
PLOAD4         1    701350.00000
PLOAD4         1    701450.00000
PLOAD4         1    701550.00000
PLOAD4         1    701650.00000
PLOAD4         1    701750.00000
PLOAD4         1    701850.00000
PLOAD4         1    701950.00000
PLOAD4         1    702050.00000
PLOAD4         1    702150.00000
PLOAD4         1    702250.00000
PLOAD4         1    702350.00000
PLOAD4         1    702450.00000
PLOAD4         1    702550.00000
PLOAD4         1    702650.00000
PLOAD4         1    702750.00000
PLOAD4         1    702850.00000
PLOAD4         1    702950.00000
PLOAD4         1    703050.00000
PLOAD4         1    703150.00000
PLOAD4         1    703250.00000
PLOAD4         1    703350.00000
PLOAD4         1    703450.00000
PLOAD4         1    703550.00000
PLOAD4         1    703650.00000
PLOAD4         1    703750.00000
PLOAD4         1    703850.00000
PLOAD4         1    703950.00000
PLOAD4         1    704050.00000
PLOAD4         1    704150.00000
PLOAD4         1    704250.00000
PLOAD4         1    704350.00000
PLOAD4         1    704450.00000
PLOAD4         1    704550.00000
PLOAD4         1    704650.00000
PLOAD4         1    704750.00000
PLOAD4         1    704850.00000
PLOAD4         1    704950.00000
PLOAD4         1    705050.00000
PLOAD4         1    705150.00000
PLOAD4         1    705250.00000
PLOAD4         1    705350.00000
PLOAD4         1    705450.00000
PLOAD4         1    705550.00000
PLOAD4         1    705650.00000
PLOAD4         1    705750.00000
PLOAD4         1    705850.00000
PLOAD4         1    705950.00000
PLOAD4         1    706050.00000
PLOAD4         1    706150.00000
PLOAD4         1    706250.00000
PLOAD4         1    706350.00000
PLOAD4         1    706450.00000
PLOAD4         1    706550.00000
PLOAD4         1    706650.00000
PLOAD4         1    706750.00000
PLOAD4         1    706850.00000
PLOAD4         1    706950.00000
PLOAD4         1    707050.00000
PLOAD4         1    707150.00000
PLOAD4         1    707250.00000
PLOAD4         1    707350.00000
PLOAD4         1    707450.00000
PLOAD4         1    707550.00000
PLOAD4         1    707650.00000
PLOAD4         1    707750.00000
PLOAD4         1    707850.00000
PLOAD4         1    707950.00000
PLOAD4         1    708050.00000
PLOAD4         1    708150.00000
PLOAD4         1    708250.00000
PLOAD4         1    708350.00000
PLOAD4         1    708450.00000
PLOAD4         1    708550.00000
PLOAD4         1    708650.00000
PLOAD4         1    708750.00000
PLOAD4         1    708850.00000
PLOAD4         1    708950.00000
PLOAD4         1    709050.00000
PLOAD4         1    709150.00000
PLOAD4         1    709250.00000
PLOAD4         1    709350.00000
PLOAD4         1    709450.00000
PLOAD4         1    709550.00000
PLOAD4         1    709650.00000
PLOAD4         1    709750.00000
PLOAD4         1    709850.00000
PLOAD4         1    709950.00000
PLOAD4         1    710050.00000
PLOAD4         1    710150.00000
PLOAD4         1    710250.00000
PLOAD4         1    710350.00000
PLOAD4         1    710450.00000
PLOAD4         1    710550.00000
PLOAD4         1    710650.00000
PLOAD4         1    710750.00000
PLOAD4         1    710850.00000
PLOAD4         1    710950.00000
PLOAD4         1    711050.00000
PLOAD4         1    711150.00000
PLOAD4         1    711250.00000
PLOAD4         1    711350.00000
PLOAD4         1    711450.00000
PLOAD4         1    711550.00000
PLOAD4         1    711650.00000
PLOAD4         1    711750.00000
PLOAD4         1    711850.00000
PLOAD4         1    711950.00000
PLOAD4         1    712050.00000
PLOAD4         1    712150.00000
PLOAD4         1    712250.00000
PLOAD4         1    712350.00000
PLOAD4         1    712450.00000
PLOAD4         1    712550.00000
PLOAD4         1    712650.00000
PLOAD4         1    712750.00000
PLOAD4         1    712850.00000
PLOAD4         1    712950.00000
PLOAD4         1    713050.00000
PLOAD4         1    713150.00000
PLOAD4         1    713250.00000
PLOAD4         1    713350.00000
PLOAD4         1    713450.00000
PLOAD4         1    713550.00000
PLOAD4         1    713650.00000
PLOAD4         1    713750.00000
PLOAD4         1    713850.00000
PLOAD4         1    713950.00000
PLOAD4         1    714050.00000
PLOAD4         1    714150.00000
PLOAD4         1    714250.00000
PLOAD4         1    714350.00000
PLOAD4         1    714450.00000
PLOAD4         1    714550.00000
PLOAD4         1    714650.00000
PLOAD4         1    714750.00000
PLOAD4         1    714850.00000
PLOAD4         1    714950.00000
PLOAD4         1    715050.00000
PLOAD4         1    715150.00000
PLOAD4         1    715250.00000
PLOAD4         1    715350.00000
PLOAD4         1    715450.00000
PLOAD4         1    715550.00000
PLOAD4         1    715650.00000
PLOAD4         1    715750.00000
PLOAD4         1    715850.00000
PLOAD4         1    715950.00000
PLOAD4         1    716050.00000
PLOAD4         1    716150.00000
PLOAD4         1    716250.00000
PLOAD4         1    716350.00000
PLOAD4         1    716450.00000
PLOAD4         1    716550.00000
PLOAD4         1    716650.00000
PLOAD4         1    716750.00000
PLOAD4         1    716850.00000
PLOAD4         1    716950.00000
PLOAD4         1    717050.00000
PLOAD4         1    717150.00000
PLOAD4         1    717250.00000
PLOAD4         1    717350.00000
PLOAD4         1    717450.00000
PLOAD4         1    717550.00000
PLOAD4         1    717650.00000
PLOAD4         1    717750.00000
PLOAD4         1    717850.00000
PLOAD4         1    717950.00000
PLOAD4         1    718050.00000
PLOAD4         1    718150.00000
PLOAD4         1    718250.00000
PLOAD4         1    718350.00000
PLOAD4         1    718450.00000
PLOAD4         1    718550.00000
PLOAD4         1    718650.00000
PLOAD4         1    718750.00000
PLOAD4         1    718850.00000
PLOAD4         1    718950.00000
PLOAD4         1    719050.00000
PLOAD4         1    719150.00000
PLOAD4         1    719250.00000
PLOAD4         1    719350.00000
PLOAD4         1    719450.00000
PLOAD4         1    719550.00000
PLOAD4         1    719650.00000
PLOAD4         1    719750.00000
PLOAD4         1    719850.00000
PLOAD4         1    719950.00000
PLOAD4         1    720050.00000
PLOAD4         1    720150.00000
PLOAD4         1    720250.00000
PLOAD4         1    720350.00000
PLOAD4         1    720450.00000
PLOAD4         1    720550.00000
PLOAD4         1    720650.00000
PLOAD4         1    720750.00000
PLOAD4         1    720850.00000
PLOAD4         1    720950.00000
PLOAD4         1    721050.00000
PLOAD4         1    721150.00000
PLOAD4         1    721250.00000
PLOAD4         1    721350.00000
PLOAD4         1    721450.00000
PLOAD4         1    721550.00000
PLOAD4         1    721650.00000
PLOAD4         1    721750.00000
PLOAD4         1    721850.00000
PLOAD4         1    721950.00000
PLOAD4         1    722050.00000
PLOAD4         1    722150.00000
PLOAD4         1    722250.00000
PLOAD4         1    722350.00000
$*
ENDDATA
