$*$$$$$$$$$$$$$$$$$$$$$$$$$$$$$$$$$$$$$$$$$$$$$$$$$$$$$$$$$$$$$$$$$
$*
$*                    NX v9.0.2.5 TRANSLATOR
$*                    FOR NX NASTRAN VERSION 9.0
$*
$*             FEM FILE: D:\NX_CAE_DATA\mt15032_nx9\student_home\parts_simulation\rod_fem1.fem
$*             SIM FILE: D:\NX_CAE_DATA\mt15032_nx9\student_home\parts_simulation\rod_sim1.sim
$*        ANALYSIS TYPE: Structural
$*        SOLUTION NAME: Solution 1
$*        SOLUTION TYPE: SOL 101 Linear Statics - Global Constraints
$*
$*    SOLVER INPUT FILE: rod_sim1-solution_1.dat
$*        CREATION DATE: 29-Nov-2014
$*        CREATION TIME: 13:47:47
$*             HOSTNAME: BJI6P601
$*      NASTRAN LICENSE: Enterprise
$*
$*                UNITS: mm (milli-newton)
$*                      ... LENGTH : mm
$*                      ... TIME   : sec
$*                      ... MASS   : kilogram (kg)
$*                      ... TEMPERATURE : deg Celsius
$*                      ... FORCE  : milli-newton
$*                      ... THERMAL ENERGY : mN-mm (micro-joule)
$*
$* 重要说明：
$*     本横幅由 NX 生成，改动本信息
$*     可能会损害 NX 对结果的后处理。
$*
$*$$$$$$$$$$$$$$$$$$$$$$$$$$$$$$$$$$$$$$$$$$$$$$$$$$$$$$$$$$$$$$$$$
$*
$*$$$$$$$$$$$$$$$$$$$$$$$$$$$$$$$$$$$
$*
$* FILE MANAGEMENT
$*
$*$$$$$$$$$$$$$$$$$$$$$$$$$$$$$$$$$$$
$*
$*
$*$$$$$$$$$$$$$$$$$$$$$$$$$$$$$$$$$$$
$*
$* EXECUTIVE CONTROL
$*
$*$$$$$$$$$$$$$$$$$$$$$$$$$$$$$$$$$$$
$*
ID,NASTRAN,rod_sim1-solution_1
SOL 101
CEND
$*
$*$$$$$$$$$$$$$$$$$$$$$$$$$$$$$$$$$$$
$*
$* CASE CONTROL
$*
$*$$$$$$$$$$$$$$$$$$$$$$$$$$$$$$$$$$$
$*
ECHO = NONE
SPC = 1
OUTPUT
DISPLACEMENT(PLOT,REAL) = ALL
SPCFORCES(PLOT,REAL) = ALL
STRESS(PLOT,REAL,VONMISES,CENTER) = ALL
$*  NX Step: Subcase - Static Loads 1
SUBCASE 1
LABEL = Subcase - Static Loads 1
LOAD = 2
$*  NX Step: Subcase - Static Loads 2
SUBCASE 2
LABEL = Subcase - Static Loads 2
LOAD = 3
$*
$*$$$$$$$$$$$$$$$$$$$$$$$$$$$$$$$$$$$
$*
$* BULK DATA
$*
$*$$$$$$$$$$$$$$$$$$$$$$$$$$$$$$$$$$$
$*
BEGIN BULK
$*
$* PARAM CARDS
$*
PARAM        F56     YES
PARAM      K6ROT100.0000
PARAM     OIBULK     YES
PARAM    OMACHPR     YES
PARAM       POST      -2
PARAM    POSTEXT     YES
PARAM    UNITSYS   MN-MM
$*
$* GRID CARDS
$*
GRID*               9044               0-3.911083221E+011.4199999809E+01+
*       0.0000000000E+00               0
GRID*               9046               0-3.911083221E+010.0000000000E+00+
*       3.0357660830E-14               0
GRID*               9043               0-3.739778137E+011.5399487495E+01+
*       -7.500000000E+00               0
GRID*               9045               0-3.739778137E+011.5399487495E+01+
*       7.5000000000E+00               0
GRID*               9047               0-3.661092758E+010.0000000000E+00+
*       -1.094499969E+01               0
GRID*               9048               0-3.661092758E+010.0000000000E+00+
*       1.0944999695E+01               0
GRID*               9135               0-3.661092758E+015.0000000000E+00+
*       -1.094499969E+01               0
GRID*               9136               0-3.661092758E+015.0000000000E+00+
*       1.0944999695E+01               0
GRID*               9140               0-2.551470184E+015.0000000000E+00+
*       1.0944999695E+01               0
GRID*               9049               0-2.300000000E+010.0000000000E+00+
*       -1.094499969E+01               0
GRID*               9050               0-2.300000000E+010.0000000000E+00+
*       1.0944999695E+01               0
GRID*               9051               0-2.033635139E+012.7346031189E+01+
*       -7.500000000E+00               0
GRID*               9052               0-2.033635139E+012.7346031189E+01+
*       7.5000000000E+00               0
GRID*               9139               0-2.551470184E+015.0000000000E+00+
*       -1.094499969E+01               0
GRID*               9073               0-5.874927044E+002.8398683548E+01+
*       -7.500000000E+00               0
GRID*               9074               0-5.874927044E+002.8398683548E+01+
*       7.5000000000E+00               0
GRID*               9053               0-9.752829552E+004.5863357544E+01+
*       -7.500000000E+00               0
GRID*               9054               0-9.752829552E+004.5863357544E+01+
*       7.5000000000E+00               0
GRID*               9055               0-5.229961395E+001.4250000000E+02+
*       -9.050000191E+00               0
GRID*               9056               0-1.150794125E+011.2284669495E+02+
*       -9.050000191E+00               0
GRID*               9057               0-5.229961395E+001.4250000000E+02+
*       9.0500001907E+00               0
GRID*               9058               0-1.150794125E+011.2284669495E+02+
*       9.0500001907E+00               0
GRID*               9059               0-1.018407440E+013.4254379272E+01+
*       -5.768651485E+00               0
GRID*               9060               0-1.018407440E+013.4254379272E+01+
*       -7.500000000E+00               0
GRID*               9061               0-1.018407440E+013.4254379272E+01+
*       5.7686514854E+00               0
GRID*               9062               0-1.018407440E+013.4254379272E+01+
*       7.5000000000E+00               0
GRID*               9063               0-5.874927044E+002.8398683548E+01+
*       -5.768651485E+00               0
GRID*               9064               0-5.874927044E+002.8398683548E+01+
*       5.7686514854E+00               0
GRID*               9075               0-7.828583241E+001.1523516846E+02+
*       -7.500000000E+00               0
GRID*               9076               0-7.828583241E+001.1523516846E+02+
*       7.5000000000E+00               0
GRID*               9065               0-6.685261726E+003.2664367676E+01+
*       -1.783872724E+00               0
GRID*               9066               0-6.685261726E+003.2664367676E+01+
*       1.7838727236E+00               0
GRID*               9067               0-6.762077332E+004.5627979279E+01+
*       6.9058637619E+00               0
GRID*               9068               0-6.762077332E+004.5627979279E+01+
*       -6.905863762E+00               0
GRID*               9069               0-6.762077332E+004.5627979279E+01+
*       -7.500000000E+00               0
GRID*               9070               0-6.762077332E+004.5627979279E+01+
*       7.5000000000E+00               0
GRID*               9071               0-5.603029728E+009.8591560364E+01+
*       -7.500000000E+00               0
GRID*               9072               0-5.603029728E+009.8591560364E+01+
*       7.5000000000E+00               0
GRID*               9077               0-2.774408102E+004.5662765503E+01+
*       -2.921085119E+00               0
GRID*               9078               0-2.774408102E+004.5662765503E+01+
*       2.9210851192E+00               0
GRID*               9079               02.3000000000E+010.0000000000E+00+
*       -1.094499969E+01               0
GRID*               9080               02.3000000000E+010.0000000000E+00+
*       1.0944999695E+01               0
GRID*               9141               02.5514701843E+015.0000000000E+00+
*       -1.094499969E+01               0
GRID*               9144               02.5514701843E+015.0000000000E+00+
*       1.0944999695E+01               0
GRID*               9081               05.8749270439E+002.8398683548E+01+
*       -5.768651485E+00               0
GRID*               9095               05.8749270439E+002.8398683548E+01+
*       -7.500000000E+00               0
GRID*               9082               05.8749270439E+002.8398683548E+01+
*       5.7686514854E+00               0
GRID*               9096               05.8749270439E+002.8398683548E+01+
*       7.5000000000E+00               0
GRID*               9083               06.6852617264E+003.2664367676E+01+
*       -1.783872724E+00               0
GRID*               9084               06.6852617264E+003.2664367676E+01+
*       1.7838727236E+00               0
GRID*               9085               07.8285832405E+001.1523516846E+02+
*       -7.500000000E+00               0
GRID*               9086               07.8285832405E+001.1523516846E+02+
*       7.5000000000E+00               0
GRID*               9107               01.1507941246E+011.2284669495E+02+
*       -9.050000191E+00               0
GRID*               9108               01.1507941246E+011.2284669495E+02+
*       9.0500001907E+00               0
GRID*               9087               05.2299613953E+001.4250000000E+02+
*       -9.050000191E+00               0
GRID*               9088               05.2299613953E+001.4250000000E+02+
*       9.0500001907E+00               0
GRID*               9089               02.7744081020E+004.5662765503E+01+
*       -2.921085119E+00               0
GRID*               9090               02.7744081020E+004.5662765503E+01+
*       2.9210851192E+00               0
GRID*               9091               06.7620773315E+004.5627979279E+01+
*       -6.905863762E+00               0
GRID*               9092               06.7620773315E+004.5627979279E+01+
*       6.9058637619E+00               0
GRID*               9093               05.6030297279E+009.8591560364E+01+
*       7.5000000000E+00               0
GRID*               9094               05.6030297279E+009.8591560364E+01+
*       -7.500000000E+00               0
GRID*               9097               06.7620773315E+004.5627979279E+01+
*       -7.500000000E+00               0
GRID*               9098               06.7620773315E+004.5627979279E+01+
*       7.5000000000E+00               0
GRID*               9099               09.7528295517E+004.5863357544E+01+
*       -7.500000000E+00               0
GRID*               9100               09.7528295517E+004.5863357544E+01+
*       7.5000000000E+00               0
GRID*               9101               01.0184074402E+013.4254379272E+01+
*       -7.500000000E+00               0
GRID*               9102               01.0184074402E+013.4254379272E+01+
*       7.5000000000E+00               0
GRID*               9103               01.0184074402E+013.4254379272E+01+
*       5.7686514854E+00               0
GRID*               9104               01.0184074402E+013.4254379272E+01+
*       -5.768651485E+00               0
GRID*               9105               0-9.000000000E+001.3000000000E+02+
*       -9.050000191E+00               0
GRID*               9106               0-9.000000000E+001.3000000000E+02+
*       9.0500001907E+00               0
GRID*               9109               02.0336351395E+012.7346031189E+01+
*       -7.500000000E+00               0
GRID*               9110               02.0336351395E+012.7346031189E+01+
*       7.5000000000E+00               0
GRID*               9111               03.7397781372E+011.5399487495E+01+
*       -7.500000000E+00               0
GRID*               9112               03.7397781372E+011.5399487495E+01+
*       7.5000000000E+00               0
GRID*               9113               03.6610927582E+010.0000000000E+00+
*       -1.094499969E+01               0
GRID*               9114               03.6610927582E+010.0000000000E+00+
*       1.0944999695E+01               0
GRID*               9147               03.7397781372E+015.0000000000E+00+
*       -7.500000000E+00               0
GRID*               9146               03.6610927582E+015.0000000000E+00+
*       1.0944999695E+01               0
GRID*               9148               03.7397781372E+015.0000000000E+00+
*       7.5000000000E+00               0
GRID*               9115               03.9110832214E+010.0000000000E+00+
*       -3.035766083E-14               0
GRID*               9116               03.9110832214E+011.4199999809E+01+
*       0.0000000000E+00               0
GRID*               8681               0-3.911083221E+019.4666665395E+00+
*       7.8705046595E-15               0
GRID*               8682               0-3.911083221E+014.7333332698E+00+
*       2.2487156170E-14               0
GRID*               8683               0-3.911083221E+011.1833333174E+01+
*       2.2487156170E-15               0
GRID*               8684               0-3.911083221E+017.0999999046E+00+
*       1.5178830415E-14               0
GRID*               8685               0-3.911083221E+012.3666666349E+00+
*       2.8108945213E-14               0
GRID*               7738               0-3.825430679E+011.4799743652E+01+
*       -3.750000000E+00               0
GRID*               7739               0-3.868256950E+011.4499871731E+01+
*       -1.875000000E+00               0
GRID*               7740               0-3.782604408E+011.5099615574E+01+
*       -5.625000000E+00               0
GRID*               7741               0-3.825430679E+011.4799743652E+01+
*       3.7500000000E+00               0
GRID*               7742               0-3.868256950E+011.4499871731E+01+
*       1.8750000000E+00               0
GRID*               7743               0-3.782604408E+011.5099615574E+01+
*       5.6250000000E+00               0
GRID*               7744               0-3.782713874E+010.0000000000E+00+
*       -5.620224266E+00               0
GRID*               7745               0-3.721903316E+010.0000000000E+00+
*       -8.282611980E+00               0
GRID*               7746               0-3.846898545E+010.0000000000E+00+
*       -2.810112128E+00               0
GRID*               7747               0-3.782713874E+010.0000000000E+00+
*       5.6202242665E+00               0
GRID*               7748               0-3.721903316E+010.0000000000E+00+
*       8.2826119805E+00               0
GRID*               7749               0-3.846898545E+010.0000000000E+00+
*       2.8101121277E+00               0
GRID*               8686               0-3.739778137E+019.6063837182E+00+
*       -7.500000000E+00               0
GRID*               8687               0-3.739778137E+017.3031918591E+00+
*       -7.500000000E+00               0
GRID*               8688               0-3.739778137E+011.2502935607E+01+
*       -7.500000000E+00               0
GRID*               8689               0-3.739778137E+019.6063837182E+00+
*       7.5000000000E+00               0
GRID*               8690               0-3.739778137E+017.3031918591E+00+
*       7.5000000000E+00               0
GRID*               8691               0-3.739778137E+011.2502935607E+01+
*       7.5000000000E+00               0
GRID*               8694               0-3.661092758E+012.5000000000E+00+
*       -1.094499969E+01               0
GRID*               8695               0-3.661092758E+012.5000000000E+00+
*       1.0944999695E+01               0
GRID*               8621               0-3.121873345E+011.9726106828E+01+
*       3.0018311502E+00               0
GRID*               8622               0-2.849999974E+012.1629783815E+01+
*       4.0500001907E+00               0
GRID*               8623               0-2.578126686E+012.3533461828E+01+
*       3.0018308482E+00               0
GRID*               8624               0-2.445000076E+012.4465623856E+01+
*       2.9976021665E-15               0
GRID*               8625               0-2.578126686E+012.3533461828E+01+
*       -3.001830848E+00               0
GRID*               8626               0-2.849999974E+012.1629783815E+01+
*       -4.050000191E+00               0
GRID*               8627               0-3.121873345E+011.9726106828E+01+
*       -3.001831150E+00               0
GRID*               8628               0-2.992827560E+012.0629695187E+01+
*       -3.789794404E+00               0
GRID*               8629               0-2.482068151E+012.4206069094E+01+
*       -1.692647796E+00               0
GRID*               8630               0-2.707172471E+012.2629873628E+01+
*       -3.789794307E+00               0
GRID*               8631               0-3.217931612E+011.9053496901E+01+
*       -1.692647784E+00               0
GRID*               8632               0-3.217931612E+011.9053496901E+01+
*       1.6926477838E+00               0
GRID*               8633               0-2.482068151E+012.4206069094E+01+
*       1.6926477960E+00               0
GRID*               8634               0-2.992827560E+012.0629695187E+01+
*       3.7897944044E+00               0
GRID*               8635               0-2.707172471E+012.2629873628E+01+
*       3.7897943070E+00               0
GRID*               8706               0-3.287685062E+015.0000000000E+00+
*       -1.094499969E+01               0
GRID*               8707               0-2.917824425E+015.0000000000E+00+
*       -1.094499969E+01               0
GRID*               8708               0-3.474388910E+015.0000000000E+00+
*       -1.094499969E+01               0
GRID*               8709               0-2.734647305E+015.0000000000E+00+
*       -1.094499969E+01               0
GRID*               8710               0-3.102754744E+015.0000000000E+00+
*       -1.094499969E+01               0
GRID*               8711               0-3.287685062E+015.0000000000E+00+
*       1.0944999695E+01               0
GRID*               8712               0-2.917824425E+015.0000000000E+00+
*       1.0944999695E+01               0
GRID*               8713               0-3.474388910E+015.0000000000E+00+
*       1.0944999695E+01               0
GRID*               8714               0-2.734647305E+015.0000000000E+00+
*       1.0944999695E+01               0
GRID*               8715               0-3.102754744E+015.0000000000E+00+
*       1.0944999695E+01               0
GRID*               7750               0-3.225610020E+010.0000000000E+00+
*       -1.094499969E+01               0
GRID*               7751               0-2.772212179E+010.0000000000E+00+
*       -1.094499969E+01               0
GRID*               7752               0-2.998911099E+010.0000000000E+00+
*       -1.094499969E+01               0
GRID*               7753               0-2.536106089E+010.0000000000E+00+
*       -1.094499969E+01               0
GRID*               7754               0-3.443351389E+010.0000000000E+00+
*       -1.094499969E+01               0
GRID*               7755               0-3.225610020E+010.0000000000E+00+
*       1.0944999695E+01               0
GRID*               7756               0-2.772212179E+010.0000000000E+00+
*       1.0944999695E+01               0
GRID*               7757               0-2.998911099E+010.0000000000E+00+
*       1.0944999695E+01               0
GRID*               7758               0-2.536106089E+010.0000000000E+00+
*       1.0944999695E+01               0
GRID*               7759               0-3.443351389E+010.0000000000E+00+
*       1.0944999695E+01               0
GRID*               7760               0-2.319226640E+012.5346297669E+01+
*       -7.500000000E+00               0
GRID*               7761               0-2.622463927E+012.3223007008E+01+
*       -7.500000000E+00               0
GRID*               7762               0-2.958750067E+012.0868305711E+01+
*       -7.500000000E+00               0
GRID*               7763               0-3.334884410E+011.8234584325E+01+
*       -7.500000000E+00               0
GRID*               7764               0-2.790607000E+012.2045656403E+01+
*       -7.500000000E+00               0
GRID*               7765               0-3.146817234E+011.9551444951E+01+
*       -7.500000000E+00               0
GRID*               7766               0-2.176430890E+012.6346164429E+01+
*       -7.500000000E+00               0
GRID*               7767               0-2.470845284E+012.4284652338E+01+
*       -7.500000000E+00               0
GRID*               7768               0-3.537331274E+011.6817035910E+01+
*       -7.500000000E+00               0
GRID*               7769               0-2.319226640E+012.5346297669E+01+
*       7.5000000000E+00               0
GRID*               7770               0-2.622463927E+012.3223007008E+01+
*       7.5000000000E+00               0
GRID*               7771               0-2.958750067E+012.0868305711E+01+
*       7.5000000000E+00               0
GRID*               7772               0-3.334884410E+011.8234584325E+01+
*       7.5000000000E+00               0
GRID*               7773               0-3.537331274E+011.6817035910E+01+
*       7.5000000000E+00               0
GRID*               7774               0-2.176430890E+012.6346164429E+01+
*       7.5000000000E+00               0
GRID*               7775               0-2.790607000E+012.2045656403E+01+
*       7.5000000000E+00               0
GRID*               7776               0-3.146817234E+011.9551444951E+01+
*       7.5000000000E+00               0
GRID*               7777               0-2.470845284E+012.4284652338E+01+
*       7.5000000000E+00               0
GRID*               8636               0-3.136378189E+010.0000000000E+00+
*       2.8637822024E+00               0
GRID*               8637               0-2.849999993E+010.0000000000E+00+
*       4.0500001907E+00               0
GRID*               8638               0-2.563621759E+010.0000000000E+00+
*       2.8637826388E+00               0
GRID*               8639               0-2.445000076E+010.0000000000E+00+
*       -1.230845586E-11               0
GRID*               8640               0-2.563621759E+010.0000000000E+00+
*       -2.863782639E+00               0
GRID*               8641               0-2.849999993E+010.0000000000E+00+
*       -4.050000191E+00               0
GRID*               8642               0-3.136378189E+010.0000000000E+00+
*       -2.863782202E+00               0
GRID*               8643               0-2.504310918E+010.0000000000E+00+
*       -1.431891319E+00               0
GRID*               8644               0-2.695013218E+010.0000000000E+00+
*       -3.741712015E+00               0
GRID*               8645               0-3.224171046E+010.0000000000E+00+
*       -1.549867521E+00               0
GRID*               8646               0-3.004986770E+010.0000000000E+00+
*       -3.741712066E+00               0
GRID*               8647               0-2.504310918E+010.0000000000E+00+
*       1.4318913194E+00               0
GRID*               8648               0-2.695013218E+010.0000000000E+00+
*       3.7417120147E+00               0
GRID*               8649               0-3.224171046E+010.0000000000E+00+
*       1.5498675207E+00               0
GRID*               8650               0-3.004986770E+010.0000000000E+00+
*       3.7417120658E+00               0
GRID*               7778               0-2.300000000E+010.0000000000E+00+
*       -5.472499847E+00               0
GRID*               7779               0-2.300000000E+010.0000000000E+00+
*       0.0000000000E+00               0
GRID*               7780               0-2.300000000E+010.0000000000E+00+
*       5.4724998474E+00               0
GRID*               7781               0-2.300000000E+010.0000000000E+00+
*       2.7362499237E+00               0
GRID*               7782               0-2.300000000E+010.0000000000E+00+
*       8.2087497711E+00               0
GRID*               7783               0-2.300000000E+010.0000000000E+00+
*       -8.208749771E+00               0
GRID*               7784               0-2.300000000E+010.0000000000E+00+
*       -2.736249924E+00               0
GRID*               7785               0-2.033635139E+012.7346031189E+01+
*       3.7500000000E+00               0
GRID*               7786               0-2.033635139E+012.7346031189E+01+
*       0.0000000000E+00               0
GRID*               7787               0-2.033635139E+012.7346031189E+01+
*       -3.750000000E+00               0
GRID*               7788               0-2.033635139E+012.7346031189E+01+
*       -5.625000000E+00               0
GRID*               7789               0-2.033635139E+012.7346031189E+01+
*       -1.875000000E+00               0
GRID*               7790               0-2.033635139E+012.7346031189E+01+
*       1.8750000000E+00               0
GRID*               7791               0-2.033635139E+012.7346031189E+01+
*       5.6250000000E+00               0
GRID*               7792               0-1.030835702E+014.2236493124E+01+
*       -7.500000000E+00               0
GRID*               7793               0-1.138876892E+013.8730003943E+01+
*       -7.500000000E+00               0
GRID*               7794               0-1.297079140E+013.5419420735E+01+
*       -7.500000000E+00               0
GRID*               7795               0-1.502034842E+013.2376055445E+01+
*       -7.500000000E+00               0
GRID*               7796               0-1.749329115E+012.9665463164E+01+
*       -7.500000000E+00               0
GRID*               7797               0-1.620704700E+013.0975350327E+01+
*       -7.500000000E+00               0
GRID*               7798               0-1.393968669E+013.3860103492E+01+
*       -7.500000000E+00               0
GRID*               7799               0-1.887223111E+012.8453541990E+01+
*       -7.500000000E+00               0
GRID*               7800               0-1.211899022E+013.7045662746E+01+
*       -7.500000000E+00               0
GRID*               7801               0-1.078417571E+014.0463409672E+01+
*       -7.500000000E+00               0
GRID*               7802               0-9.963995676E+004.4039724556E+01+
*       -7.500000000E+00               0
GRID*               7803               0-1.030835702E+014.2236493124E+01+
*       7.5000000000E+00               0
GRID*               7804               0-1.138876892E+013.8730003943E+01+
*       7.5000000000E+00               0
GRID*               7805               0-1.297079140E+013.5419420735E+01+
*       7.5000000000E+00               0
GRID*               7806               0-1.502034842E+013.2376055445E+01+
*       7.5000000000E+00               0
GRID*               7807               0-1.749329115E+012.9665463164E+01+
*       7.5000000000E+00               0
GRID*               7808               0-1.887223111E+012.8453541990E+01+
*       7.5000000000E+00               0
GRID*               7809               0-9.963995676E+004.4039724556E+01+
*       7.5000000000E+00               0
GRID*               7810               0-1.078417571E+014.0463409672E+01+
*       7.5000000000E+00               0
GRID*               7811               0-1.211899022E+013.7045662746E+01+
*       7.5000000000E+00               0
GRID*               7812               0-1.393968669E+013.3860103492E+01+
*       7.5000000000E+00               0
GRID*               7813               0-1.620704700E+013.0975350327E+01+
*       7.5000000000E+00               0
GRID*               7814               0-8.599984106E+001.4047096223E+02+
*       -9.050000191E+00               0
GRID*               7815               0-1.124522006E+011.3755949759E+02+
*       -9.050000191E+00               0
GRID*               7816               0-1.294274816E+011.3401094991E+02+
*       -9.050000191E+00               0
GRID*               7817               0-1.354935989E+011.3012433287E+02+
*       -9.050000191E+00               0
GRID*               7818               0-1.301412578E+011.2622723432E+02+
*       -9.050000191E+00               0
GRID*               7819               0-1.231040461E+011.2451651879E+02+
*       -9.050000191E+00               0
GRID*               7820               0-1.342397081E+011.2815625135E+02+
*       -9.050000191E+00               0
GRID*               7821               0-1.338783012E+011.3208976386E+02+
*       -9.050000191E+00               0
GRID*               7822               0-1.002886175E+011.3911177365E+02+
*       -9.050000191E+00               0
GRID*               7823               0-1.222340562E+011.3584714044E+02+
*       -9.050000191E+00               0
GRID*               7824               0-6.988986224E+001.4160839980E+02+
*       -9.050000191E+00               0
GRID*               7825               0-8.599984106E+001.4047096223E+02+
*       9.0500001907E+00               0
GRID*               7826               0-1.124522006E+011.3755949759E+02+
*       9.0500001907E+00               0
GRID*               7827               0-1.294274816E+011.3401094991E+02+
*       9.0500001907E+00               0
GRID*               7828               0-1.354935989E+011.3012433287E+02+
*       9.0500001907E+00               0
GRID*               7829               0-1.301412578E+011.2622723432E+02+
*       9.0500001907E+00               0
GRID*               7830               0-1.342397081E+011.2815625135E+02+
*       9.0500001907E+00               0
GRID*               7831               0-1.222340562E+011.3584714044E+02+
*       9.0500001907E+00               0
GRID*               7832               0-1.338783012E+011.3208976386E+02+
*       9.0500001907E+00               0
GRID*               7833               0-1.231040461E+011.2451651879E+02+
*       9.0500001907E+00               0
GRID*               7834               0-1.002886175E+011.3911177365E+02+
*       9.0500001907E+00               0
GRID*               7835               0-6.988986224E+001.4160839980E+02+
*       9.0500001907E+00               0
GRID*               7836               0-1.150794125E+011.2284669495E+02+
*       -5.430000114E+00               0
GRID*               7837               0-1.150794125E+011.2284669495E+02+
*       -1.810000038E+00               0
GRID*               7838               0-1.150794125E+011.2284669495E+02+
*       1.8100000381E+00               0
GRID*               7839               0-1.150794125E+011.2284669495E+02+
*       5.4300001144E+00               0
GRID*               7840               0-1.150794125E+011.2284669495E+02+
*       -7.240000153E+00               0
GRID*               7841               0-1.150794125E+011.2284669495E+02+
*       -3.620000076E+00               0
GRID*               7842               0-1.150794125E+011.2284669495E+02+
*       0.0000000000E+00               0
GRID*               7843               0-1.150794125E+011.2284669495E+02+
*       3.6200000763E+00               0
GRID*               7844               0-1.150794125E+011.2284669495E+02+
*       7.2400001526E+00               0
GRID*               7845               0-1.018407440E+013.4254379272E+01+
*       -6.634325743E+00               0
GRID*               7846               0-1.018407440E+013.4254379272E+01+
*       6.6343257427E+00               0
GRID*               9023               0-1.055663877E+013.1309541893E+01+
*       -7.500000000E+00               0
GRID*               9024               0-8.797315180E+002.8918798780E+01+
*       -7.500000000E+00               0
GRID*               9025               0-7.386152362E+002.8377628258E+01+
*       -7.500000000E+00               0
GRID*               9026               0-1.065362929E+013.2817798750E+01+
*       -7.500000000E+00               0
GRID*               9027               0-9.906949365E+002.9944935894E+01+
*       -7.500000000E+00               0
GRID*               7847               0-8.796914645E+002.8918549780E+01+
*       -5.768651485E+00               0
GRID*               7848               0-1.055619613E+013.1307840414E+01+
*       -5.768651485E+00               0
GRID*               7849               0-7.386824080E+002.8377747872E+01+
*       -5.768651485E+00               0
GRID*               7850               0-1.065373959E+013.2816926086E+01+
*       -5.768651485E+00               0
GRID*               7851               0-9.906057960E+002.9943725045E+01+
*       -5.768651485E+00               0
GRID*               7852               0-8.796914645E+002.8918549780E+01+
*       5.7686514854E+00               0
GRID*               7853               0-1.055619613E+013.1307840414E+01+
*       5.7686514854E+00               0
GRID*               7854               0-7.386824080E+002.8377747872E+01+
*       5.7686514854E+00               0
GRID*               7855               0-1.065373959E+013.2816926086E+01+
*       5.7686514854E+00               0
GRID*               7856               0-9.906057960E+002.9943725045E+01+
*       5.7686514854E+00               0
GRID*               9028               0-1.055663877E+013.1309541893E+01+
*       7.5000000000E+00               0
GRID*               9029               0-8.797315180E+002.8918798780E+01+
*       7.5000000000E+00               0
GRID*               9030               0-7.386152362E+002.8377628258E+01+
*       7.5000000000E+00               0
GRID*               9031               0-1.065362929E+013.2817798750E+01+
*       7.5000000000E+00               0
GRID*               9032               0-9.906949365E+002.9944935894E+01+
*       7.5000000000E+00               0
GRID*               7857               0-9.752829552E+004.5863357544E+01+
*       -3.750000000E+00               0
GRID*               7858               0-9.752829552E+004.5863357544E+01+
*       0.0000000000E+00               0
GRID*               7859               0-9.752829552E+004.5863357544E+01+
*       3.7500000000E+00               0
GRID*               7860               0-9.752829552E+004.5863357544E+01+
*       -1.875000000E+00               0
GRID*               7861               0-9.752829552E+004.5863357544E+01+
*       -5.625000000E+00               0
GRID*               7862               0-9.752829552E+004.5863357544E+01+
*       5.6250000000E+00               0
GRID*               7863               0-9.752829552E+004.5863357544E+01+
*       1.8750000000E+00               0
GRID*               8453               0-8.927746111E+001.1797660803E+02+
*       -7.896614613E+00               0
GRID*               8454               0-8.378164676E+001.1660588824E+02+
*       -7.698307307E+00               0
GRID*               8455               0-9.538485026E+001.1928492396E+02+
*       -8.275744713E+00               0
GRID*               8461               0-8.927746111E+001.1797660803E+02+
*       7.8966146131E+00               0
GRID*               8462               0-8.357177101E+001.1662680840E+02+
*       7.6124170780E+00               0
GRID*               8463               0-9.538485026E+001.1928492396E+02+
*       8.2757447128E+00               0
GRID*               7864               0-9.107830592E+003.3899598167E+01+
*       -3.007752048E+00               0
GRID*               7865               0-9.876334167E+003.4214032753E+01+
*       -4.280850205E+00               0
GRID*               7866               0-7.989487132E+003.3356445790E+01+
*       -2.133280625E+00               0
GRID*               7867               0-9.107830614E+003.3899598176E+01+
*       3.0077520726E+00               0
GRID*               7868               0-9.876334173E+003.4214032755E+01+
*       4.2808502204E+00               0
GRID*               7869               0-7.989487174E+003.3356445811E+01+
*       2.1332806464E+00               0
GRID*               7870               0-8.875625689E+003.6945817929E+01+
*       6.0386573949E+00               0
GRID*               7871               0-7.862390854E+003.9759902705E+01+
*       6.3204709014E+00               0
GRID*               7872               0-7.155294101E+004.2664907993E+01+
*       6.6102463022E+00               0
GRID*               7873               0-9.493872853E+003.5582787197E+01+
*       5.9019129122E+00               0
GRID*               7874               0-6.918894814E+004.4141202956E+01+
*       6.7574102212E+00               0
GRID*               7875               0-8.331400674E+003.8339353892E+01+
*       6.1783679159E+00               0
GRID*               7876               0-7.470044857E+004.1202968659E+01+
*       6.4645143407E+00               0
GRID*               7877               0-8.876610089E+003.6946258985E+01+
*       -6.037799291E+00               0
GRID*               7878               0-7.864199019E+003.9760569322E+01+
*       -6.319193597E+00               0
GRID*               7879               0-7.156348818E+004.2665221097E+01+
*       -6.609621197E+00               0
GRID*               7880               0-9.494300137E+003.5582990842E+01+
*       -5.901491903E+00               0
GRID*               7881               0-6.919471799E+004.4141339118E+01+
*       -6.757214063E+00               0
GRID*               7882               0-8.332957703E+003.8339991716E+01+
*       -6.177154163E+00               0
GRID*               7883               0-7.471657992E+004.1203502321E+01+
*       -6.463468230E+00               0
GRID*               7884               0-8.566587387E+003.7709945789E+01+
*       -7.500000000E+00               0
GRID*               7885               0-7.327998901E+004.1816522736E+01+
*       -7.500000000E+00               0
GRID*               7886               0-9.316337022E+003.5954732657E+01+
*       -7.500000000E+00               0
GRID*               7887               0-6.979425181E+004.3712508931E+01+
*       -7.500000000E+00               0
GRID*               7888               0-7.868556770E+003.9739431549E+01+
*       -7.500000000E+00               0
GRID*               7889               0-8.563586662E+003.7717696702E+01+
*       7.5000000000E+00               0
GRID*               7890               0-7.325480625E+004.1827996958E+01+
*       7.5000000000E+00               0
GRID*               7891               0-9.314669408E+003.5958356363E+01+
*       7.5000000000E+00               0
GRID*               7892               0-6.978563120E+004.3718318986E+01+
*       7.5000000000E+00               0
GRID*               7893               0-7.865645537E+003.9749090045E+01+
*       7.5000000000E+00               0
GRID*               7894               0-6.020826124E+009.3282954169E+01+
*       -7.500000000E+00               0
GRID*               7895               0-6.432215905E+008.8055751699E+01+
*       -7.500000000E+00               0
GRID*               7896               0-6.831752101E+008.2979163323E+01+
*       -7.500000000E+00               0
GRID*               7897               0-7.215612191E+007.8101758752E+01+
*       -7.500000000E+00               0
GRID*               7898               0-7.581829611E+007.3448525524E+01+
*       -7.500000000E+00               0
GRID*               7899               0-7.930145929E+006.9022747355E+01+
*       -7.500000000E+00               0
GRID*               7900               0-8.261647561E+006.4810620012E+01+
*       -7.500000000E+00               0
GRID*               7901               0-8.578352355E+006.0786504301E+01+
*       -7.500000000E+00               0
GRID*               7902               0-8.882852045E+005.6917469159E+01+
*       -7.500000000E+00               0
GRID*               7903               0-9.178051967E+005.3166598754E+01+
*       -7.500000000E+00               0
GRID*               7904               0-9.467006568E+004.9495082656E+01+
*       -7.500000000E+00               0
GRID*               7905               0-8.730602200E+005.8851986730E+01+
*       -7.500000000E+00               0
GRID*               7906               0-9.030452006E+005.5042033957E+01+
*       -7.500000000E+00               0
GRID*               7907               0-9.322529268E+005.1330840705E+01+
*       -7.500000000E+00               0
GRID*               7908               0-9.609918060E+004.7679220100E+01+
*       -7.500000000E+00               0
GRID*               7909               0-8.419999958E+006.2798562156E+01+
*       -7.500000000E+00               0
GRID*               7910               0-8.095896744E+006.6916683683E+01+
*       -7.500000000E+00               0
GRID*               7911               0-7.755987770E+007.1235636440E+01+
*       -7.500000000E+00               0
GRID*               7912               0-7.398720900E+007.5775142138E+01+
*       -7.500000000E+00               0
GRID*               7913               0-7.023682145E+008.0540461037E+01+
*       -7.500000000E+00               0
GRID*               7914               0-6.226521014E+009.0669352934E+01+
*       -7.500000000E+00               0
GRID*               7915               0-6.631984003E+008.5517457511E+01+
*       -7.500000000E+00               0
GRID*               7916               0-5.811927926E+009.5937257266E+01+
*       -7.500000000E+00               0
GRID*               7917               0-6.020826124E+009.3282954169E+01+
*       7.5000000000E+00               0
GRID*               7918               0-6.432215905E+008.8055751699E+01+
*       7.5000000000E+00               0
GRID*               7919               0-6.831752101E+008.2979163323E+01+
*       7.5000000000E+00               0
GRID*               7920               0-7.215612191E+007.8101758752E+01+
*       7.5000000000E+00               0
GRID*               7921               0-7.581829611E+007.3448525524E+01+
*       7.5000000000E+00               0
GRID*               7922               0-7.930145929E+006.9022747355E+01+
*       7.5000000000E+00               0
GRID*               7923               0-8.261647561E+006.4810620012E+01+
*       7.5000000000E+00               0
GRID*               7924               0-8.578352355E+006.0786504301E+01+
*       7.5000000000E+00               0
GRID*               7925               0-8.882852045E+005.6917469159E+01+
*       7.5000000000E+00               0
GRID*               7926               0-9.178051967E+005.3166598754E+01+
*       7.5000000000E+00               0
GRID*               7927               0-9.467006568E+004.9495082656E+01+
*       7.5000000000E+00               0
GRID*               7928               0-8.095896744E+006.6916683683E+01+
*       7.5000000000E+00               0
GRID*               7929               0-8.419999958E+006.2798562156E+01+
*       7.5000000000E+00               0
GRID*               7930               0-8.730602200E+005.8851986730E+01+
*       7.5000000000E+00               0
GRID*               7931               0-9.030452006E+005.5042033957E+01+
*       7.5000000000E+00               0
GRID*               7932               0-9.322529268E+005.1330840705E+01+
*       7.5000000000E+00               0
GRID*               7933               0-9.609918060E+004.7679220100E+01+
*       7.5000000000E+00               0
GRID*               7934               0-7.755987770E+007.1235636440E+01+
*       7.5000000000E+00               0
GRID*               7935               0-7.398720900E+007.5775142138E+01+
*       7.5000000000E+00               0
GRID*               7936               0-7.023682145E+008.0540461037E+01+
*       7.5000000000E+00               0
GRID*               7937               0-6.631984003E+008.5517457511E+01+
*       7.5000000000E+00               0
GRID*               7938               0-6.226521014E+009.0669352934E+01+
*       7.5000000000E+00               0
GRID*               7939               0-5.811927926E+009.5937257266E+01+
*       7.5000000000E+00               0
GRID*               7940               0-6.762077332E+004.5627979279E+01+
*       -7.202931881E+00               0
GRID*               7941               0-6.762077332E+004.5627979279E+01+
*       7.2029318810E+00               0
GRID*               8986               0-6.583997596E+004.7890697770E+01+
*       -7.500000000E+00               0
GRID*               8987               0-6.381595197E+005.0462465124E+01+
*       -7.500000000E+00               0
GRID*               8988               0-6.152800257E+005.3320575964E+01+
*       -7.500000000E+00               0
GRID*               8989               0-5.909631219E+005.6251048260E+01+
*       -7.500000000E+00               0
GRID*               8990               0-5.651667134E+005.9180250086E+01+
*       -7.500000000E+00               0
GRID*               8991               0-5.374530707E+006.2107710633E+01+
*       -7.500000000E+00               0
GRID*               8992               0-5.079987717E+006.5033471282E+01+
*       -7.500000000E+00               0
GRID*               8993               0-4.767170230E+006.7957335235E+01+
*       -7.500000000E+00               0
GRID*               8994               0-4.434858484E+007.0879047599E+01+
*       -7.500000000E+00               0
GRID*               8995               0-4.081401777E+007.3798277273E+01+
*       -7.500000000E+00               0
GRID*               8996               0-3.704549160E+007.6714580767E+01+
*       -7.500000000E+00               0
GRID*               8997               0-3.301153227E+007.9627331853E+01+
*       -7.500000000E+00               0
GRID*               8998               0-2.866720492E+008.2535615525E+01+
*       -7.500000000E+00               0
GRID*               8999               0-2.399888484E+008.5406591495E+01+
*       -7.500000000E+00               0
GRID*               9000               0-1.930205462E+008.8034201003E+01+
*       -7.500000000E+00               0
GRID*               9001               0-1.511684639E+009.0154468292E+01+
*       -7.500000000E+00               0
GRID*               9002               0-1.152391435E+009.1805146922E+01+
*       -7.500000000E+00               0
GRID*               9003               0-8.203904132E-019.3181276957E+01+
*       -7.500000000E+00               0
GRID*               9004               0-4.925929502E+006.6495654566E+01+
*       -7.500000000E+00               0
GRID*               9005               0-5.229485208E+006.3570815209E+01+
*       -7.500000000E+00               0
GRID*               9006               0-5.515230476E+006.0644181998E+01+
*       -7.500000000E+00               0
GRID*               9007               0-5.783900250E+005.7715932327E+01+
*       -7.500000000E+00               0
GRID*               9008               0-6.031215738E+005.4785812112E+01+
*       -7.500000000E+00               0
GRID*               9009               0-6.269113949E+005.1891675452E+01+
*       -7.500000000E+00               0
GRID*               9010               0-6.482796396E+004.9176581447E+01+
*       -7.500000000E+00               0
GRID*               9011               0-6.673037464E+004.6759338525E+01+
*       -7.500000000E+00               0
GRID*               9012               0-6.674257034E-019.3760838231E+01+
*       -7.500000000E+00               0
GRID*               9013               0-9.908554853E-019.2494283947E+01+
*       -7.500000000E+00               0
GRID*               9014               0-1.725968386E+008.9095330719E+01+
*       -7.500000000E+00               0
GRID*               9015               0-1.336191374E+009.0980712463E+01+
*       -7.500000000E+00               0
GRID*               9016               0-4.603538609E+006.9418477980E+01+
*       -7.500000000E+00               0
GRID*               9017               0-4.260901753E+007.2338998362E+01+
*       -7.500000000E+00               0
GRID*               9018               0-2.638442226E+008.3971936853E+01+
*       -7.500000000E+00               0
GRID*               9019               0-2.170704826E+008.6721407277E+01+
*       -7.500000000E+00               0
GRID*               9020               0-3.896076684E+007.5256830118E+01+
*       -7.500000000E+00               0
GRID*               9021               0-3.088156080E+008.1082101417E+01+
*       -7.500000000E+00               0
GRID*               9022               0-3.506403429E+007.8171446946E+01+
*       -7.500000000E+00               0
GRID*               8910               0-6.574941949E+004.8005760718E+01+
*       7.5000000000E+00               0
GRID*               8911               0-6.360640371E+005.0728721538E+01+
*       7.5000000000E+00               0
GRID*               8912               0-6.117604367E+005.3744727753E+01+
*       7.5000000000E+00               0
GRID*               8913               0-5.862521301E+005.6818778059E+01+
*       7.5000000000E+00               0
GRID*               8914               0-5.585961750E+005.9890974021E+01+
*       7.5000000000E+00               0
GRID*               8915               0-5.290439365E+006.2961405897E+01+
*       7.5000000000E+00               0
GRID*               8916               0-4.975509282E+006.6029907648E+01+
*       7.5000000000E+00               0
GRID*               8917               0-4.640059266E+006.9096234616E+01+
*       7.5000000000E+00               0
GRID*               8918               0-4.282519004E+007.2160065047E+01+
*       7.5000000000E+00               0
GRID*               8919               0-3.900707554E+007.5220965497E+01+
*       7.5000000000E+00               0
GRID*               8920               0-3.491588216E+007.8278335284E+01+
*       7.5000000000E+00               0
GRID*               8921               0-3.050826025E+008.1331303448E+01+
*       7.5000000000E+00               0
GRID*               8922               0-2.571955960E+008.4378526653E+01+
*       7.5000000000E+00               0
GRID*               8923               0-2.081448616E+008.7216564242E+01+
*       7.5000000000E+00               0
GRID*               8924               0-1.632283123E+008.9565224409E+01+
*       7.5000000000E+00               0
GRID*               8925               0-1.233335916E+009.1447339221E+01+
*       7.5000000000E+00               0
GRID*               8926               0-8.669831772E-019.2997317016E+01+
*       7.5000000000E+00               0
GRID*               8927               0-4.810439421E+006.7563361865E+01+
*       7.5000000000E+00               0
GRID*               8928               0-5.135461167E+006.4495911968E+01+
*       7.5000000000E+00               0
GRID*               8929               0-6.668509640E+004.6816869998E+01+
*       7.5000000000E+00               0
GRID*               8930               0-5.440567834E+006.1426417503E+01+
*       7.5000000000E+00               0
GRID*               8931               0-6.467791160E+004.9367241128E+01+
*       7.5000000000E+00               0
GRID*               8932               0-6.241940073E+005.2236952429E+01+
*       7.5000000000E+00               0
GRID*               8933               0-5.726698819E+005.8355096620E+01+
*       7.5000000000E+00               0
GRID*               8934               0-5.990062834E+005.5281752906E+01+
*       7.5000000000E+00               0
GRID*               8935               0-2.816695487E+008.2855750507E+01+
*       7.5000000000E+00               0
GRID*               8936               0-4.464168301E+007.0628485485E+01+
*       7.5000000000E+00               0
GRID*               8937               0-3.275514098E+007.9805442244E+01+
*       7.5000000000E+00               0
GRID*               8938               0-4.094806059E+007.3690912439E+01+
*       7.5000000000E+00               0
GRID*               8939               0-3.699795006E+007.6750138125E+01+
*       7.5000000000E+00               0
GRID*               8940               0-2.332690920E+008.5798582343E+01+
*       7.5000000000E+00               0
GRID*               8941               0-1.862415607E+008.8391955391E+01+
*       7.5000000000E+00               0
GRID*               8942               0-7.011931476E-019.3631272129E+01+
*       7.5000000000E+00               0
GRID*               8943               0-1.437702146E+009.0507307434E+01+
*       7.5000000000E+00               0
GRID*               8944               0-1.055251148E+009.2223532914E+01+
*       7.5000000000E+00               0
GRID*               7942               0-6.086385922E+002.9678719212E+01+
*       -2.821203524E+00               0
GRID*               7943               0-5.915621151E+002.8736339278E+01+
*       -4.157632923E+00               0
GRID*               7944               0-6.358232878E+003.1066131774E+01+
*       -1.982952217E+00               0
GRID*               7945               0-6.086385922E+002.9678719212E+01+
*       2.8212035243E+00               0
GRID*               7946               0-5.915621151E+002.8736339278E+01+
*       4.1576329231E+00               0
GRID*               7947               0-6.358232878E+003.1066131774E+01+
*       1.9829522172E+00               0
GRID*               7948               0-5.874927044E+002.8398683548E+01+
*       -6.634325743E+00               0
GRID*               7949               0-5.874927044E+002.8398683548E+01+
*       6.6343257427E+00               0
GRID*               7950               0-6.846008128E+001.1209505426E+02+
*       -7.500000000E+00               0
GRID*               7951               0-5.999818375E+001.0815931586E+02+
*       -7.500000000E+00               0
GRID*               7952               0-5.519436782E+001.0351191902E+02+
*       -7.500000000E+00               0
GRID*               7953               0-5.485504238E+001.0105060860E+02+
*       -7.500000000E+00               0
GRID*               7954               0-6.373364484E+001.1013781122E+02+
*       -7.500000000E+00               0
GRID*               7955               0-5.691730628E+001.0584274192E+02+
*       -7.500000000E+00               0
GRID*               7956               0-7.305017310E+001.1367529124E+02+
*       -7.500000000E+00               0
GRID*               7957               0-6.846008128E+001.1209505426E+02+
*       7.5000000000E+00               0
GRID*               7958               0-5.999818375E+001.0815931586E+02+
*       7.5000000000E+00               0
GRID*               7959               0-5.519436782E+001.0351191902E+02+
*       7.5000000000E+00               0
GRID*               7960               0-5.485504238E+001.0105060860E+02+
*       7.5000000000E+00               0
GRID*               7961               0-5.691730628E+001.0584274192E+02+
*       7.5000000000E+00               0
GRID*               7962               0-7.305017310E+001.1367529124E+02+
*       7.5000000000E+00               0
GRID*               7963               0-6.373364484E+001.1013781122E+02+
*       7.5000000000E+00               0
GRID*               7964               0-5.603029728E+009.8591560364E+01+
*       2.5000000000E+00               0
GRID*               7965               0-5.603029728E+009.8591560364E+01+
*       -2.500000000E+00               0
GRID*               7966               0-5.603029728E+009.8591560364E+01+
*       0.0000000000E+00               0
GRID*               7967               0-5.603029728E+009.8591560364E+01+
*       -5.000000000E+00               0
GRID*               7968               0-5.603029728E+009.8591560364E+01+
*       5.0000000000E+00               0
GRID*               7969               0-5.585156864E+004.5780973629E+01+
*       -4.098416435E+00               0
GRID*               7970               0-6.451292657E+004.5736268450E+01+
*       -5.388520873E+00               0
GRID*               7971               0-4.294495362E+004.5755167823E+01+
*       -3.232332893E+00               0
GRID*               7972               0-5.584502682E+004.5780979348E+01+
*       4.0977625860E+00               0
GRID*               7973               0-6.450758745E+004.5736337859E+01+
*       5.3872470029E+00               0
GRID*               7974               0-4.294069601E+004.5755149916E+01+
*       3.2321545944E+00               0
GRID*               7975               0-5.229961395E+001.4250000000E+02+
*       5.4300001144E+00               0
GRID*               7976               0-5.229961395E+001.4250000000E+02+
*       1.8100000381E+00               0
GRID*               7977               0-5.229961395E+001.4250000000E+02+
*       -1.810000038E+00               0
GRID*               7978               0-5.229961395E+001.4250000000E+02+
*       -5.430000114E+00               0
GRID*               7979               0-5.229961395E+001.4250000000E+02+
*       -7.240000153E+00               0
GRID*               7980               0-5.229961395E+001.4250000000E+02+
*       -3.620000076E+00               0
GRID*               7981               0-5.229961395E+001.4250000000E+02+
*       0.0000000000E+00               0
GRID*               7982               0-5.229961395E+001.4250000000E+02+
*       3.6200000763E+00               0
GRID*               7983               0-5.229961395E+001.4250000000E+02+
*       7.2400001526E+00               0
GRID*               7984               0-3.223986655E+004.2275535281E+01+
*       -2.624741054E+00               0
GRID*               7985               0-4.032256207E+003.8955240079E+01+
*       -2.334252779E+00               0
GRID*               7986               0-5.190278721E+003.5739390222E+01+
*       -2.052902471E+00               0
GRID*               7987               0-4.568233171E+003.7332022985E+01+
*       -2.192239838E+00               0
GRID*               7988               0-3.583769368E+004.0604576235E+01+
*       -2.478551189E+00               0
GRID*               7989               0-2.953921994E+004.3963370310E+01+
*       -2.772407478E+00               0
GRID*               7990               0-5.896684371E+003.4181863231E+01+
*       -1.916636516E+00               0
GRID*               7991               0-3.223986655E+004.2275535281E+01+
*       2.6247410536E+00               0
GRID*               7992               0-4.032256207E+003.8955240079E+01+
*       2.3342527794E+00               0
GRID*               7993               0-5.190278721E+003.5739390222E+01+
*       2.0529024705E+00               0
GRID*               7994               0-4.568233171E+003.7332022985E+01+
*       2.1922398376E+00               0
GRID*               7995               0-3.583769368E+004.0604576235E+01+
*       2.4785511887E+00               0
GRID*               7996               0-2.953921994E+004.3963370310E+01+
*       2.7724074778E+00               0
GRID*               7997               0-5.896684371E+003.4181863231E+01+
*       1.9166365159E+00               0
GRID*               7998               0-2.233161913E+015.5042495707E+00+
*       -1.094499969E+01               0
GRID*               7999               0-2.036548474E+011.0688631244E+01+
*       -1.094499969E+01               0
GRID*               8000               0-1.721571815E+011.5251794466E+01+
*       -1.094499969E+01               0
GRID*               8001               0-1.306548220E+011.8928619791E+01+
*       -1.094499969E+01               0
GRID*               8002               0-8.155901622E+002.1505342392E+01+
*       -1.094499969E+01               0
GRID*               8003               0-2.772340023E+002.2832282246E+01+
*       -1.094499969E+01               0
GRID*               8004               02.7723400225E+002.2832282246E+01+
*       -1.094499969E+01               0
GRID*               8005               08.1559016220E+002.1505342392E+01+
*       -1.094499969E+01               0
GRID*               8006               01.3065482200E+011.8928619791E+01+
*       -1.094499969E+01               0
GRID*               8007               01.7215718151E+011.5251794466E+01+
*       -1.094499969E+01               0
GRID*               8008               02.0365484741E+011.0688631244E+01+
*       -1.094499969E+01               0
GRID*               8009               02.2331619125E+015.5042495707E+00+
*       -1.094499969E+01               0
GRID*               8010               0-1.068861282E+012.0365450929E+01+
*       -1.094499969E+01               0
GRID*               8011               0-1.525181674E+011.7215741473E+01+
*       -1.094499969E+01               0
GRID*               8012               0-1.892859859E+011.3065469320E+01+
*       -1.094499969E+01               0
GRID*               8013               0-2.150535827E+018.1559057225E+00+
*       -1.094499969E+01               0
GRID*               8014               0-2.283227634E+012.7723412376E+00+
*       -1.094499969E+01               0
GRID*               8015               0-5.504259960E+002.2331660193E+01+
*       -1.094499969E+01               0
GRID*               8016               0-6.883382753E-152.2999955829E+01+
*       -1.094499969E+01               0
GRID*               8017               05.5042599601E+002.2331660193E+01+
*       -1.094499969E+01               0
GRID*               8018               01.0688612822E+012.0365450929E+01+
*       -1.094499969E+01               0
GRID*               8019               01.5251816737E+011.7215741473E+01+
*       -1.094499969E+01               0
GRID*               8020               01.8928598586E+011.3065469320E+01+
*       -1.094499969E+01               0
GRID*               8021               02.1505358267E+018.1559057225E+00+
*       -1.094499969E+01               0
GRID*               8022               02.2832276337E+012.7723412376E+00+
*       -1.094499969E+01               0
GRID*               8023               0-2.233161913E+015.5042495707E+00+
*       1.0944999695E+01               0
GRID*               8024               0-2.036548474E+011.0688631244E+01+
*       1.0944999695E+01               0
GRID*               8025               0-1.721571815E+011.5251794466E+01+
*       1.0944999695E+01               0
GRID*               8026               0-1.306548220E+011.8928619791E+01+
*       1.0944999695E+01               0
GRID*               8027               0-8.155901622E+002.1505342392E+01+
*       1.0944999695E+01               0
GRID*               8028               0-2.772340023E+002.2832282246E+01+
*       1.0944999695E+01               0
GRID*               8029               02.7723400225E+002.2832282246E+01+
*       1.0944999695E+01               0
GRID*               8030               08.1559016220E+002.1505342392E+01+
*       1.0944999695E+01               0
GRID*               8031               01.3065482200E+011.8928619791E+01+
*       1.0944999695E+01               0
GRID*               8032               01.7215718151E+011.5251794466E+01+
*       1.0944999695E+01               0
GRID*               8033               02.0365484741E+011.0688631244E+01+
*       1.0944999695E+01               0
GRID*               8034               02.2331619125E+015.5042495707E+00+
*       1.0944999695E+01               0
GRID*               8035               0-1.892859859E+011.3065469320E+01+
*       1.0944999695E+01               0
GRID*               8036               0-2.150535827E+018.1559057225E+00+
*       1.0944999695E+01               0
GRID*               8037               0-2.283227634E+012.7723412376E+00+
*       1.0944999695E+01               0
GRID*               8038               0-1.525181674E+011.7215741473E+01+
*       1.0944999695E+01               0
GRID*               8039               0-1.068861282E+012.0365450929E+01+
*       1.0944999695E+01               0
GRID*               8040               0-5.504259960E+002.2331660193E+01+
*       1.0944999695E+01               0
GRID*               8041               0-6.883382753E-152.2999955829E+01+
*       1.0944999695E+01               0
GRID*               8042               05.5042599601E+002.2331660193E+01+
*       1.0944999695E+01               0
GRID*               8043               01.0688612822E+012.0365450929E+01+
*       1.0944999695E+01               0
GRID*               8044               01.5251816737E+011.7215741473E+01+
*       1.0944999695E+01               0
GRID*               8045               01.8928598586E+011.3065469320E+01+
*       1.0944999695E+01               0
GRID*               8046               02.1505358267E+018.1559057225E+00+
*       1.0944999695E+01               0
GRID*               8047               02.2832276337E+012.7723412376E+00+
*       1.0944999695E+01               0
GRID*               8718               02.4506826532E+018.6842022063E+00+
*       -1.094499969E+01               0
GRID*               8719               02.2506376622E+011.3017772943E+01+
*       -1.094499969E+01               0
GRID*               8720               01.9355916522E+011.7359335742E+01+
*       -1.094499969E+01               0
GRID*               8721               01.5313423268E+012.1011871555E+01+
*       -1.094499969E+01               0
GRID*               8722               01.0598496578E+012.3741750500E+01+
*       -1.094499969E+01               0
GRID*               8723               05.4182005697E+002.5429145202E+01+
*       -1.094499969E+01               0
GRID*               8724               01.3322676296E-152.6000000000E+01+
*       -1.094499969E+01               0
GRID*               8725               0-5.418200570E+002.5429145202E+01+
*       -1.094499969E+01               0
GRID*               8726               0-1.059849658E+012.3741750500E+01+
*       -1.094499969E+01               0
GRID*               8727               0-1.531342327E+012.1011871555E+01+
*       -1.094499969E+01               0
GRID*               8728               0-1.935591652E+011.7359335742E+01+
*       -1.094499969E+01               0
GRID*               8729               0-2.250637662E+011.3017772943E+01+
*       -1.094499969E+01               0
GRID*               8730               0-2.450682653E+018.6842022063E+00+
*       -1.094499969E+01               0
GRID*               8731               0-2.507847473E+016.8606243167E+00+
*       -1.094499969E+01               0
GRID*               8732               0-2.360622748E+011.0896977423E+01+
*       -1.094499969E+01               0
GRID*               8733               0-1.743061122E+011.9291785547E+01+
*       -1.094499969E+01               0
GRID*               8734               0-2.104342195E+011.5270028867E+01+
*       -1.094499969E+01               0
GRID*               8735               0-1.302764984E+012.2500632484E+01+
*       -1.094499969E+01               0
GRID*               8736               0-8.052676294E+002.4721535387E+01+
*       -1.094499969E+01               0
GRID*               8737               02.7240947130E+002.5856873039E+01+
*       -1.094499969E+01               0
GRID*               8738               0-2.724094713E+002.5856873039E+01+
*       -1.094499969E+01               0
GRID*               8739               02.5078474727E+016.8606243167E+00+
*       -1.094499969E+01               0
GRID*               8740               02.1043421955E+011.5270028867E+01+
*       -1.094499969E+01               0
GRID*               8741               02.3606227485E+011.0896977423E+01+
*       -1.094499969E+01               0
GRID*               8742               08.0526762943E+002.4721535387E+01+
*       -1.094499969E+01               0
GRID*               8743               01.7430611216E+011.9291785547E+01+
*       -1.094499969E+01               0
GRID*               8744               01.3027649842E+012.2500632484E+01+
*       -1.094499969E+01               0
GRID*               8799               02.4506826532E+018.6842022063E+00+
*       1.0944999695E+01               0
GRID*               8800               02.2506376622E+011.3017772943E+01+
*       1.0944999695E+01               0
GRID*               8801               01.9355916522E+011.7359335742E+01+
*       1.0944999695E+01               0
GRID*               8802               01.5313423268E+012.1011871555E+01+
*       1.0944999695E+01               0
GRID*               8803               01.0598496578E+012.3741750500E+01+
*       1.0944999695E+01               0
GRID*               8804               05.4182005697E+002.5429145202E+01+
*       1.0944999695E+01               0
GRID*               8805               01.3322676296E-152.6000000000E+01+
*       1.0944999695E+01               0
GRID*               8806               0-5.418200570E+002.5429145202E+01+
*       1.0944999695E+01               0
GRID*               8807               0-1.059849658E+012.3741750500E+01+
*       1.0944999695E+01               0
GRID*               8808               0-1.531342327E+012.1011871555E+01+
*       1.0944999695E+01               0
GRID*               8809               0-1.935591652E+011.7359335742E+01+
*       1.0944999695E+01               0
GRID*               8810               0-2.250637662E+011.3017772943E+01+
*       1.0944999695E+01               0
GRID*               8811               0-2.450682653E+018.6842022063E+00+
*       1.0944999695E+01               0
GRID*               8812               02.5078474727E+016.8606243167E+00+
*       1.0944999695E+01               0
GRID*               8813               02.3606227485E+011.0896977423E+01+
*       1.0944999695E+01               0
GRID*               8814               01.7430611216E+011.9291785547E+01+
*       1.0944999695E+01               0
GRID*               8815               02.1043421955E+011.5270028867E+01+
*       1.0944999695E+01               0
GRID*               8816               01.3027649842E+012.2500632484E+01+
*       1.0944999695E+01               0
GRID*               8817               08.0526762943E+002.4721535387E+01+
*       1.0944999695E+01               0
GRID*               8818               02.7240947130E+002.5856873039E+01+
*       1.0944999695E+01               0
GRID*               8819               0-2.724094713E+002.5856873039E+01+
*       1.0944999695E+01               0
GRID*               8820               0-2.507847473E+016.8606243167E+00+
*       1.0944999695E+01               0
GRID*               8821               0-2.104342195E+011.5270028867E+01+
*       1.0944999695E+01               0
GRID*               8822               0-2.360622748E+011.0896977423E+01+
*       1.0944999695E+01               0
GRID*               8823               0-8.052676294E+002.4721535387E+01+
*       1.0944999695E+01               0
GRID*               8824               0-1.743061122E+011.9291785547E+01+
*       1.0944999695E+01               0
GRID*               8825               0-1.302764984E+012.2500632484E+01+
*       1.0944999695E+01               0
GRID*               8048               02.9522071754E+002.8848395146E+01+
*       -5.813422953E+00               0
GRID*               8049               0-6.393052023E-042.8998321528E+01+
*       -5.828349113E+00               0
GRID*               8050               0-2.953120493E+002.8848302039E+01+
*       -5.813413684E+00               0
GRID*               8051               01.4777928550E+002.8960845334E+01+
*       -5.824617863E+00               0
GRID*               8052               04.4193539634E+002.8660799614E+01+
*       -5.794746669E+00               0
GRID*               8053               0-1.478826645E+002.8960793897E+01+
*       -5.824613050E+00               0
GRID*               8054               0-4.419898647E+002.8660890563E+01+
*       -5.794755799E+00               0
GRID*               8055               02.9522585377E+002.8849336118E+01+
*       5.8133962237E+00               0
GRID*               8056               0-6.367200344E-042.8999999993E+01+
*       5.8283033367E+00               0
GRID*               8057               0-2.953163095E+002.8849243537E+01+
*       5.8133870527E+00               0
GRID*               8058               01.4778376149E+002.8962315420E+01+
*       5.8245777495E+00               0
GRID*               8059               04.4193834713E+002.8661216428E+01+
*       5.7947346891E+00               0
GRID*               8060               0-1.478864312E+002.8962268647E+01+
*       5.8245723912E+00               0
GRID*               8061               0-4.419904355E+002.8661189626E+01+
*       5.7947448786E+00               0
GRID*               8062               0-3.360063383E+003.3177111120E+01+
*       -1.828732042E+00               0
GRID*               8063               01.9144232434E-043.3348621368E+01+
*       -1.843737483E+00               0
GRID*               8064               03.3602295055E+003.3177094993E+01+
*       -1.828730787E+00               0
GRID*               8065               05.0294405797E+003.2963108086E+01+
*       -1.810009412E+00               0
GRID*               8066               01.6823970765E+003.3305707985E+01+
*       -1.839983015E+00               0
GRID*               8067               0-1.682014724E+003.3305727666E+01+
*       -1.839984618E+00               0
GRID*               8068               0-5.029440617E+003.2963108301E+01+
*       -1.810009311E+00               0
GRID*               8069               0-3.360063383E+003.3177111120E+01+
*       1.8287320421E+00               0
GRID*               8070               01.9144232434E-043.3348621368E+01+
*       1.8437374830E+00               0
GRID*               8071               03.3602295055E+003.3177094993E+01+
*       1.8287307866E+00               0
GRID*               8072               05.0294405797E+003.2963108086E+01+
*       1.8100094116E+00               0
GRID*               8073               01.6823970765E+003.3305707985E+01+
*       1.8399830153E+00               0
GRID*               8074               0-1.682014724E+003.3305727666E+01+
*       1.8399846179E+00               0
GRID*               8075               0-5.029440617E+003.2963108301E+01+
*       1.8100093112E+00               0
GRID*               8076               04.8176310370E+001.1399758285E+02+
*       -7.500000000E+00               0
GRID*               8077               01.6276864680E+001.1336757485E+02+
*       -7.500000000E+00               0
GRID*               8078               0-1.627686468E+001.1336757485E+02+
*       -7.500000000E+00               0
GRID*               8079               0-4.817631037E+001.1399758285E+02+
*       -7.500000000E+00               0
GRID*               8080               0-6.353035607E+001.1454342248E+02+
*       -7.500000000E+00               0
GRID*               8081               06.3530356072E+001.1454342248E+02+
*       -7.500000000E+00               0
GRID*               8082               0-3.238137912E+001.1360483469E+02+
*       -7.500000000E+00               0
GRID*               8083               00.0000000000E+001.1328818372E+02+
*       -7.500000000E+00               0
GRID*               8084               03.2381379124E+001.1360483469E+02+
*       -7.500000000E+00               0
GRID*               8085               04.8176310370E+001.1399758285E+02+
*       7.5000000000E+00               0
GRID*               8086               01.6276864680E+001.1336757485E+02+
*       7.5000000000E+00               0
GRID*               8087               0-1.627686468E+001.1336757485E+02+
*       7.5000000000E+00               0
GRID*               8088               0-4.817631037E+001.1399758285E+02+
*       7.5000000000E+00               0
GRID*               8089               06.3530356072E+001.1454342248E+02+
*       7.5000000000E+00               0
GRID*               8090               0-6.353035607E+001.1454342248E+02+
*       7.5000000000E+00               0
GRID*               8091               03.2381379124E+001.1360483469E+02+
*       7.5000000000E+00               0
GRID*               8092               00.0000000000E+001.1328818372E+02+
*       7.5000000000E+00               0
GRID*               8093               0-3.238137912E+001.1360483469E+02+
*       7.5000000000E+00               0
GRID*               8094               01.7433204651E+001.4250000000E+02+
*       -9.050000191E+00               0
GRID*               8095               0-1.743320465E+001.4250000000E+02+
*       -9.050000191E+00               0
GRID*               8096               0-3.486640930E+001.4250000000E+02+
*       -9.050000191E+00               0
GRID*               8097               00.0000000000E+001.4250000000E+02+
*       -9.050000191E+00               0
GRID*               8098               03.4866409302E+001.4250000000E+02+
*       -9.050000191E+00               0
GRID*               8099               01.7433204651E+001.4250000000E+02+
*       9.0500001907E+00               0
GRID*               8100               0-1.743320465E+001.4250000000E+02+
*       9.0500001907E+00               0
GRID*               8101               03.4866409302E+001.4250000000E+02+
*       9.0500001907E+00               0
GRID*               8102               00.0000000000E+001.4250000000E+02+
*       9.0500001907E+00               0
GRID*               8103               0-3.486640930E+001.4250000000E+02+
*       9.0500001907E+00               0
GRID*               8488               04.7944919462E-028.0305764783E+01+
*       -5.951954889E+00               0
GRID*               8489               00.0000000000E+008.3094005844E+01+
*       -6.202186433E+00               0
GRID*               8490               00.0000000000E+008.5576901530E+01+
*       -6.429952238E+00               0
GRID*               8491               00.0000000000E+008.7610960757E+01+
*       -6.625887530E+00               0
GRID*               8492               00.0000000000E+008.9101909815E+01+
*       -6.773686075E+00               0
GRID*               8493               00.0000000000E+009.0281630334E+01+
*       -6.893170208E+00               0
GRID*               8494               00.0000000000E+009.1342742391E+01+
*       -7.003443242E+00               0
GRID*               8495               00.0000000000E+009.2266889906E+01+
*       -7.102047648E+00               0
GRID*               8496               00.0000000000E+009.3016731266E+01+
*       -7.183214136E+00               0
GRID*               8497               00.0000000000E+009.3640804128E+01+
*       -7.251214927E+00               0
GRID*               8498               00.0000000000E+009.2641820888E+01+
*       -7.142533992E+00               0
GRID*               8499               00.0000000000E+009.3328771232E+01+
*       -7.217182114E+00               0
GRID*               8500               00.0000000000E+009.3922704959E+01+
*       -7.281991163E+00               0
GRID*               8501               00.0000000000E+009.0812234338E+01+
*       -6.947849438E+00               0
GRID*               8502               00.0000000000E+009.1804841408E+01+
*       -7.052505613E+00               0
GRID*               8503               01.6364979058E-017.8835594946E+01+
*       -5.823331618E+00               0
GRID*               8504               00.0000000000E+008.1699028409E+01+
*       -6.076113698E+00               0
GRID*               8505               00.0000000000E+008.4335606233E+01+
*       -6.314397537E+00               0
GRID*               8506               00.0000000000E+008.8356479015E+01+
*       -6.699345830E+00               0
GRID*               8507               00.0000000000E+008.9691798319E+01+
*       -6.833149161E+00               0
GRID*               8508               00.0000000000E+008.6594009140E+01+
*       -6.527110458E+00               0
GRID*               8509               04.7944919462E-028.0305764783E+01+
*       5.9519548888E+00               0
GRID*               8510               00.0000000000E+008.3094005844E+01+
*       6.2021864331E+00               0
GRID*               8511               00.0000000000E+008.5576901530E+01+
*       6.4299522385E+00               0
GRID*               8512               00.0000000000E+008.7610960757E+01+
*       6.6258875304E+00               0
GRID*               8513               00.0000000000E+008.9101909815E+01+
*       6.7736860748E+00               0
GRID*               8514               00.0000000000E+009.0281630334E+01+
*       6.8931702081E+00               0
GRID*               8515               0-2.030047110E-099.1342742391E+01+
*       7.0034432413E+00               0
GRID*               8516               0-5.189860378E-099.2266889907E+01+
*       7.1020476467E+00               0
GRID*               8517               0-6.181533302E-099.3016731266E+01+
*       7.1832141345E+00               0
GRID*               8518               0-4.476404729E-099.3640804128E+01+
*       7.2512149255E+00               0
GRID*               8519               0-5.063618074E-109.0812234338E+01+
*       6.9478494380E+00               0
GRID*               8520               00.0000000000E+008.9691798319E+01+
*       6.8331491610E+00               0
GRID*               8521               0-3.686248610E-099.1804841408E+01+
*       7.0525056117E+00               0
GRID*               8522               0-2.639791784E-099.3922704959E+01+
*       7.2819911620E+00               0
GRID*               8523               0-5.996735029E-099.2641820888E+01+
*       7.1425339902E+00               0
GRID*               8524               0-5.692756082E-099.3328771232E+01+
*       7.2171821127E+00               0
GRID*               8525               01.6364979058E-017.8835594946E+01+
*       5.8233316181E+00               0
GRID*               8526               00.0000000000E+008.1699028409E+01+
*       6.0761136977E+00               0
GRID*               8527               00.0000000000E+008.8356479015E+01+
*       6.6993458303E+00               0
GRID*               8528               00.0000000000E+008.6594009140E+01+
*       6.5271104583E+00               0
GRID*               8529               00.0000000000E+008.4335606233E+01+
*       6.3143975367E+00               0
GRID*               8983               01.1923678649E-029.5916325109E+01+
*       -7.500000000E+00               0
GRID*               8984               02.7667786363E-019.5091764017E+01+
*       -7.500000000E+00               0
GRID*               8985               0-2.528305063E-019.5166035187E+01+
*       -7.500000000E+00               0
GRID*               8104               03.2239866551E+004.2275535281E+01+
*       -2.624741054E+00               0
GRID*               8105               04.0322562069E+003.8955240079E+01+
*       -2.334252779E+00               0
GRID*               8106               05.1902787209E+003.5739390222E+01+
*       -2.052902471E+00               0
GRID*               8107               04.5682331706E+003.7332022985E+01+
*       -2.192239838E+00               0
GRID*               8108               03.5837693676E+004.0604576235E+01+
*       -2.478551189E+00               0
GRID*               8109               02.9539219941E+004.3963370310E+01+
*       -2.772407478E+00               0
GRID*               8110               05.8966843711E+003.4181863231E+01+
*       -1.916636516E+00               0
GRID*               8111               03.2239866551E+004.2275535281E+01+
*       2.6247410536E+00               0
GRID*               8112               04.0322562069E+003.8955240079E+01+
*       2.3342527794E+00               0
GRID*               8113               05.1902787209E+003.5739390222E+01+
*       2.0529024705E+00               0
GRID*               8114               04.5682331706E+003.7332022985E+01+
*       2.1922398376E+00               0
GRID*               8115               03.5837693676E+004.0604576235E+01+
*       2.4785511887E+00               0
GRID*               8116               02.9539219941E+004.3963370310E+01+
*       2.7724074778E+00               0
GRID*               8117               05.8966843711E+003.4181863231E+01+
*       1.9166365159E+00               0
GRID*               8118               05.2299613953E+001.4250000000E+02+
*       5.4300001144E+00               0
GRID*               8119               05.2299613953E+001.4250000000E+02+
*       1.8100000381E+00               0
GRID*               8120               05.2299613953E+001.4250000000E+02+
*       -1.810000038E+00               0
GRID*               8121               05.2299613953E+001.4250000000E+02+
*       -5.430000114E+00               0
GRID*               8122               05.2299613953E+001.4250000000E+02+
*       -7.240000153E+00               0
GRID*               8123               05.2299613953E+001.4250000000E+02+
*       -3.620000076E+00               0
GRID*               8124               05.2299613953E+001.4250000000E+02+
*       0.0000000000E+00               0
GRID*               8125               05.2299613953E+001.4250000000E+02+
*       3.6200000763E+00               0
GRID*               8126               05.2299613953E+001.4250000000E+02+
*       7.2400001526E+00               0
GRID*               8127               05.5845244875E+004.5780979158E+01+
*       -4.097784375E+00               0
GRID*               8128               06.4507454029E+004.5736339592E+01+
*       -5.387215186E+00               0
GRID*               8129               04.2941581085E+004.5755153641E+01+
*       -3.232191654E+00               0
GRID*               8130               05.5851783006E+004.5780973441E+01+
*       4.0984378653E+00               0
GRID*               8131               06.4512796071E+004.5736270131E+01+
*       5.3884897047E+00               0
GRID*               8132               04.2945832159E+004.5755171521E+01+
*       3.2323696913E+00               0
GRID*               8133               05.6030297279E+009.8591560364E+01+
*       2.5000000000E+00               0
GRID*               8134               05.6030297279E+009.8591560364E+01+
*       -2.500000000E+00               0
GRID*               8135               05.6030297279E+009.8591560364E+01+
*       0.0000000000E+00               0
GRID*               8136               05.6030297279E+009.8591560364E+01+
*       5.0000000000E+00               0
GRID*               8137               05.6030297279E+009.8591560364E+01+
*       -5.000000000E+00               0
GRID*               8138               06.8460081280E+001.1209505426E+02+
*       -7.500000000E+00               0
GRID*               8139               05.9998183747E+001.0815931586E+02+
*       -7.500000000E+00               0
GRID*               8140               05.5194367819E+001.0351191902E+02+
*       -7.500000000E+00               0
GRID*               8141               05.4855042379E+001.0105060860E+02+
*       -7.500000000E+00               0
GRID*               8142               06.3733644842E+001.1013781122E+02+
*       -7.500000000E+00               0
GRID*               8143               05.6917306280E+001.0584274192E+02+
*       -7.500000000E+00               0
GRID*               8144               07.3050173102E+001.1367529124E+02+
*       -7.500000000E+00               0
GRID*               8145               06.8460081280E+001.1209505426E+02+
*       7.5000000000E+00               0
GRID*               8146               05.9998183747E+001.0815931586E+02+
*       7.5000000000E+00               0
GRID*               8147               05.5194367819E+001.0351191902E+02+
*       7.5000000000E+00               0
GRID*               8148               05.4855042379E+001.0105060860E+02+
*       7.5000000000E+00               0
GRID*               8149               07.3050173102E+001.1367529124E+02+
*       7.5000000000E+00               0
GRID*               8150               06.3733644842E+001.1013781122E+02+
*       7.5000000000E+00               0
GRID*               8151               05.6917306280E+001.0584274192E+02+
*       7.5000000000E+00               0
GRID*               8152               05.8749270439E+002.8398683548E+01+
*       -6.634325743E+00               0
GRID*               8153               05.8749270439E+002.8398683548E+01+
*       6.6343257427E+00               0
GRID*               8154               06.0863859217E+002.9678719212E+01+
*       -2.821203524E+00               0
GRID*               8155               06.3582328785E+003.1066131774E+01+
*       -1.982952217E+00               0
GRID*               8156               05.9156211513E+002.8736339278E+01+
*       -4.157632923E+00               0
GRID*               8157               06.0863169205E+002.9678356007E+01+
*       2.8215425426E+00               0
GRID*               8158               06.3581862038E+003.1065899082E+01+
*       1.9830330676E+00               0
GRID*               8159               05.9155716382E+002.8736039650E+01+
*       4.1583227135E+00               0
GRID*               8160               06.7620773315E+004.5627979279E+01+
*       -7.202931881E+00               0
GRID*               8161               06.7620773315E+004.5627979279E+01+
*       7.2029318810E+00               0
GRID*               8162               06.0208261240E+009.3282954169E+01+
*       -7.500000000E+00               0
GRID*               8163               06.4322159054E+008.8055751699E+01+
*       -7.500000000E+00               0
GRID*               8164               06.8317521009E+008.2979163323E+01+
*       -7.500000000E+00               0
GRID*               8165               07.2156121907E+007.8101758752E+01+
*       -7.500000000E+00               0
GRID*               8166               07.5818296107E+007.3448525524E+01+
*       -7.500000000E+00               0
GRID*               8167               07.9301459285E+006.9022747355E+01+
*       -7.500000000E+00               0
GRID*               8168               08.2616475610E+006.4810620012E+01+
*       -7.500000000E+00               0
GRID*               8169               08.5783523546E+006.0786504301E+01+
*       -7.500000000E+00               0
GRID*               8170               08.8828520448E+005.6917469159E+01+
*       -7.500000000E+00               0
GRID*               8171               09.1780519665E+005.3166598754E+01+
*       -7.500000000E+00               0
GRID*               8172               09.4670065685E+004.9495082656E+01+
*       -7.500000000E+00               0
GRID*               8173               08.0958967440E+006.6916683683E+01+
*       -7.500000000E+00               0
GRID*               8174               08.4199999585E+006.2798562156E+01+
*       -7.500000000E+00               0
GRID*               8175               08.7306022004E+005.8851986730E+01+
*       -7.500000000E+00               0
GRID*               8176               09.0304520057E+005.5042033957E+01+
*       -7.500000000E+00               0
GRID*               8177               09.3225292675E+005.1330840705E+01+
*       -7.500000000E+00               0
GRID*               8178               09.6099180601E+004.7679220100E+01+
*       -7.500000000E+00               0
GRID*               8179               07.7559877695E+007.1235636440E+01+
*       -7.500000000E+00               0
GRID*               8180               07.3987209002E+007.5775142138E+01+
*       -7.500000000E+00               0
GRID*               8181               07.0236821454E+008.0540461037E+01+
*       -7.500000000E+00               0
GRID*               8182               06.6319840031E+008.5517457511E+01+
*       -7.500000000E+00               0
GRID*               8183               06.2265210141E+009.0669352934E+01+
*       -7.500000000E+00               0
GRID*               8184               05.8119279261E+009.5937257266E+01+
*       -7.500000000E+00               0
GRID*               8185               06.0208261240E+009.3282954169E+01+
*       7.5000000000E+00               0
GRID*               8186               06.4322159054E+008.8055751699E+01+
*       7.5000000000E+00               0
GRID*               8187               06.8317521009E+008.2979163323E+01+
*       7.5000000000E+00               0
GRID*               8188               07.2156121907E+007.8101758752E+01+
*       7.5000000000E+00               0
GRID*               8189               07.5818296107E+007.3448525524E+01+
*       7.5000000000E+00               0
GRID*               8190               07.9301459285E+006.9022747355E+01+
*       7.5000000000E+00               0
GRID*               8191               08.2616475610E+006.4810620012E+01+
*       7.5000000000E+00               0
GRID*               8192               08.5783523546E+006.0786504301E+01+
*       7.5000000000E+00               0
GRID*               8193               08.8828520448E+005.6917469159E+01+
*       7.5000000000E+00               0
GRID*               8194               09.1780519665E+005.3166598754E+01+
*       7.5000000000E+00               0
GRID*               8195               09.4670065685E+004.9495082656E+01+
*       7.5000000000E+00               0
GRID*               8196               08.7306022004E+005.8851986730E+01+
*       7.5000000000E+00               0
GRID*               8197               09.0304520057E+005.5042033957E+01+
*       7.5000000000E+00               0
GRID*               8198               09.3225292675E+005.1330840705E+01+
*       7.5000000000E+00               0
GRID*               8199               09.6099180601E+004.7679220100E+01+
*       7.5000000000E+00               0
GRID*               8200               08.4199999585E+006.2798562156E+01+
*       7.5000000000E+00               0
GRID*               8201               08.0958967440E+006.6916683683E+01+
*       7.5000000000E+00               0
GRID*               8202               07.7559877695E+007.1235636440E+01+
*       7.5000000000E+00               0
GRID*               8203               07.3987209002E+007.5775142138E+01+
*       7.5000000000E+00               0
GRID*               8204               07.0236821454E+008.0540461037E+01+
*       7.5000000000E+00               0
GRID*               8205               06.2265210141E+009.0669352934E+01+
*       7.5000000000E+00               0
GRID*               8206               06.6319840031E+008.5517457511E+01+
*       7.5000000000E+00               0
GRID*               8207               05.8119279261E+009.5937257266E+01+
*       7.5000000000E+00               0
GRID*               8208               08.5626273613E+003.7720173580E+01+
*       -7.500000000E+00               0
GRID*               8209               07.3740318931E+004.1610696097E+01+
*       -7.500000000E+00               0
GRID*               8210               09.3140120174E+003.5959701011E+01+
*       -7.500000000E+00               0
GRID*               8211               06.9951135368E+004.3608201517E+01+
*       -7.500000000E+00               0
GRID*               8212               07.8975835469E+003.9643810953E+01+
*       -7.500000000E+00               0
GRID*               8213               08.5626273613E+003.7720173580E+01+
*       7.5000000000E+00               0
GRID*               8214               07.3740318931E+004.1610696097E+01+
*       7.5000000000E+00               0
GRID*               8215               09.3140120174E+003.5959701011E+01+
*       7.5000000000E+00               0
GRID*               8216               06.9951135368E+004.3608201517E+01+
*       7.5000000000E+00               0
GRID*               8217               07.8975835469E+003.9643810953E+01+
*       7.5000000000E+00               0
GRID*               8218               08.8766194135E+003.6946236843E+01+
*       6.0377970772E+00               0
GRID*               8219               07.8642507836E+003.9760533905E+01+
*       6.3191900559E+00               0
GRID*               8220               07.1563622201E+004.2665150347E+01+
*       6.6096141216E+00               0
GRID*               8221               07.4716688370E+004.1203443111E+01+
*       6.4634623490E+00               0
GRID*               8222               06.9194700348E+004.4141347151E+01+
*       6.7572148423E+00               0
GRID*               8223               08.3427883719E+003.8343101850E+01+
*       6.1774652296E+00               0
GRID*               8224               09.4943053889E+003.5582980029E+01+
*       5.9014908215E+00               0
GRID*               8225               08.8756256610E+003.6945817994E+01+
*       -6.038657401E+00               0
GRID*               8226               07.8624298929E+003.9759913765E+01+
*       -6.320471845E+00               0
GRID*               8227               07.1552941143E+004.2664907923E+01+
*       -6.610246295E+00               0
GRID*               8228               07.4700448823E+004.1202968556E+01+
*       -6.464514330E+00               0
GRID*               8229               06.9188948186E+004.4141202920E+01+
*       -6.757410218E+00               0
GRID*               8230               08.3412751064E+003.8342521321E+01+
*       -6.178643084E+00               0
GRID*               8231               09.4938728377E+003.5582787229E+01+
*       -5.901912915E+00               0
GRID*               8232               0-8.392155005E+001.3325113573E+02+
*       -9.050000191E+00               0
GRID*               8233               0-6.651052536E+001.3606323887E+02+
*       -9.050000191E+00               0
GRID*               8234               0-4.011620377E+001.3805641221E+02+
*       -9.050000191E+00               0
GRID*               8235               0-8.304022552E-011.3896151561E+02+
*       -9.050000191E+00               0
GRID*               8236               02.4629655597E+001.3865642225E+02+
*       -9.050000191E+00               0
GRID*               8237               05.4236471148E+001.3718206494E+02+
*       -9.050000191E+00               0
GRID*               8238               07.6519405777E+001.3473787556E+02+
*       -9.050000191E+00               0
GRID*               8239               08.8466834034E+001.3165373271E+02+
*       -9.050000191E+00               0
GRID*               8240               08.8466826473E+001.2834626216E+02+
*       -9.050000191E+00               0
GRID*               8241               07.6519387509E+001.2526211957E+02+
*       -9.050000191E+00               0
GRID*               8242               05.4236431707E+001.2281793086E+02+
*       -9.050000191E+00               0
GRID*               8243               02.4629639397E+001.2134357020E+02+
*       -9.050000191E+00               0
GRID*               8244               0-8.304051080E-011.2103848260E+02+
*       -9.050000191E+00               0
GRID*               8245               0-4.011623164E+001.2194358313E+02+
*       -9.050000191E+00               0
GRID*               8246               0-6.651051020E+001.2393676257E+02+
*       -9.050000191E+00               0
GRID*               8247               0-8.392154758E+001.2674886434E+02+
*       -9.050000191E+00               0
GRID*               8248               04.0116226990E+001.3805641106E+02+
*       -9.050000191E+00               0
GRID*               8249               08.3040483808E-011.3896151537E+02+
*       -9.050000191E+00               0
GRID*               8250               06.6510542835E+001.3606323695E+02+
*       -9.050000191E+00               0
GRID*               8251               09.0000000000E+001.2999999741E+02+
*       -9.050000191E+00               0
GRID*               8252               08.3921559422E+001.3325113331E+02+
*       -9.050000191E+00               0
GRID*               8253               04.0116208421E+001.2194358197E+02+
*       -9.050000191E+00               0
GRID*               8254               08.3040252512E-011.2103848236E+02+
*       -9.050000191E+00               0
GRID*               8255               08.3921538211E+001.2674886192E+02+
*       -9.050000191E+00               0
GRID*               8256               06.6510492730E+001.2393676065E+02+
*       -9.050000191E+00               0
GRID*               8257               0-5.423645045E+001.3718206650E+02+
*       -9.050000191E+00               0
GRID*               8258               0-2.462963065E+001.3865642296E+02+
*       -9.050000191E+00               0
GRID*               8259               0-8.846682927E+001.3165373526E+02+
*       -9.050000191E+00               0
GRID*               8260               0-7.651939212E+001.3473787776E+02+
*       -9.050000191E+00               0
GRID*               8261               0-2.462966435E+001.2134357091E+02+
*       -9.050000191E+00               0
GRID*               8262               0-5.423645241E+001.2281793243E+02+
*       -9.050000191E+00               0
GRID*               8263               0-8.846683124E+001.2834626471E+02+
*       -9.050000191E+00               0
GRID*               8264               0-7.651940117E+001.2526212178E+02+
*       -9.050000191E+00               0
GRID*               8265               0-8.392155005E+001.3325113573E+02+
*       9.0500001907E+00               0
GRID*               8266               0-6.651052536E+001.3606323887E+02+
*       9.0500001907E+00               0
GRID*               8267               0-4.011620377E+001.3805641221E+02+
*       9.0500001907E+00               0
GRID*               8268               0-8.304022552E-011.3896151561E+02+
*       9.0500001907E+00               0
GRID*               8269               02.4629655597E+001.3865642225E+02+
*       9.0500001907E+00               0
GRID*               8270               05.4236471148E+001.3718206494E+02+
*       9.0500001907E+00               0
GRID*               8271               07.6519405777E+001.3473787556E+02+
*       9.0500001907E+00               0
GRID*               8272               08.8466834034E+001.3165373271E+02+
*       9.0500001907E+00               0
GRID*               8273               08.8466826473E+001.2834626216E+02+
*       9.0500001907E+00               0
GRID*               8274               07.6519387509E+001.2526211957E+02+
*       9.0500001907E+00               0
GRID*               8275               05.4236431707E+001.2281793086E+02+
*       9.0500001907E+00               0
GRID*               8276               02.4629639397E+001.2134357020E+02+
*       9.0500001907E+00               0
GRID*               8277               0-8.304051080E-011.2103848260E+02+
*       9.0500001907E+00               0
GRID*               8278               0-4.011623164E+001.2194358313E+02+
*       9.0500001907E+00               0
GRID*               8279               0-6.651051020E+001.2393676257E+02+
*       9.0500001907E+00               0
GRID*               8280               0-8.392154758E+001.2674886434E+02+
*       9.0500001907E+00               0
GRID*               8281               04.0116226990E+001.3805641106E+02+
*       9.0500001907E+00               0
GRID*               8282               08.3040483808E-011.3896151537E+02+
*       9.0500001907E+00               0
GRID*               8283               08.3921559422E+001.3325113331E+02+
*       9.0500001907E+00               0
GRID*               8284               06.6510542835E+001.3606323695E+02+
*       9.0500001907E+00               0
GRID*               8285               04.0116208421E+001.2194358197E+02+
*       9.0500001907E+00               0
GRID*               8286               06.6510492730E+001.2393676065E+02+
*       9.0500001907E+00               0
GRID*               8287               08.3921538211E+001.2674886192E+02+
*       9.0500001907E+00               0
GRID*               8288               09.0000000000E+001.2999999741E+02+
*       9.0500001907E+00               0
GRID*               8289               0-7.651939212E+001.3473787776E+02+
*       9.0500001907E+00               0
GRID*               8290               0-5.423645045E+001.3718206650E+02+
*       9.0500001907E+00               0
GRID*               8291               0-2.462963065E+001.3865642296E+02+
*       9.0500001907E+00               0
GRID*               8292               0-8.846683124E+001.2834626471E+02+
*       9.0500001907E+00               0
GRID*               8293               0-8.846682927E+001.3165373526E+02+
*       9.0500001907E+00               0
GRID*               8294               0-2.462966435E+001.2134357091E+02+
*       9.0500001907E+00               0
GRID*               8295               08.3040252512E-011.2103848236E+02+
*       9.0500001907E+00               0
GRID*               8296               0-7.651940117E+001.2526212178E+02+
*       9.0500001907E+00               0
GRID*               8297               0-5.423645241E+001.2281793243E+02+
*       9.0500001907E+00               0
GRID*               8298               09.1078305919E+003.3899598167E+01+
*       -3.007752048E+00               0
GRID*               8299               07.9894871322E+003.3356445790E+01+
*       -2.133280625E+00               0
GRID*               8300               09.8763341666E+003.4214032753E+01+
*       -4.280850205E+00               0
GRID*               8301               09.1078305919E+003.3899598167E+01+
*       3.0077520479E+00               0
GRID*               8302               07.9894871322E+003.3356445790E+01+
*       2.1332806254E+00               0
GRID*               8303               09.8763341666E+003.4214032753E+01+
*       4.2808502046E+00               0
GRID*               8449               08.9267779569E+001.1797442970E+02+
*       -7.896049821E+00               0
GRID*               8450               08.3567251945E+001.1662568212E+02+
*       -7.612243733E+00               0
GRID*               8451               09.5369809139E+001.1928172868E+02+
*       -8.274724843E+00               0
GRID*               8457               08.9277461105E+001.1797660803E+02+
*       7.8966146131E+00               0
GRID*               8458               08.3571771014E+001.1662680840E+02+
*       7.6124170780E+00               0
GRID*               8459               09.5384850261E+001.1928492396E+02+
*       8.2757447129E+00               0
GRID*               8304               09.7528295517E+004.5863357544E+01+
*       -3.750000000E+00               0
GRID*               8305               09.7528295517E+004.5863357544E+01+
*       0.0000000000E+00               0
GRID*               8306               09.7528295517E+004.5863357544E+01+
*       3.7500000000E+00               0
GRID*               8307               09.7528295517E+004.5863357544E+01+
*       -1.875000000E+00               0
GRID*               8308               09.7528295517E+004.5863357544E+01+
*       -5.625000000E+00               0
GRID*               8309               09.7528295517E+004.5863357544E+01+
*       5.6250000000E+00               0
GRID*               8310               09.7528295517E+004.5863357544E+01+
*       1.8750000000E+00               0
GRID*               9033               01.0556638767E+013.1309541893E+01+
*       -7.500000000E+00               0
GRID*               9034               08.7973151805E+002.8918798780E+01+
*       -7.500000000E+00               0
GRID*               9035               07.3861523620E+002.8377628258E+01+
*       -7.500000000E+00               0
GRID*               9036               01.0653629286E+013.2817798750E+01+
*       -7.500000000E+00               0
GRID*               9037               09.9069493652E+002.9944935894E+01+
*       -7.500000000E+00               0
GRID*               8311               08.7969146447E+002.8918549780E+01+
*       -5.768651485E+00               0
GRID*               8312               01.0556196131E+013.1307840414E+01+
*       -5.768651485E+00               0
GRID*               8313               01.0653739592E+013.2816926086E+01+
*       -5.768651485E+00               0
GRID*               8314               07.3868240804E+002.8377747872E+01+
*       -5.768651485E+00               0
GRID*               8315               09.9060579603E+002.9943725045E+01+
*       -5.768651485E+00               0
GRID*               8316               08.7969146447E+002.8918549780E+01+
*       5.7686514854E+00               0
GRID*               8317               01.0556196131E+013.1307840414E+01+
*       5.7686514854E+00               0
GRID*               8318               07.3868240804E+002.8377747872E+01+
*       5.7686514854E+00               0
GRID*               8319               01.0653739592E+013.2816926086E+01+
*       5.7686514854E+00               0
GRID*               8320               09.9060579603E+002.9943725045E+01+
*       5.7686514854E+00               0
GRID*               9038               01.0556638767E+013.1309541893E+01+
*       7.5000000000E+00               0
GRID*               9039               08.7973151805E+002.8918798780E+01+
*       7.5000000000E+00               0
GRID*               9040               07.3861523620E+002.8377628258E+01+
*       7.5000000000E+00               0
GRID*               9041               01.0653629286E+013.2817798750E+01+
*       7.5000000000E+00               0
GRID*               9042               09.9069493652E+002.9944935894E+01+
*       7.5000000000E+00               0
GRID*               8321               01.0184074402E+013.4254379272E+01+
*       -6.634325743E+00               0
GRID*               8322               01.0184074402E+013.4254379272E+01+
*       6.6343257427E+00               0
GRID*               8323               01.1507941246E+011.2284669495E+02+
*       -5.430000114E+00               0
GRID*               8324               01.1507941246E+011.2284669495E+02+
*       -1.810000038E+00               0
GRID*               8325               01.1507941246E+011.2284669495E+02+
*       1.8100000381E+00               0
GRID*               8326               01.1507941246E+011.2284669495E+02+
*       5.4300001144E+00               0
GRID*               8327               01.1507941246E+011.2284669495E+02+
*       -3.620000076E+00               0
GRID*               8328               01.1507941246E+011.2284669495E+02+
*       -7.240000153E+00               0
GRID*               8329               01.1507941246E+011.2284669495E+02+
*       3.6200000763E+00               0
GRID*               8330               01.1507941246E+011.2284669495E+02+
*       7.2400001526E+00               0
GRID*               8331               01.1507941246E+011.2284669495E+02+
*       0.0000000000E+00               0
GRID*               8332               08.5999841062E+001.4047096223E+02+
*       -9.050000191E+00               0
GRID*               8333               01.1245220057E+011.3755949759E+02+
*       -9.050000191E+00               0
GRID*               8334               01.2942748163E+011.3401094991E+02+
*       -9.050000191E+00               0
GRID*               8335               01.3549359891E+011.3012433287E+02+
*       -9.050000191E+00               0
GRID*               8336               01.3014125776E+011.2622723432E+02+
*       -9.050000191E+00               0
GRID*               8337               01.2310404610E+011.2451651879E+02+
*       -9.050000191E+00               0
GRID*               8338               01.3423970807E+011.2815625135E+02+
*       -9.050000191E+00               0
GRID*               8339               01.3387830124E+011.3208976386E+02+
*       -9.050000191E+00               0
GRID*               8340               01.0028861750E+011.3911177365E+02+
*       -9.050000191E+00               0
GRID*               8341               01.2223405615E+011.3584714044E+02+
*       -9.050000191E+00               0
GRID*               8342               06.9889862244E+001.4160839980E+02+
*       -9.050000191E+00               0
GRID*               8343               08.5999841062E+001.4047096223E+02+
*       9.0500001907E+00               0
GRID*               8344               01.1245220057E+011.3755949759E+02+
*       9.0500001907E+00               0
GRID*               8345               01.2942748163E+011.3401094991E+02+
*       9.0500001907E+00               0
GRID*               8346               01.3549359891E+011.3012433287E+02+
*       9.0500001907E+00               0
GRID*               8347               01.3014125776E+011.2622723432E+02+
*       9.0500001907E+00               0
GRID*               8348               01.3423970807E+011.2815625135E+02+
*       9.0500001907E+00               0
GRID*               8349               01.2223405615E+011.3584714044E+02+
*       9.0500001907E+00               0
GRID*               8350               01.3387830124E+011.3208976386E+02+
*       9.0500001907E+00               0
GRID*               8351               01.2310404610E+011.2451651879E+02+
*       9.0500001907E+00               0
GRID*               8352               01.0028861750E+011.3911177365E+02+
*       9.0500001907E+00               0
GRID*               8353               06.9889862244E+001.4160839980E+02+
*       9.0500001907E+00               0
GRID*               8354               01.0308357017E+014.2236493124E+01+
*       -7.500000000E+00               0
GRID*               8355               01.1388768921E+013.8730003943E+01+
*       -7.500000000E+00               0
GRID*               8356               01.2970791399E+013.5419420735E+01+
*       -7.500000000E+00               0
GRID*               8357               01.5020348422E+013.2376055445E+01+
*       -7.500000000E+00               0
GRID*               8358               01.7493291147E+012.9665463164E+01+
*       -7.500000000E+00               0
GRID*               8359               01.8872231112E+012.8453541990E+01+
*       -7.500000000E+00               0
GRID*               8360               09.9639956763E+004.4039724556E+01+
*       -7.500000000E+00               0
GRID*               8361               01.0784175711E+014.0463409672E+01+
*       -7.500000000E+00               0
GRID*               8362               01.2118990221E+013.7045662746E+01+
*       -7.500000000E+00               0
GRID*               8363               01.3939686690E+013.3860103492E+01+
*       -7.500000000E+00               0
GRID*               8364               01.6207047001E+013.0975350327E+01+
*       -7.500000000E+00               0
GRID*               8365               01.0308357017E+014.2236493124E+01+
*       7.5000000000E+00               0
GRID*               8366               01.1388768921E+013.8730003943E+01+
*       7.5000000000E+00               0
GRID*               8367               01.2970791399E+013.5419420735E+01+
*       7.5000000000E+00               0
GRID*               8368               01.5020348422E+013.2376055445E+01+
*       7.5000000000E+00               0
GRID*               8369               01.7493291147E+012.9665463164E+01+
*       7.5000000000E+00               0
GRID*               8370               01.6207047001E+013.0975350327E+01+
*       7.5000000000E+00               0
GRID*               8371               01.3939686690E+013.3860103492E+01+
*       7.5000000000E+00               0
GRID*               8372               01.8872231112E+012.8453541990E+01+
*       7.5000000000E+00               0
GRID*               8373               01.2118990221E+013.7045662746E+01+
*       7.5000000000E+00               0
GRID*               8374               01.0784175711E+014.0463409672E+01+
*       7.5000000000E+00               0
GRID*               8375               09.9639956763E+004.4039724556E+01+
*       7.5000000000E+00               0
GRID*               8376               02.0336351395E+012.7346031189E+01+
*       3.7500000000E+00               0
GRID*               8377               02.0336351395E+012.7346031189E+01+
*       0.0000000000E+00               0
GRID*               8378               02.0336351395E+012.7346031189E+01+
*       -3.750000000E+00               0
GRID*               8379               02.0336351395E+012.7346031189E+01+
*       5.6250000000E+00               0
GRID*               8380               02.0336351395E+012.7346031189E+01+
*       1.8750000000E+00               0
GRID*               8381               02.0336351395E+012.7346031189E+01+
*       -1.875000000E+00               0
GRID*               8382               02.0336351395E+012.7346031189E+01+
*       -5.625000000E+00               0
GRID*               8383               02.3000000000E+010.0000000000E+00+
*       -5.472499847E+00               0
GRID*               8384               02.3000000000E+010.0000000000E+00+
*       0.0000000000E+00               0
GRID*               8385               02.3000000000E+010.0000000000E+00+
*       5.4724998474E+00               0
GRID*               8386               02.3000000000E+010.0000000000E+00+
*       -2.736249924E+00               0
GRID*               8387               02.3000000000E+010.0000000000E+00+
*       -8.208749771E+00               0
GRID*               8388               02.3000000000E+010.0000000000E+00+
*       8.2087497711E+00               0
GRID*               8389               02.3000000000E+010.0000000000E+00+
*       2.7362499237E+00               0
GRID*               8666               03.1363781894E+010.0000000000E+00+
*       2.8637822024E+00               0
GRID*               8667               02.8499999933E+010.0000000000E+00+
*       4.0500001907E+00               0
GRID*               8668               02.5636217589E+010.0000000000E+00+
*       2.8637826388E+00               0
GRID*               8669               02.4450000763E+010.0000000000E+00+
*       -1.230845586E-11               0
GRID*               8670               02.5636217589E+010.0000000000E+00+
*       -2.863782639E+00               0
GRID*               8671               02.8499999933E+010.0000000000E+00+
*       -4.050000191E+00               0
GRID*               8672               03.1363781894E+010.0000000000E+00+
*       -2.863782202E+00               0
GRID*               8673               03.2241710461E+010.0000000000E+00+
*       1.5498675207E+00               0
GRID*               8674               03.0049867697E+010.0000000000E+00+
*       3.7417120658E+00               0
GRID*               8675               02.6950132180E+010.0000000000E+00+
*       3.7417120147E+00               0
GRID*               8676               02.5043109176E+010.0000000000E+00+
*       1.4318913194E+00               0
GRID*               8677               02.5043109176E+010.0000000000E+00+
*       -1.431891319E+00               0
GRID*               8678               02.6950132180E+010.0000000000E+00+
*       -3.741712015E+00               0
GRID*               8679               03.0049867697E+010.0000000000E+00+
*       -3.741712066E+00               0
GRID*               8680               03.2241710461E+010.0000000000E+00+
*       -1.549867521E+00               0
GRID*               8390               02.3192266403E+012.5346297669E+01+
*       -7.500000000E+00               0
GRID*               8391               02.6224639268E+012.3223007008E+01+
*       -7.500000000E+00               0
GRID*               8392               02.9587500672E+012.0868305711E+01+
*       -7.500000000E+00               0
GRID*               8393               03.3348844100E+011.8234584325E+01+
*       -7.500000000E+00               0
GRID*               8394               03.5373312736E+011.6817035910E+01+
*       -7.500000000E+00               0
GRID*               8395               02.1764308899E+012.6346164429E+01+
*       -7.500000000E+00               0
GRID*               8396               02.7906070000E+012.2045656403E+01+
*       -7.500000000E+00               0
GRID*               8397               03.1468172339E+011.9551444951E+01+
*       -7.500000000E+00               0
GRID*               8398               02.4708452835E+012.4284652338E+01+
*       -7.500000000E+00               0
GRID*               8399               02.3192266403E+012.5346297669E+01+
*       7.5000000000E+00               0
GRID*               8400               02.6224639268E+012.3223007008E+01+
*       7.5000000000E+00               0
GRID*               8401               02.9587500672E+012.0868305711E+01+
*       7.5000000000E+00               0
GRID*               8402               03.3348844100E+011.8234584325E+01+
*       7.5000000000E+00               0
GRID*               8403               02.7906070000E+012.2045656403E+01+
*       7.5000000000E+00               0
GRID*               8404               03.1468172339E+011.9551444951E+01+
*       7.5000000000E+00               0
GRID*               8405               02.1764308899E+012.6346164429E+01+
*       7.5000000000E+00               0
GRID*               8406               02.4708452835E+012.4284652338E+01+
*       7.5000000000E+00               0
GRID*               8407               03.5373312736E+011.6817035910E+01+
*       7.5000000000E+00               0
GRID*               8408               03.2256100196E+010.0000000000E+00+
*       -1.094499969E+01               0
GRID*               8409               02.7722121788E+010.0000000000E+00+
*       -1.094499969E+01               0
GRID*               8410               02.9989110992E+010.0000000000E+00+
*       -1.094499969E+01               0
GRID*               8411               02.5361060894E+010.0000000000E+00+
*       -1.094499969E+01               0
GRID*               8412               03.4433513889E+010.0000000000E+00+
*       -1.094499969E+01               0
GRID*               8413               03.2256100196E+010.0000000000E+00+
*       1.0944999695E+01               0
GRID*               8414               02.7722121788E+010.0000000000E+00+
*       1.0944999695E+01               0
GRID*               8415               02.9989110992E+010.0000000000E+00+
*       1.0944999695E+01               0
GRID*               8416               02.5361060894E+010.0000000000E+00+
*       1.0944999695E+01               0
GRID*               8417               03.4433513889E+010.0000000000E+00+
*       1.0944999695E+01               0
GRID*               8838               03.2876850620E+015.0000000000E+00+
*       -1.094499969E+01               0
GRID*               8839               02.9178244250E+015.0000000000E+00+
*       -1.094499969E+01               0
GRID*               8840               03.4743889101E+015.0000000000E+00+
*       -1.094499969E+01               0
GRID*               8841               03.1027547435E+015.0000000000E+00+
*       -1.094499969E+01               0
GRID*               8842               02.7346473047E+015.0000000000E+00+
*       -1.094499969E+01               0
GRID*               8843               03.2876850620E+015.0000000000E+00+
*       1.0944999695E+01               0
GRID*               8844               02.9178244250E+015.0000000000E+00+
*       1.0944999695E+01               0
GRID*               8845               03.4743889101E+015.0000000000E+00+
*       1.0944999695E+01               0
GRID*               8846               03.1027547435E+015.0000000000E+00+
*       1.0944999695E+01               0
GRID*               8847               02.7346473047E+015.0000000000E+00+
*       1.0944999695E+01               0
GRID*               8651               03.1218733454E+011.9726106828E+01+
*       3.0018311502E+00               0
GRID*               8652               02.8499999737E+012.1629783815E+01+
*       4.0500001907E+00               0
GRID*               8653               02.5781266857E+012.3533461828E+01+
*       3.0018308482E+00               0
GRID*               8654               02.4450000763E+012.4465623856E+01+
*       2.9976021665E-15               0
GRID*               8655               02.5781266857E+012.3533461828E+01+
*       -3.001830848E+00               0
GRID*               8656               02.8499999737E+012.1629783815E+01+
*       -4.050000191E+00               0
GRID*               8657               03.1218733454E+011.9726106828E+01+
*       -3.001831150E+00               0
GRID*               8658               03.2179316116E+011.9053496901E+01+
*       1.6926477838E+00               0
GRID*               8659               03.2179316116E+011.9053496901E+01+
*       -1.692647784E+00               0
GRID*               8660               02.9928275602E+012.0629695187E+01+
*       -3.789794404E+00               0
GRID*               8661               02.7071724707E+012.2629873628E+01+
*       -3.789794307E+00               0
GRID*               8662               02.4820681512E+012.4206069094E+01+
*       -1.692647796E+00               0
GRID*               8663               02.4820681512E+012.4206069094E+01+
*       1.6926477960E+00               0
GRID*               8664               02.7071724707E+012.2629873628E+01+
*       3.7897943070E+00               0
GRID*               8665               02.9928275602E+012.0629695187E+01+
*       3.7897944044E+00               0
GRID*               8858               03.6610927582E+012.5000000000E+00+
*       -1.094499969E+01               0
GRID*               8859               03.6610927582E+012.5000000000E+00+
*       1.0944999695E+01               0
GRID*               8860               03.7004354477E+015.0000000000E+00+
*       -9.222499847E+00               0
GRID*               8861               03.7004354477E+015.0000000000E+00+
*       9.2224998474E+00               0
GRID*               8862               03.7397781372E+019.6063837182E+00+
*       -7.500000000E+00               0
GRID*               8863               03.7397781372E+011.2502935607E+01+
*       -7.500000000E+00               0
GRID*               8864               03.7397781372E+017.3031918591E+00+
*       -7.500000000E+00               0
GRID*               8865               03.7397781372E+019.6063837182E+00+
*       7.5000000000E+00               0
GRID*               8866               03.7397781372E+011.2502935607E+01+
*       7.5000000000E+00               0
GRID*               8867               03.7397781372E+017.3031918591E+00+
*       7.5000000000E+00               0
GRID*               8418               03.7827138742E+010.0000000000E+00+
*       -5.620224267E+00               0
GRID*               8419               03.8468985454E+010.0000000000E+00+
*       -2.810112128E+00               0
GRID*               8420               03.7219033161E+010.0000000000E+00+
*       -8.282611980E+00               0
GRID*               8421               03.7827138741E+010.0000000000E+00+
*       5.6202242661E+00               0
GRID*               8422               03.7219033161E+010.0000000000E+00+
*       8.2826119805E+00               0
GRID*               8423               03.8468985454E+010.0000000000E+00+
*       2.8101121277E+00               0
GRID*               8424               03.8254306793E+011.4799743652E+01+
*       -3.750000000E+00               0
GRID*               8425               03.8682569504E+011.4499871731E+01+
*       -1.875000000E+00               0
GRID*               8426               03.7826044083E+011.5099615574E+01+
*       -5.625000000E+00               0
GRID*               8427               03.8254306793E+011.4799743652E+01+
*       3.7500000000E+00               0
GRID*               8428               03.8682569504E+011.4499871731E+01+
*       1.8750000000E+00               0
GRID*               8429               03.7826044083E+011.5099615574E+01+
*       5.6250000000E+00               0
GRID*               8868               03.9110832214E+019.4666665395E+00+
*       -7.870504660E-15               0
GRID*               8869               03.9110832214E+014.7333332698E+00+
*       -2.248715617E-14               0
GRID*               8870               03.9110832214E+011.1833333174E+01+
*       -2.248715617E-15               0
GRID*               8871               03.9110832214E+017.0999999046E+00+
*       -1.517883041E-14               0
GRID*               8872               03.9110832214E+012.3666666349E+00+
*       -2.810894521E-14               0
GRID*               4473               0-1.070077151E+012.0359060423E+01+
*       -5.468505137E+00               0
GRID*               4474               0-1.311337485E+011.8895456502E+01+
*       2.8301185899E-02               0
GRID*               4475               0-1.529777337E+011.7174917779E+01+
*       5.5472331377E+00               0
GRID*               4476               0-1.897554625E+011.2997199050E+01+
*       5.7390776552E+00               0
GRID*               4477               0-1.738255308E+011.5061365961E+01+
*       1.2395469754E-01               0
GRID*               4478               0-1.532418081E+011.7151354777E+01+
*       -5.448080234E+00               0
GRID*               4479               0-2.123054465E+018.8465777028E+00+
*       6.2750597750E+00               0
GRID*               4480               0-2.086139063E+019.6850488332E+00+
*       1.4919230546E-01               0
GRID*               4481               0-1.909530097E+011.2820582926E+01+
*       -5.580905253E+00               0
GRID*               4482               0-2.161939920E+017.8486285418E+00+
*       -6.244032485E+00               0
GRID*               4483               0-2.250228363E+014.7587349423E+00+
*       3.2660544047E+00               0
GRID*               4484               0-2.271627131E+013.6015172835E+00+
*       -7.211250749E+00               0
GRID*               4485               0-2.258742753E+014.3367127296E+00+
*       -2.624010480E+00               0
GRID*               4486               0-5.506681717E+002.2331061417E+01+
*       -5.471329828E+00               0
GRID*               4487               0-8.167673626E+002.1500860316E+01+
*       7.0397903303E-03               0
GRID*               4488               0-1.070903592E+012.0354722813E+01+
*       5.4948810618E+00               0
GRID*               4489               0-9.869735726E-042.2999955511E+01+
*       -5.471899325E+00               0
GRID*               4490               0-2.775604322E+002.2831871470E+01+
*       1.9529504902E-03               0
GRID*               4491               0-5.511014084E+002.2329994161E+01+
*       5.4788157800E+00               0
GRID*               4492               05.5039337355E+002.2331740267E+01+
*       -5.471922728E+00               0
GRID*               4493               02.7717779302E+002.2832336477E+01+
*       9.5792327845E-04               0
GRID*               4494               0-1.598807062E-032.2999955439E+01+
*       5.4744191831E+00               0
GRID*               4495               01.0688058961E+012.0365746179E+01+
*       -5.471985991E+00               0
GRID*               4496               08.1551018788E+002.1505631529E+01+
*       6.1302751176E-04               0
GRID*               4497               05.5036431939E+002.2331810367E+01+
*       5.4732032801E+00               0
GRID*               4498               01.5290436220E+011.7181449740E+01+
*       -5.543200951E+00               0
GRID*               4499               01.3118092933E+011.8892180913E+01+
*       -3.919632072E-02               0
GRID*               4500               01.0709850521E+012.0354285858E+01+
*       5.4636461429E+00               0
GRID*               4501               01.8974555297E+011.2998645791E+01+
*       -5.738133985E+00               0
GRID*               4502               01.7381822385E+011.5062209191E+01+
*       -1.248166989E-01               0
GRID*               4503               01.5326229522E+011.7149524282E+01+
*       5.4447246819E+00               0
GRID*               4504               02.1230415086E+018.8468886201E+00+
*       -6.274781385E+00               0
GRID*               4505               02.0861174436E+019.6855144924E+00+
*       -1.490713066E-01               0
GRID*               4506               01.9095435076E+011.2820383178E+01+
*       5.5801199356E+00               0
GRID*               4507               02.1619382133E+017.8486755514E+00+
*       6.2439056209E+00               0
GRID*               4508               02.2502255576E+014.7588675869E+00+
*       -3.265972962E+00               0
GRID*               4509               02.2716269128E+013.6015310736E+00+
*       7.2112300857E+00               0
GRID*               4510               02.2587407663E+014.3368161588E+00+
*       2.6240169565E+00               0
GRID*               4511               0-1.813083568E+011.4151778523E+01+
*       8.3420134005E+00               0
GRID*               4512               0-1.726344061E+011.5197750742E+01+
*       5.6431660797E+00               0
GRID*               4513               0-1.628506303E+011.6241791550E+01+
*       8.2461385159E+00               0
GRID*               4514               0-1.970440154E+011.1863184177E+01+
*       8.3420204659E+00               0
GRID*               4515               0-1.190462472E+011.9679413248E+01+
*       -8.206749109E+00               0
GRID*               4516               0-1.311092427E+011.8897165719E+01+
*       -5.458287635E+00               0
GRID*               4517               0-1.422274019E+011.8075166824E+01+
*       -8.196569274E+00               0
GRID*               4518               0-9.445623078E+002.0970933992E+01+
*       -8.206728668E+00               0
GRID*               4519               0-1.637464235E+011.6151447041E+01+
*       2.8355111562E+00               0
GRID*               4520               0-1.536806777E+011.7112048254E+01+
*       7.6117753254E-02               0
GRID*               4521               0-1.423116679E+011.8068529104E+01+
*       2.7878533692E+00               0
GRID*               4522               0-1.820857998E+011.4051605059E+01+
*       2.9314554486E+00               0
GRID*               4523               0-1.424570843E+011.8057072419E+01+
*       -2.709937109E+00               0
GRID*               4524               0-1.192909375E+011.9664568221E+01+
*       -2.720015418E+00               0
GRID*               4525               0-1.638711457E+011.6138790400E+01+
*       -2.662157570E+00               0
GRID*               4526               0-2.081838056E+019.7771912802E+00+
*       8.6100327772E+00               0
GRID*               4527               0-2.021003824E+011.0979723211E+01+
*       6.0070265496E+00               0
GRID*               4528               0-2.184517867E+017.1963821411E+00+
*       8.6100064845E+00               0
GRID*               4529               0-1.998715424E+011.1380377283E+01+
*       2.9441563406E+00               0
GRID*               4530               0-1.930990262E+011.2495021710E+01+
*       1.3660244045E-01               0
GRID*               4531               0-2.104993617E+019.2681247608E+00+
*       3.2122106319E+00               0
GRID*               4532               0-1.629770835E+011.6229091063E+01+
*       -8.196554990E+00               0
GRID*               4533               0-1.734554647E+011.5103997829E+01+
*       -5.514520303E+00               0
GRID*               4534               0-1.819610705E+011.4067754437E+01+
*       -8.262929189E+00               0
GRID*               4535               0-1.827339001E+011.3967215894E+01+
*       -2.728488581E+00               0
GRID*               4536               0-2.003957230E+011.1287821121E+01+
*       -2.715781828E+00               0
GRID*               4537               0-2.050857439E+011.0411417929E+01+
*       -5.912463498E+00               0
GRID*               4538               0-2.126018531E+018.7751228748E+00+
*       -3.047402402E+00               0
GRID*               4539               0-1.975917467E+011.1771750408E+01+
*       -8.262952730E+00               0
GRID*               4540               0-2.104043892E+019.2896637062E+00+
*       -8.594539856E+00               0
GRID*               4541               0-2.200677895E+016.6858588451E+00+
*       -8.594529106E+00               0
GRID*               4542               0-2.287519266E+012.3924921456E+00+
*       4.3693009857E+00               0
GRID*               4543               0-2.287523605E+012.3919687192E+00+
*       1.6329650280E+00               0
GRID*               4544               0-2.283226341E+012.7724942785E+00+
*       8.2087747033E+00               0
GRID*               4545               0-2.242004657E+015.1322130661E+00+
*       7.1055290531E+00               0
GRID*               4546               0-2.196187409E+016.8319031928E+00+
*       4.7704857778E+00               0
GRID*               4547               0-2.254405292E+014.5568604866E+00+
*       -9.078139008E+00               0
GRID*               4548               0-2.226934868E+015.7510010990E+00+
*       -6.727687655E+00               0
GRID*               4549               0-2.292891910E+011.8062706867E+00+
*       -9.078135597E+00               0
GRID*               4550               0-2.292893713E+011.8060532964E+00+
*       -6.341921406E+00               0
GRID*               4551               0-2.279371376E+012.1683563648E+00+
*       -1.312005240E+00               0
GRID*               4552               0-2.254583428E+014.5479569781E+00+
*       3.2102771890E-01               0
GRID*               4553               0-2.289662815E+012.1776622316E+00+
*       -4.048334657E+00               0
GRID*               4554               0-2.265485009E+013.9695804013E+00+
*       -4.917640368E+00               0
GRID*               4555               0-2.182132262E+017.2684047618E+00+
*       1.7076311647E+00               0
GRID*               4556               0-2.188839318E+017.0638305224E+00+
*       -1.237405172E+00               0
GRID*               4557               0-2.217315039E+016.1114071273E+00+
*       -4.434098795E+00               0
GRID*               4558               0-6.843818458E+002.1958151812E+01+
*       -8.208176863E+00               0
GRID*               4559               0-8.163552520E+002.1502446175E+01+
*       -5.469928028E+00               0
GRID*               4560               0-4.147241124E+002.2622965426E+01+
*       -8.208190520E+00               0
GRID*               4561               0-1.420861220E+011.8086273147E+01+
*       8.2461321681E+00               0
GRID*               4562               0-1.310053519E+011.8904362853E+01+
*       5.5209981570E+00               0
GRID*               4563               0-1.190875552E+011.9676905265E+01+
*       8.2199165578E+00               0
GRID*               4564               0-9.451565288E+002.0968254957E+01+
*       -2.730745094E+00               0
GRID*               4565               0-1.072032889E+012.0348768878E+01+
*       1.7603182447E-02               0
GRID*               4566               0-6.850307707E+002.1956119175E+01+
*       -2.732239485E+00               0
GRID*               4567               0-1.193344955E+011.9661931391E+01+
*       2.7616080423E+00               0
GRID*               4568               0-9.456134960E+002.0966192413E+01+
*       2.7508911787E+00               0
GRID*               4569               0-1.389054823E+002.2958008929E+01+
*       -8.208425789E+00               0
GRID*               4570               0-2.774026402E+002.2832071849E+01+
*       -5.471608097E+00               0
GRID*               4571               01.3883708420E+002.2958048016E+01+
*       -8.208423782E+00               0
GRID*               4572               0-9.450205966E+002.0968865901E+01+
*       8.2199049460E+00               0
GRID*               4573               0-8.169927651E+002.1500011635E+01+
*       5.4868499438E+00               0
GRID*               4574               0-6.845732346E+002.1957561664E+01+
*       8.2119329982E+00               0
GRID*               4575               0-4.148711163E+002.2622695979E+01+
*       -2.734689405E+00               0
GRID*               4576               0-5.512007370E+002.2329748346E+01+
*       4.4904841740E-03               0
GRID*               4577               0-1.390349900E+002.2957918873E+01+
*       -2.734892442E+00               0
GRID*               4578               0-6.852281824E+002.1955507691E+01+
*       2.7428602367E+00               0
GRID*               4579               0-4.150322776E+002.2622391063E+01+
*       2.7404801903E+00               0
GRID*               4580               04.1456089320E+002.2623260825E+01+
*       -8.208475327E+00               0
GRID*               4581               02.7719310605E+002.2832328148E+01+
*       -5.471869780E+00               0
GRID*               4582               06.8422511884E+002.1958646830E+01+
*       -8.208486492E+00               0
GRID*               4583               01.3878590522E+002.2958074270E+01+
*       -2.735482846E+00               0
GRID*               4584               0-1.922675370E-032.2999955440E+01+
*       1.4561909187E-03               0
GRID*               4585               04.1448407055E+002.2623396115E+01+
*       -2.735578212E+00               0
GRID*               4586               0-4.149195747E+002.2622603321E+01+
*       8.2119218005E+00               0
GRID*               4587               0-2.776828465E+002.2831733124E+01+
*       5.4765771724E+00               0
GRID*               4588               0-1.389661213E+002.2957969991E+01+
*       8.2096837366E+00               0
GRID*               4589               0-1.391073278E+002.2957879893E+01+
*       2.7381982205E+00               0
GRID*               4590               01.3871351212E+002.2958113159E+01+
*       2.7376077276E+00               0
GRID*               4591               09.4394004812E+002.0973732745E+01+
*       -8.208457821E+00               0
GRID*               4592               08.1554370053E+002.1505511896E+01+
*       -5.471956649E+00               0
GRID*               4593               01.1898616079E+011.9683037689E+01+
*       -8.208469222E+00               0
GRID*               4594               06.8423932562E+002.1958591376E+01+
*       -2.735585438E+00               0
GRID*               4595               05.5036092100E+002.2331819496E+01+
*       7.9149193785E-04               0
GRID*               4596               09.4391979005E+002.0973823963E+01+
*       -2.735618095E+00               0
GRID*               4597               01.3877654594E+002.2958086918E+01+
*       8.2096859094E+00               0
GRID*               4598               02.7711895734E+002.2832416460E+01+
*       5.4738047421E+00               0
GRID*               4599               04.1457022921E+002.2623247431E+01+
*       8.2091272925E+00               0
GRID*               4600               04.1452822892E+002.2623324512E+01+
*       2.7370825527E+00               0
GRID*               4601               06.8423943760E+002.1958586769E+01+
*       2.7370024470E+00               0
GRID*               4602               01.4204749528E+011.8089306998E+01+
*       -8.244116061E+00               0
GRID*               4603               01.3086756627E+011.8913904388E+01+
*       -5.507534459E+00               0
GRID*               4604               01.6281594895E+011.6245268458E+01+
*       -8.244122283E+00               0
GRID*               4605               01.1925770037E+011.9666589767E+01+
*       -2.755608948E+00               0
GRID*               4606               01.0716923534E+012.0350562518E+01+
*       -1.922390576E-02               0
GRID*               4607               01.4229563714E+011.8069791644E+01+
*       -2.791284950E+00               0
GRID*               4608               06.8423248588E+002.1958617322E+01+
*       8.2091136346E+00               0
GRID*               4609               08.1668814950E+002.1501182076E+01+
*       5.4684347143E+00               0
GRID*               4610               09.4502982714E+002.0968827474E+01+
*       8.2042989936E+00               0
GRID*               4611               09.4501117003E+002.0968910163E+01+
*       2.7321419980E+00               0
GRID*               4612               01.1935933694E+011.9660417670E+01+
*       2.7121383478E+00               0
GRID*               4613               01.8130296067E+011.4152469826E+01+
*       -8.341541596E+00               0
GRID*               4614               01.7259614378E+011.5202095766E+01+
*       -5.640678323E+00               0
GRID*               4615               01.9703949124E+011.1863935534E+01+
*       -8.341548674E+00               0
GRID*               4616               01.6370803049E+011.6155338518E+01+
*       -2.833925569E+00               0
GRID*               4617               01.5369788862E+011.7110502547E+01+
*       -8.199642779E-02               0
GRID*               4618               01.8207703275E+011.4052741106E+01+
*       -2.931414668E+00               0
GRID*               4619               01.1909011194E+011.9676759284E+01+
*       8.2043192696E+00               0
GRID*               4620               01.3116265893E+011.8893458215E+01+
*       5.4541802938E+00               0
GRID*               4621               01.4223819471E+011.8074317548E+01+
*       8.1948914451E+00               0
GRID*               4622               01.4249037142E+011.8054445905E+01+
*       2.7028108838E+00               0
GRID*               4623               01.6387686921E+011.6138209181E+01+
*       2.6600487816E+00               0
GRID*               4624               02.0818308977E+019.7773437011E+00+
*       -8.609893578E+00               0
GRID*               4625               02.0209539188E+011.0980641749E+01+
*       -6.006415545E+00               0
GRID*               4626               02.1845125997E+017.1965420478E+00+
*       -8.609867280E+00               0
GRID*               4627               01.9986593028E+011.1381362761E+01+
*       -2.943624103E+00               0
GRID*               4628               01.9309460593E+011.2495704812E+01+
*       -1.369727877E-01               0
GRID*               4629               02.1049764899E+019.2685137589E+00+
*       -3.212010924E+00               0
GRID*               4630               01.6298677284E+011.6228117905E+01+
*       8.1948771469E+00               0
GRID*               4631               01.7346526630E+011.5102872185E+01+
*       5.5124496405E+00               0
GRID*               4632               01.8196180593E+011.4067659308E+01+
*       8.2625365220E+00               0
GRID*               4633               01.8273124274E+011.3967563575E+01+
*       2.7276649191E+00               0
GRID*               4634               02.0039505259E+011.1287940117E+01+
*       2.7154496405E+00               0
GRID*               4635               02.0508617511E+011.0411332979E+01+
*       5.9120074039E+00               0
GRID*               4636               02.1260077973E+018.7753829360E+00+
*       3.0473995289E+00               0
GRID*               4637               01.9759236225E+011.1771647100E+01+
*       8.2625600647E+00               0
GRID*               4638               02.1040428821E+019.2896865721E+00+
*       8.5944764259E+00               0
GRID*               4639               02.2006771680E+016.6858827639E+00+
*       8.5944656755E+00               0
GRID*               4640               02.2875185614E+012.3925594927E+00+
*       -4.369260252E+00               0
GRID*               4641               02.2875229007E+012.3920360541E+00+
*       -1.632924292E+00               0
GRID*               4642               02.2832263409E+012.7724942785E+00+
*       -8.208774703E+00               0
GRID*               4643               02.2420031448E+015.1322791326E+00+
*       -7.105488330E+00               0
GRID*               4644               02.1961803950E+016.8321286947E+00+
*       -4.770305854E+00               0
GRID*               4645               02.2544051533E+014.5568673282E+00+
*       9.0781286765E+00               0
GRID*               4646               02.2269340683E+015.7510320607E+00+
*       6.7276138922E+00               0
GRID*               4647               02.2928918557E+011.8062776458E+00+
*       9.0781252651E+00               0
GRID*               4648               02.2928936578E+011.8060602557E+00+
*       6.3419110741E+00               0
GRID*               4649               02.2793703832E+012.1684080794E+00+
*       1.3120084782E+00               0
GRID*               4650               02.2545810459E+014.5480750534E+00+
*       -3.209837602E-01               0
GRID*               4651               02.2896623170E+012.1777146391E+00+
*       4.0483378979E+00               0
GRID*               4652               02.2654839798E+013.9696391408E+00+
*       4.9176332752E+00               0
GRID*               4653               02.1821220047E+017.2687127477E+00+
*       -1.707529966E+00               0
GRID*               4654               02.1888298136E+017.0641250708E+00+
*       1.2374688861E+00               0
GRID*               4655               02.2173129755E+016.1114819852E+00+
*       4.4340386043E+00               0
GRID*               6978               0-3.474388910E+012.5000000000E+00+
*       -1.094499969E+01               0
GRID*               6979               0-3.256647541E+012.5000000000E+00+
*       -1.094499969E+01               0
GRID*               6980               0-3.071717222E+012.5000000000E+00+
*       -1.094499969E+01               0
GRID*               6981               0-2.425735092E+012.5000000000E+00+
*       -1.094499969E+01               0
GRID*               6982               0-2.392316051E+015.2521247912E+00+
*       -1.094499969E+01               0
GRID*               6983               0-2.661841182E+012.5000000000E+00+
*       -1.094499969E+01               0
GRID*               6984               0-2.845018302E+012.5000000000E+00+
*       -1.094499969E+01               0
GRID*               6985               03.4743889101E+012.5000000000E+00+
*       -1.094499969E+01               0
GRID*               6986               03.2566475408E+012.5000000000E+00+
*       -1.094499969E+01               0
GRID*               6987               03.0717172223E+012.5000000000E+00+
*       -1.094499969E+01               0
GRID*               6988               02.4257350922E+012.5000000000E+00+
*       -1.094499969E+01               0
GRID*               6989               02.6618411816E+012.5000000000E+00+
*       -1.094499969E+01               0
GRID*               6990               02.3923160513E+015.2521247912E+00+
*       -1.094499969E+01               0
GRID*               6991               02.8450183019E+012.5000000000E+00+
*       -1.094499969E+01               0
GRID*               6992               0-2.341922005E+017.0942261224E+00+
*       -1.094499969E+01               0
GRID*               6993               0-2.243615283E+019.6864169526E+00+
*       -1.094499969E+01               0
GRID*               6994               0-2.143593068E+011.1853202095E+01+
*       -1.094499969E+01               0
GRID*               6995               0-1.626457073E+011.8131833032E+01+
*       -1.094499969E+01               0
GRID*               6996               0-1.828581733E+011.6305565098E+01+
*       -1.094499969E+01               0
GRID*               6997               0-1.418945274E+011.9970245688E+01+
*       -1.094499969E+01               0
GRID*               6998               0-1.986104741E+011.4134783721E+01+
*       -1.094499969E+01               0
GRID*               6999               0-1.183198939E+012.1335185141E+01+
*       -1.094499969E+01               0
GRID*               7000               0-9.377199071E+002.2623546370E+01+
*       -1.094499969E+01               0
GRID*               7001               0-6.787051077E+002.3467243749E+01+
*       -1.094499969E+01               0
GRID*               7002               0-4.095270300E+002.4130713707E+01+
*       -1.094499969E+01               0
GRID*               7003               01.3861700103E+002.4416141091E+01+
*       -1.094499969E+01               0
GRID*               7004               04.0952703001E+002.4130713707E+01+
*       -1.094499969E+01               0
GRID*               7005               0-1.386170010E+002.4416141091E+01+
*       -1.094499969E+01               0
GRID*               7006               02.3419220048E+017.0942261224E+00+
*       -1.094499969E+01               0
GRID*               7007               01.9861047407E+011.4134783721E+01+
*       -1.094499969E+01               0
GRID*               7008               02.1435930683E+011.1853202095E+01+
*       -1.094499969E+01               0
GRID*               7009               01.8285817333E+011.6305565098E+01+
*       -1.094499969E+01               0
GRID*               7010               02.2436152826E+019.6864169526E+00+
*       -1.094499969E+01               0
GRID*               7011               06.7870510770E+002.3467243749E+01+
*       -1.094499969E+01               0
GRID*               7012               09.3771990713E+002.2623546370E+01+
*       -1.094499969E+01               0
GRID*               7013               01.6264570733E+011.8131833032E+01+
*       -1.094499969E+01               0
GRID*               7014               01.4189452745E+011.9970245688E+01+
*       -1.094499969E+01               0
GRID*               7015               01.1831989390E+012.1335185141E+01+
*       -1.094499969E+01               0
GRID*               7016               03.4743889101E+012.5000000000E+00+
*       1.0944999695E+01               0
GRID*               7017               03.2566475408E+012.5000000000E+00+
*       1.0944999695E+01               0
GRID*               7018               03.0717172223E+012.5000000000E+00+
*       1.0944999695E+01               0
GRID*               7019               02.4257350922E+012.5000000000E+00+
*       1.0944999695E+01               0
GRID*               7020               02.3923160513E+015.2521247912E+00+
*       1.0944999695E+01               0
GRID*               7021               02.6618411816E+012.5000000000E+00+
*       1.0944999695E+01               0
GRID*               7022               02.8450183019E+012.5000000000E+00+
*       1.0944999695E+01               0
GRID*               7023               0-3.474388910E+012.5000000000E+00+
*       1.0944999695E+01               0
GRID*               7024               0-3.256647541E+012.5000000000E+00+
*       1.0944999695E+01               0
GRID*               7025               0-3.071717222E+012.5000000000E+00+
*       1.0944999695E+01               0
GRID*               7026               0-2.425735092E+012.5000000000E+00+
*       1.0944999695E+01               0
GRID*               7027               0-2.661841182E+012.5000000000E+00+
*       1.0944999695E+01               0
GRID*               7028               0-2.392316051E+015.2521247912E+00+
*       1.0944999695E+01               0
GRID*               7029               0-2.845018302E+012.5000000000E+00+
*       1.0944999695E+01               0
GRID*               7030               02.3419220048E+017.0942261224E+00+
*       1.0944999695E+01               0
GRID*               7031               02.2436152826E+019.6864169526E+00+
*       1.0944999695E+01               0
GRID*               7032               02.1435930683E+011.1853202095E+01+
*       1.0944999695E+01               0
GRID*               7033               01.6264570733E+011.8131833032E+01+
*       1.0944999695E+01               0
GRID*               7034               01.8285817333E+011.6305565098E+01+
*       1.0944999695E+01               0
GRID*               7035               01.4189452745E+011.9970245688E+01+
*       1.0944999695E+01               0
GRID*               7036               01.9861047407E+011.4134783721E+01+
*       1.0944999695E+01               0
GRID*               7037               01.1831989390E+012.1335185141E+01+
*       1.0944999695E+01               0
GRID*               7038               09.3771990713E+002.2623546370E+01+
*       1.0944999695E+01               0
GRID*               7039               06.7870510770E+002.3467243749E+01+
*       1.0944999695E+01               0
GRID*               7040               04.0952703001E+002.4130713707E+01+
*       1.0944999695E+01               0
GRID*               7041               01.3861700103E+002.4416141091E+01+
*       1.0944999695E+01               0
GRID*               7042               0-1.386170010E+002.4416141091E+01+
*       1.0944999695E+01               0
GRID*               7043               0-4.095270300E+002.4130713707E+01+
*       1.0944999695E+01               0
GRID*               7044               0-2.341922005E+017.0942261224E+00+
*       1.0944999695E+01               0
GRID*               7045               0-1.986104741E+011.4134783721E+01+
*       1.0944999695E+01               0
GRID*               7046               0-2.143593068E+011.1853202095E+01+
*       1.0944999695E+01               0
GRID*               7047               0-1.828581733E+011.6305565098E+01+
*       1.0944999695E+01               0
GRID*               7048               0-2.243615283E+019.6864169526E+00+
*       1.0944999695E+01               0
GRID*               7049               0-6.787051077E+002.3467243749E+01+
*       1.0944999695E+01               0
GRID*               7050               0-9.377199071E+002.2623546370E+01+
*       1.0944999695E+01               0
GRID*               7051               0-1.626457073E+011.8131833032E+01+
*       1.0944999695E+01               0
GRID*               7052               0-1.418945274E+011.9970245688E+01+
*       1.0944999695E+01               0
GRID*               7053               0-1.183198939E+012.1335185141E+01+
*       1.0944999695E+01               0
GRID*               4199               0-8.083469247E+006.7074589994E+01+
*       3.7791367751E+00               0
GRID*               4200               0-8.244085550E+006.5033766497E+01+
*       3.9129735059E-02               0
GRID*               4201               0-8.410904531E+006.2914130503E+01+
*       -3.704028449E+00               0
GRID*               4202               0-8.729453089E+005.8866587559E+01+
*       -3.653291524E+00               0
GRID*               4203               0-8.568777169E+006.0908168565E+01+
*       9.2339330505E-02               0
GRID*               4204               0-8.411064574E+006.2912096958E+01+
*       3.7974390966E+00               0
GRID*               4205               0-9.049466361E+005.4800433657E+01+
*       -3.486465055E+00               0
GRID*               4206               0-8.887262620E+005.6861427479E+01+
*       2.1588480662E-01               0
GRID*               4207               0-8.728117694E+005.8883555353E+01+
*       3.8466997394E+00               0
GRID*               4208               0-9.415424223E+005.0150498444E+01+
*       -2.976190283E+00               0
GRID*               4209               0-9.206434821E+005.2805960403E+01+
*       4.9824466301E-01               0
GRID*               4210               0-9.039127770E+005.4931797907E+01+
*       3.9436019436E+00               0
GRID*               4211               0-9.350808407E+005.0971520173E+01+
*       4.0635350020E+00               0
GRID*               4212               0-9.495595810E+004.9131821912E+01+
*       1.0852024569E+00               0
GRID*               4213               0-7.909904240E+006.9279942370E+01+
*       8.2094855082E-02               0
GRID*               4214               0-7.742506203E+007.1406935979E+01+
*       -3.647903034E+00               0
GRID*               4215               0-8.083428041E+006.7075113569E+01+
*       -3.702199724E+00               0
GRID*               4216               0-7.399481891E+007.5765472834E+01+
*       4.0280123689E+00               0
GRID*               4217               0-7.565029941E+007.3661985550E+01+
*       2.5717633337E-01               0
GRID*               4218               0-7.745085767E+007.1374159505E+01+
*       3.8608120909E+00               0
GRID*               4219               0-7.208925784E+007.8186717599E+01+
*       7.1456199393E-01               0
GRID*               4220               0-7.003723374E+008.0794061275E+01+
*       -3.081241789E+00               0
GRID*               4221               0-7.387199072E+007.5921540844E+01+
*       -3.455472341E+00               0
GRID*               4222               0-6.782304764E+008.3607451286E+01+
*       2.3125619693E+00               0
GRID*               4223               0-7.092798254E+007.9662257672E+01+
*       4.4059591682E+00               0
GRID*               4224               0-6.321488284E+008.9462679459E+01+
*       2.1524618080E+00               0
GRID*               4225               0-6.588744900E+008.6066862390E+01+
*       -2.758296623E+00               0
GRID*               4226               0-6.159479055E+009.1521201756E+01+
*       -2.816916320E+00               0
GRID*               4227               0-5.941716567E+009.4288136333E+01+
*       1.2753745387E+00               0
GRID*               4228               0-8.172558403E+006.5942605006E+01+
*       5.6395684020E+00               0
GRID*               4229               0-8.006807587E+006.8048668680E+01+
*       5.6395684048E+00               0
GRID*               4230               0-8.653902721E+005.9826545934E+01+
*       -5.576645774E+00               0
GRID*               4231               0-8.570178810E+006.0890359031E+01+
*       -3.678659987E+00               0
GRID*               4232               0-8.494628443E+006.1850317403E+01+
*       -5.602014238E+00               0
GRID*               4233               0-8.806152566E+005.7892028362E+01+
*       -5.576645772E+00               0
GRID*               4234               0-8.489840851E+006.1911149521E+01+
*       -1.805844558E+00               0
GRID*               4235               0-8.406431359E+006.2970967532E+01+
*       6.5734533359E-02               0
GRID*               4236               0-8.327495041E+006.3973948484E+01+
*       -1.832449355E+00               0
GRID*               4237               0-8.649115130E+005.9887378045E+01+
*       -1.780476097E+00               0
GRID*               4238               0-8.247266911E+006.4993343475E+01+
*       3.7882879350E+00               0
GRID*               4239               0-8.336356067E+006.3861358489E+01+
*       5.6487195612E+00               0
GRID*               4240               0-8.327575061E+006.3972931739E+01+
*       1.9182844193E+00               0
GRID*               4241               0-8.489920870E+006.1910132781E+01+
*       1.9448892247E+00               0
GRID*               4242               0-8.163777398E+006.6054178252E+01+
*       1.9091332461E+00               0
GRID*               4243               0-8.494708464E+006.1849300632E+01+
*       5.6487195581E+00               0
GRID*               4244               0-8.966159202E+005.5858951410E+01+
*       -5.493232536E+00               0
GRID*               4245               0-9.113759163E+005.3983516208E+01+
*       -5.493232534E+00               0
GRID*               4246               0-8.889459725E+005.6833510606E+01+
*       -3.569878290E+00               0
GRID*               4247               0-8.808357855E+005.7864007505E+01+
*       -1.718703358E+00               0
GRID*               4248               0-8.728019894E+005.8884798021E+01+
*       1.5411206861E-01               0
GRID*               4249               0-8.968364492E+005.5830930552E+01+
*       -1.635290126E+00               0
GRID*               4250               0-8.569591134E+006.0897826154E+01+
*       3.8220694160E+00               0
GRID*               4251               0-8.653235024E+005.9835029828E+01+
*       5.6733498724E+00               0
GRID*               4252               0-8.648447431E+005.9895861966E+01+
*       1.9695195436E+00               0
GRID*               4253               0-8.807690157E+005.7872491422E+01+
*       2.0312922837E+00               0
GRID*               4254               0-8.805484869E+005.7900512256E+01+
*       5.6733498697E+00               0
GRID*               4255               0-9.296738095E+005.1658548593E+01+
*       -5.238095147E+00               0
GRID*               4256               0-9.441215395E+004.9822790550E+01+
*       -5.238095144E+00               0
GRID*               4257               0-9.232445293E+005.2475466046E+01+
*       -3.231327669E+00               0
GRID*               4258               0-9.127950592E+005.3803197017E+01+
*       -1.494110195E+00               0
GRID*               4259               0-9.046848720E+005.4833693938E+01+
*       3.5706473467E-01               0
GRID*               4260               0-9.310929523E+005.1478229413E+01+
*       -1.238972812E+00               0
GRID*               4261               0-8.883622732E+005.6907676634E+01+
*       3.8951508437E+00               0
GRID*               4262               0-8.960989906E+005.5924633537E+01+
*       5.7218009654E+00               0
GRID*               4263               0-8.963195195E+005.5896612690E+01+
*       2.0797433788E+00               0
GRID*               4264               0-9.122781296E+005.3868879147E+01+
*       2.2209233063E+00               0
GRID*               4265               0-9.108589867E+005.4049198335E+01+
*       5.7218009649E+00               0
GRID*               4266               0-9.264430185E+005.2069059478E+01+
*       5.7817674979E+00               0
GRID*               4267               0-9.408907487E+005.0233301426E+01+
*       5.7817675007E+00               0
GRID*               4268               0-9.194968089E+005.2951659039E+01+
*       4.0035684736E+00               0
GRID*               4269               0-9.278621614E+005.1888740284E+01+
*       2.2808898338E+00               0
GRID*               4270               0-9.624212681E+004.7497589726E+01+
*       2.4176012284E+00               0
GRID*               4271               0-9.624212681E+004.7497589721E+01+
*       5.4260122803E-01               0
GRID*               4272               0-9.609918060E+004.7679220089E+01+
*       5.6250000010E+00               0
GRID*               4273               0-9.551818981E+004.8417438843E+01+
*       3.9067675000E+00               0
GRID*               4274               0-9.423202109E+005.0051671033E+01+
*       2.5743687294E+00               0
GRID*               4275               0-9.351015316E+005.0968891153E+01+
*       7.9172355985E-01               0
GRID*               4276               0-9.455510017E+004.9641160170E+01+
*       -9.454939127E-01               0
GRID*               4277               0-9.609918061E+004.7679220084E+01+
*       -5.625000001E+00               0
GRID*               4278               0-9.584126888E+004.8006927989E+01+
*       -3.363095141E+00               0
GRID*               4279               0-9.584126888E+004.8006927981E+01+
*       -1.488095141E+00               0
GRID*               4280               0-8.247166286E+006.4994622036E+01+
*       -3.703114087E+00               0
GRID*               4281               0-8.163756796E+006.6054440022E+01+
*       -1.831534990E+00               0
GRID*               4282               0-8.336276045E+006.3862375260E+01+
*       -5.602014239E+00               0
GRID*               4283               0-8.172537801E+006.5942866788E+01+
*       -5.601099878E+00               0
GRID*               4284               0-8.006786984E+006.8048930463E+01+
*       -5.601099878E+00               0
GRID*               4285               0-7.836326066E+007.0214841662E+01+
*       -5.573951536E+00               0
GRID*               4286               0-7.662167907E+007.2427730750E+01+
*       -5.573951534E+00               0
GRID*               4287               0-7.912967122E+006.9241024774E+01+
*       -3.675051380E+00               0
GRID*               4288               0-7.996666141E+006.8177527962E+01+
*       -1.810052424E+00               0
GRID*               4289               0-7.826205222E+007.0343439170E+01+
*       -1.782904080E+00               0
GRID*               4290               0-8.076994895E+006.7156854436E+01+
*       6.0612296934E-02               0
GRID*               4291               0-7.996686744E+006.8177266178E+01+
*       1.9306158001E+00               0
GRID*               4292               0-7.914277507E+006.9224374749E+01+
*       3.8199744328E+00               0
GRID*               4293               0-7.827495004E+007.0327050932E+01+
*       1.9714534506E+00               0
GRID*               4294               0-7.837615847E+007.0198453431E+01+
*       5.6804060612E+00               0
GRID*               4295               0-7.663457688E+007.2411342519E+01+
*       5.6804060631E+00               0
GRID*               4296               0-7.737467091E+007.1470963961E+01+
*       1.6963559476E-01               0
GRID*               4297               0-7.653768071E+007.2534460771E+01+
*       -1.695363328E+00               0
GRID*               4298               0-7.655057854E+007.2518072531E+01+
*       2.0589942027E+00               0
GRID*               4299               0-7.572283829E+007.3569816169E+01+
*       3.9444122302E+00               0
GRID*               4300               0-7.482255916E+007.4713729199E+01+
*       2.1425943404E+00               0
GRID*               4301               0-7.490655751E+007.4606999177E+01+
*       5.7640061991E+00               0
GRID*               4302               0-7.307547041E+007.6933615794E+01+
*       5.7640061997E+00               0
GRID*               4303               0-7.564852637E+007.3664238412E+01+
*       -3.551687687E+00               0
GRID*               4304               0-7.476114506E+007.4791763202E+01+
*       -1.599147989E+00               0
GRID*               4305               0-7.484514342E+007.4685033177E+01+
*       -5.477736189E+00               0
GRID*               4306               0-7.301405632E+007.7011649794E+01+
*       -5.477736186E+00               0
GRID*               4307               0-7.386977863E+007.5924351571E+01+
*       4.8586916033E-01               0
GRID*               4308               0-7.304203837E+007.6976095224E+01+
*       2.3712871789E+00               0
GRID*               4309               0-7.109667783E+007.9447910007E+01+
*       -5.290620906E+00               0
GRID*               4310               0-6.917737738E+008.1886612296E+01+
*       -5.290620902E+00               0
GRID*               4311               0-7.195461223E+007.8357801062E+01+
*       -3.268357062E+00               0
GRID*               4312               0-7.298062429E+007.7054129213E+01+
*       -1.370455169E+00               0
GRID*               4313               0-7.106324580E+007.9490389426E+01+
*       -1.183339907E+00               0
GRID*               4314               0-7.246140073E+007.7713865254E+01+
*       4.2169857692E+00               0
GRID*               4315               0-7.150862018E+007.8924487651E+01+
*       2.5602605804E+00               0
GRID*               4316               0-7.154205223E+007.8882008208E+01+
*       5.9529795956E+00               0
GRID*               4317               0-6.962275179E+008.1320710496E+01+
*       5.9529795948E+00               0
GRID*               4318               0-6.807028432E+008.3293307311E+01+
*       4.9062810015E+00               0
GRID*               4319               0-6.607260335E+008.5831601503E+01+
*       4.9062809997E+00               0
GRID*               4320               0-6.937551509E+008.1634854482E+01+
*       3.3592605688E+00               0
GRID*               4321               0-6.995615274E+008.0897084448E+01+
*       1.5135619810E+00               0
GRID*               4322               0-6.893014069E+008.2200756277E+01+
*       -3.843399325E-01               0
GRID*               4323               0-6.796234137E+008.3430461825E+01+
*       -2.919769209E+00               0
GRID*               4324               0-6.710248502E+008.4523012851E+01+
*       -5.129148302E+00               0
GRID*               4325               0-6.685524831E+008.4837156853E+01+
*       -2.228673346E-01               0
GRID*               4326               0-6.376852095E+008.8759215585E+01+
*       4.8262309149E+00               0
GRID*               4327               0-6.171157204E+009.1372816818E+01+
*       4.8262309111E+00               0
GRID*               4328               0-6.551896524E+008.6535065376E+01+
*       2.2325118893E+00               0
GRID*               4329               0-6.455116590E+008.7764770949E+01+
*       -3.029174116E-01               0
GRID*               4330               0-6.295847483E+008.9788476705E+01+
*       -5.158458154E+00               0
GRID*               4331               0-6.090152591E+009.2402077943E+01+
*       -5.158458160E+00               0
GRID*               4332               0-6.510480404E+008.7061307040E+01+
*       -5.129148301E+00               0
GRID*               4333               0-6.374111977E+008.8794032074E+01+
*       -2.787606473E+00               0
GRID*               4334               0-6.240483668E+009.0491940623E+01+
*       -3.322272584E-01               0
GRID*               4335               0-5.772373147E+009.6439848357E+01+
*       -6.123127315E-01               0
GRID*               4336               0-5.772373147E+009.6439848355E+01+
*       1.8876872694E+00               0
GRID*               4337               0-5.811927925E+009.5937257284E+01+
*       -5.000000002E+00               0
GRID*               4338               0-5.881254390E+009.5056381085E+01+
*       -2.658458158E+00               0
GRID*               4339               0-6.050597810E+009.2904669062E+01+
*       -7.707708898E-01               0
GRID*               4340               0-5.811927924E+009.5937257294E+01+
*       5.0000000021E+00               0
GRID*               4341               0-5.981271344E+009.3785545263E+01+
*       4.3876872738E+00               0
GRID*               4342               0-6.131602425E+009.1875407902E+01+
*       1.7139181731E+00               0
GRID*               4823               08.0834692470E+006.7074589994E+01+
*       -3.779136775E+00               0
GRID*               4824               08.2440855497E+006.5033766497E+01+
*       -3.912973506E-02               0
GRID*               4825               08.4109045306E+006.2914130503E+01+
*       3.7040284493E+00               0
GRID*               4826               08.7294530887E+005.8866587559E+01+
*       3.6532915244E+00               0
GRID*               4827               08.5687771689E+006.0908168565E+01+
*       -9.233933051E-02               0
GRID*               4828               08.4110645740E+006.2912096958E+01+
*       -3.797439097E+00               0
GRID*               4829               09.0494663615E+005.4800433657E+01+
*       3.4864650549E+00               0
GRID*               4830               08.8872626196E+005.6861427479E+01+
*       -2.158848066E-01               0
GRID*               4831               08.7281176943E+005.8883555353E+01+
*       -3.846699739E+00               0
GRID*               4832               09.4154242231E+005.0150498444E+01+
*       2.9761902831E+00               0
GRID*               4833               09.2064348209E+005.2805960403E+01+
*       -4.982446630E-01               0
GRID*               4834               09.0391277701E+005.4931797907E+01+
*       -3.943601944E+00               0
GRID*               4835               09.3508084074E+005.0971520173E+01+
*       -4.063535002E+00               0
GRID*               4836               09.4955958101E+004.9131821912E+01+
*       -1.085202457E+00               0
GRID*               4837               07.9099042402E+006.9279942370E+01+
*       -8.209485508E-02               0
GRID*               4838               07.7425062025E+007.1406935979E+01+
*       3.6479030343E+00               0
GRID*               4839               08.0834280409E+006.7075113569E+01+
*       3.7021997242E+00               0
GRID*               4840               07.3994818914E+007.5765472834E+01+
*       -4.028012369E+00               0
GRID*               4841               07.5650299412E+007.3661985550E+01+
*       -2.571763334E-01               0
GRID*               4842               07.7450857669E+007.1374159505E+01+
*       -3.860812091E+00               0
GRID*               4843               07.2089257839E+007.8186717599E+01+
*       -7.145619939E-01               0
GRID*               4844               07.0037233737E+008.0794061275E+01+
*       3.0812417891E+00               0
GRID*               4845               07.3871990720E+007.5921540844E+01+
*       3.4554723408E+00               0
GRID*               4846               06.7823047639E+008.3607451286E+01+
*       -2.312561969E+00               0
GRID*               4847               07.0927982545E+007.9662257672E+01+
*       -4.405959168E+00               0
GRID*               4848               06.3214882837E+008.9462679459E+01+
*       -2.152461808E+00               0
GRID*               4849               06.5887449000E+008.6066862390E+01+
*       2.7582966229E+00               0
GRID*               4850               06.1594790549E+009.1521201756E+01+
*       2.8169163197E+00               0
GRID*               4851               05.9417165668E+009.4288136333E+01+
*       -1.275374539E+00               0
GRID*               4852               08.1725584033E+006.5942605006E+01+
*       -5.639568402E+00               0
GRID*               4853               08.0068075871E+006.8048668680E+01+
*       -5.639568405E+00               0
GRID*               4854               08.6539027214E+005.9826545934E+01+
*       5.5766457737E+00               0
GRID*               4855               08.5701788097E+006.0890359031E+01+
*       3.6786599872E+00               0
GRID*               4856               08.4946284426E+006.1850317403E+01+
*       5.6020142376E+00               0
GRID*               4857               08.8061525658E+005.7892028362E+01+
*       5.5766457718E+00               0
GRID*               4858               08.4898408508E+006.1911149521E+01+
*       1.8058445576E+00               0
GRID*               4859               08.4064313592E+006.2970967532E+01+
*       -6.573453336E-02               0
GRID*               4860               08.3274950414E+006.3973948484E+01+
*       1.8324493545E+00               0
GRID*               4861               08.6491151302E+005.9887378045E+01+
*       1.7804760975E+00               0
GRID*               4862               08.2472669105E+006.4993343475E+01+
*       -3.788287935E+00               0
GRID*               4863               08.3363560666E+006.3861358489E+01+
*       -5.648719561E+00               0
GRID*               4864               08.3275750610E+006.3972931739E+01+
*       -1.918284419E+00               0
GRID*               4865               08.4899208700E+006.1910132781E+01+
*       -1.944889225E+00               0
GRID*               4866               08.1637773978E+006.6054178252E+01+
*       -1.909133246E+00               0
GRID*               4867               08.4947084641E+006.1849300632E+01+
*       -5.648719558E+00               0
GRID*               4868               08.9661592022E+005.5858951410E+01+
*       5.4932325363E+00               0
GRID*               4869               09.1137591631E+005.3983516208E+01+
*       5.4932325336E+00               0
GRID*               4870               08.8894597252E+005.6833510606E+01+
*       3.5698782899E+00               0
GRID*               4871               08.8083578552E+005.7864007505E+01+
*       1.7187033580E+00               0
GRID*               4872               08.7280198943E+005.8884798021E+01+
*       -1.541120686E-01               0
GRID*               4873               08.9683644917E+005.5830930552E+01+
*       1.6352901256E+00               0
GRID*               4874               08.5695911342E+006.0897826154E+01+
*       -3.822069416E+00               0
GRID*               4875               08.6532350244E+005.9835029828E+01+
*       -5.673349872E+00               0
GRID*               4876               08.6484474310E+005.9895861966E+01+
*       -1.969519544E+00               0
GRID*               4877               08.8076901565E+005.7872491422E+01+
*       -2.031292284E+00               0
GRID*               4878               08.8054848688E+005.7900512256E+01+
*       -5.673349870E+00               0
GRID*               4879               09.2967380946E+005.1658548593E+01+
*       5.2380951471E+00               0
GRID*               4880               09.4412153954E+004.9822790550E+01+
*       5.2380951441E+00               0
GRID*               4881               09.2324452926E+005.2475466046E+01+
*       3.2313276690E+00               0
GRID*               4882               09.1279505921E+005.3803197017E+01+
*       1.4941101951E+00               0
GRID*               4883               09.0468487204E+005.4833693938E+01+
*       -3.570647347E-01               0
GRID*               4884               09.3109295228E+005.1478229413E+01+
*       1.2389728115E+00               0
GRID*               4885               08.8836227319E+005.6907676634E+01+
*       -3.895150844E+00               0
GRID*               4886               08.9609899063E+005.5924633537E+01+
*       -5.721800965E+00               0
GRID*               4887               08.9631951950E+005.5896612690E+01+
*       -2.079743379E+00               0
GRID*               4888               09.1227812961E+005.3868879147E+01+
*       -2.220923306E+00               0
GRID*               4889               09.1085898673E+005.4049198335E+01+
*       -5.721800965E+00               0
GRID*               4890               09.2644301852E+005.2069059478E+01+
*       -5.781767498E+00               0
GRID*               4891               09.4089074866E+005.0233301426E+01+
*       -5.781767501E+00               0
GRID*               4892               09.1949680888E+005.2951659039E+01+
*       -4.003568474E+00               0
GRID*               4893               09.2786216144E+005.1888740284E+01+
*       -2.280889834E+00               0
GRID*               4894               09.6242126810E+004.7497589726E+01+
*       -2.417601228E+00               0
GRID*               4895               09.6242126814E+004.7497589721E+01+
*       -5.426012280E-01               0
GRID*               4896               09.6099180604E+004.7679220089E+01+
*       -5.625000001E+00               0
GRID*               4897               09.5518189807E+004.8417438843E+01+
*       -3.906767500E+00               0
GRID*               4898               09.4232021095E+005.0051671033E+01+
*       -2.574368729E+00               0
GRID*               4899               09.3510153158E+005.0968891153E+01+
*       -7.917235598E-01               0
GRID*               4900               09.4555100172E+004.9641160170E+01+
*       9.4549391272E-01               0
GRID*               4901               09.6099180608E+004.7679220084E+01+
*       5.6250000011E+00               0
GRID*               4902               09.5841268877E+004.8006927989E+01+
*       3.3630951411E+00               0
GRID*               4903               09.5841268883E+004.8006927981E+01+
*       1.4880951405E+00               0
GRID*               4904               08.2471662858E+006.4994622036E+01+
*       3.7031140871E+00               0
GRID*               4905               08.1637567962E+006.6054440022E+01+
*       1.8315349904E+00               0
GRID*               4906               08.3362760450E+006.3862375260E+01+
*       5.6020142385E+00               0
GRID*               4907               08.1725378006E+006.5942866788E+01+
*       5.6010998781E+00               0
GRID*               4908               08.0067869844E+006.8048930463E+01+
*       5.6010998779E+00               0
GRID*               4909               07.8363260657E+007.0214841662E+01+
*       5.5739515355E+00               0
GRID*               4910               07.6621679067E+007.2427730750E+01+
*       5.5739515340E+00               0
GRID*               4911               07.9129671217E+006.9241024774E+01+
*       3.6750513795E+00               0
GRID*               4912               07.9966661412E+006.8177527962E+01+
*       1.8100524244E+00               0
GRID*               4913               07.8262052217E+007.0343439170E+01+
*       1.7829040802E+00               0
GRID*               4914               08.0769948948E+006.7156854436E+01+
*       -6.061229693E-02               0
GRID*               4915               07.9966867439E+006.8177266178E+01+
*       -1.930615800E+00               0
GRID*               4916               07.9142775070E+006.9224374749E+01+
*       -3.819974433E+00               0
GRID*               4917               07.8274950039E+007.0327050932E+01+
*       -1.971453451E+00               0
GRID*               4918               07.8376158474E+007.0198453431E+01+
*       -5.680406061E+00               0
GRID*               4919               07.6634576885E+007.2411342519E+01+
*       -5.680406063E+00               0
GRID*               4920               07.7374670906E+007.1470963961E+01+
*       -1.696355948E-01               0
GRID*               4921               07.6537680714E+007.2534460771E+01+
*       1.6953633276E+00               0
GRID*               4922               07.6550578538E+007.2518072531E+01+
*       -2.058994203E+00               0
GRID*               4923               07.5722838292E+007.3569816169E+01+
*       -3.944412230E+00               0
GRID*               4924               07.4822559157E+007.4713729199E+01+
*       -2.142594340E+00               0
GRID*               4925               07.4906557512E+007.4606999177E+01+
*       -5.764006199E+00               0
GRID*               4926               07.3075470410E+007.6933615794E+01+
*       -5.764006200E+00               0
GRID*               4927               07.5648526372E+007.3664238412E+01+
*       3.5516876873E+00               0
GRID*               4928               07.4761145063E+007.4791763202E+01+
*       1.5991479887E+00               0
GRID*               4929               07.4845143419E+007.4685033177E+01+
*       5.4777361894E+00               0
GRID*               4930               07.3014056317E+007.7011649794E+01+
*       5.4777361864E+00               0
GRID*               4931               07.3869778628E+007.5924351571E+01+
*       -4.858691603E-01               0
GRID*               4932               07.3042038370E+007.6976095224E+01+
*       -2.371287179E+00               0
GRID*               4933               07.1096677828E+007.9447910007E+01+
*       5.2906209057E+00               0
GRID*               4934               06.9177377382E+008.1886612296E+01+
*       5.2906209017E+00               0
GRID*               4935               07.1954612227E+007.8357801062E+01+
*       3.2683570620E+00               0
GRID*               4936               07.2980624287E+007.7054129213E+01+
*       1.3704551690E+00               0
GRID*               4937               07.1063245796E+007.9490389426E+01+
*       1.1833399072E+00               0
GRID*               4938               07.2461400729E+007.7713865254E+01+
*       -4.216985769E+00               0
GRID*               4939               07.1508620180E+007.8924487651E+01+
*       -2.560260580E+00               0
GRID*               4940               07.1542052230E+007.8882008208E+01+
*       -5.952979596E+00               0
GRID*               4941               06.9622751785E+008.1320710496E+01+
*       -5.952979595E+00               0
GRID*               4942               06.8070284325E+008.3293307311E+01+
*       -4.906281002E+00               0
GRID*               4943               06.6072603346E+008.5831601503E+01+
*       -4.906281000E+00               0
GRID*               4944               06.9375515090E+008.1634854482E+01+
*       -3.359260569E+00               0
GRID*               4945               06.9956152735E+008.0897084448E+01+
*       -1.513561981E+00               0
GRID*               4946               06.8930140690E+008.2200756277E+01+
*       3.8433993255E-01               0
GRID*               4947               06.7962341375E+008.3430461825E+01+
*       2.9197692089E+00               0
GRID*               4948               06.7102485017E+008.4523012851E+01+
*       5.1291483024E+00               0
GRID*               4949               06.6855248308E+008.4837156853E+01+
*       2.2286733461E-01               0
GRID*               4950               06.3768520948E+008.8759215585E+01+
*       -4.826230915E+00               0
GRID*               4951               06.1711572036E+009.1372816818E+01+
*       -4.826230911E+00               0
GRID*               4952               06.5518965236E+008.6535065376E+01+
*       -2.232511889E+00               0
GRID*               4953               06.4551165900E+008.7764770949E+01+
*       3.0291741164E-01               0
GRID*               4954               06.2958474827E+008.9788476705E+01+
*       5.1584581540E+00               0
GRID*               4955               06.0901525910E+009.2402077943E+01+
*       5.1584581599E+00               0
GRID*               4956               06.5104804039E+008.7061307040E+01+
*       5.1291483006E+00               0
GRID*               4957               06.3741119774E+008.8794032074E+01+
*       2.7876064728E+00               0
GRID*               4958               06.2404836681E+009.0491940623E+01+
*       3.3222725840E-01               0
GRID*               4959               05.7723731468E+009.6439848357E+01+
*       6.1231273147E-01               0
GRID*               4960               05.7723731469E+009.6439848355E+01+
*       -1.887687269E+00               0
GRID*               4961               05.8119279247E+009.5937257284E+01+
*       5.0000000020E+00               0
GRID*               4962               05.8812543896E+009.5056381085E+01+
*       2.6584581582E+00               0
GRID*               4963               06.0505978095E+009.2904669062E+01+
*       7.7077088976E-01               0
GRID*               4964               05.8119279239E+009.5937257294E+01+
*       -5.000000002E+00               0
GRID*               4965               05.9812713445E+009.3785545263E+01+
*       -4.387687274E+00               0
GRID*               4966               06.1316024249E+009.1875407902E+01+
*       -1.713918173E+00               0
GRID*               6390               0-8.392033159E+001.2674857561E+02+
*       -5.430039877E+00               0
GRID*               6391               0-6.651119078E+001.2393685300E+02+
*       -5.429985202E+00               0
GRID*               6392               0-4.011507359E+001.2194353654E+02+
*       -5.430016494E+00               0
GRID*               6393               0-8.299797915E-011.2103842858E+02+
*       -5.430053636E+00               0
GRID*               6394               02.4629700005E+001.2134357319E+02+
*       -5.430001330E+00               0
GRID*               6395               05.4239367598E+001.2281815852E+02+
*       -5.430047000E+00               0
GRID*               6396               07.6518301835E+001.2526197949E+02+
*       -5.429977220E+00               0
GRID*               6397               08.8467051766E+001.2834644556E+02+
*       -5.430024008E+00               0
GRID*               6398               08.8466349080E+001.3165408896E+02+
*       -5.430044752E+00               0
GRID*               6399               07.6519204341E+001.3473790053E+02+
*       -5.430004727E+00               0
GRID*               6400               05.4233153823E+001.3718231652E+02+
*       -5.430052519E+00               0
GRID*               6401               02.4630338970E+001.3865639344E+02+
*       -5.429990416E+00               0
GRID*               6402               0-8.306488661E-011.3896148126E+02+
*       -5.430031986E+00               0
GRID*               6403               0-4.011795223E+001.3805633823E+02+
*       -5.430023351E+00               0
GRID*               6404               0-6.651095667E+001.3606318081E+02+
*       -5.430009920E+00               0
GRID*               6405               0-8.392322099E+001.3325072772E+02+
*       -5.430055297E+00               0
GRID*               6406               0-8.391886527E+001.2674822164E+02+
*       -1.810088017E+00               0
GRID*               6407               0-6.651277380E+001.2393705916E+02+
*       -1.809952406E+00               0
GRID*               6408               0-4.011266649E+001.2194343666E+02+
*       -1.810049216E+00               0
GRID*               6409               0-8.307454943E-011.2103852896E+02+
*       -1.809956353E+00               0
GRID*               6410               02.4629917964E+001.2134358223E+02+
*       -1.810004224E+00               0
GRID*               6411               05.4241671894E+001.2281833534E+02+
*       -1.810083470E+00               0
GRID*               6412               07.6518144048E+001.2526195894E+02+
*       -1.809973881E+00               0
GRID*               6413               08.8467496355E+001.2834678356E+02+
*       -1.810066839E+00               0
GRID*               6414               08.8467497341E+001.3165321685E+02+
*       -1.809933952E+00               0
GRID*               6415               07.6518687111E+001.3473796797E+02+
*       -1.810015347E+00               0
GRID*               6416               05.4232584328E+001.3718236012E+02+
*       -1.810061457E+00               0
GRID*               6417               02.4630195768E+001.3865639938E+02+
*       -1.809992290E+00               0
GRID*               6418               0-8.310353602E-011.3896143018E+02+
*       -1.810080978E+00               0
GRID*               6419               0-4.011155334E+001.3805660366E+02+
*       -1.809936074E+00               0
GRID*               6420               0-6.651198737E+001.3606304643E+02+
*       -1.810031157E+00               0
GRID*               6421               0-8.392195800E+001.3325103248E+02+
*       -1.810013686E+00               0
GRID*               6422               0-8.392195508E+001.2674896752E+02+
*       1.8100136865E+00               0
GRID*               6423               0-6.651197451E+001.2393695507E+02+
*       1.8100311557E+00               0
GRID*               6424               0-4.011158107E+001.2194339163E+02+
*       1.8099360749E+00               0
GRID*               6425               0-8.310389273E-011.2103856742E+02+
*       1.8100809777E+00               0
GRID*               6426               02.4630179442E+001.2134359308E+02+
*       1.8099922901E+00               0
GRID*               6427               05.4232542446E+001.2281763482E+02+
*       1.8100614563E+00               0
GRID*               6428               07.6518669101E+001.2526202732E+02+
*       1.8100153465E+00               0
GRID*               6429               08.8467488992E+001.2834677796E+02+
*       1.8099339521E+00               0
GRID*               6430               08.8467504732E+001.3165321124E+02+
*       1.8100668406E+00               0
GRID*               6431               07.6518162404E+001.3473803638E+02+
*       1.8099738801E+00               0
GRID*               6432               05.4241721525E+001.3718166061E+02+
*       1.8100834681E+00               0
GRID*               6433               02.4629934283E+001.3865641023E+02+
*       1.8100042236E+00               0
GRID*               6434               0-8.307419775E-011.3896146895E+02+
*       1.8099563521E+00               0
GRID*               6435               0-4.011263877E+001.3805655864E+02+
*       1.8100492171E+00               0
GRID*               6436               0-6.651278613E+001.3606294230E+02+
*       1.8099524048E+00               0
GRID*               6437               0-8.391886717E+001.3325177829E+02+
*       1.8100880154E+00               0
GRID*               6438               0-8.392321763E+001.2674927229E+02+
*       5.4300552976E+00               0
GRID*               6439               0-6.651094315E+001.2393682075E+02+
*       5.4300099193E+00               0
GRID*               6440               0-4.011797961E+001.2194365711E+02+
*       5.4300233497E+00               0
GRID*               6441               0-8.306523799E-011.2103851675E+02+
*       5.4300319864E+00               0
GRID*               6442               02.4630322639E+001.2134359902E+02+
*       5.4299904156E+00               0
GRID*               6443               05.4233111368E+001.2281767847E+02+
*       5.4300525202E+00               0
GRID*               6444               07.6519186672E+001.2526209473E+02+
*       5.4300047274E+00               0
GRID*               6445               08.8466341854E+001.2834590584E+02+
*       5.4300447505E+00               0
GRID*               6446               08.8467059702E+001.3165354924E+02+
*       5.4300240088E+00               0
GRID*               6447               07.6518320092E+001.3473801582E+02+
*       5.4299772195E+00               0
GRID*               6448               05.4239415333E+001.3718183716E+02+
*       5.4300470000E+00               0
GRID*               6449               02.4629716318E+001.3865641927E+02+
*       5.4300013302E+00               0
GRID*               6450               0-8.299763719E-011.3896157013E+02+
*       5.4300536363E+00               0
GRID*               6451               0-4.011504599E+001.3805645878E+02+
*       5.4300164943E+00               0
GRID*               6452               0-6.651120408E+001.3606314856E+02+
*       5.4299852033E+00               0
GRID*               6453               0-8.392033398E+001.3325142435E+02+
*       5.4300398768E+00               0
GRID*               6454               0-8.391939913E+001.2674835052E+02+
*       -3.620070503E+00               0
GRID*               6455               0-7.651868277E+001.2526202953E+02+
*       -1.810015346E+00               0
GRID*               6456               0-7.651896314E+001.2526206604E+02+
*       -3.620009591E+00               0
GRID*               6457               0-6.651259163E+001.2393703544E+02+
*       -3.619956211E+00               0
GRID*               6458               0-7.651920033E+001.2526209693E+02+
*       -5.430004727E+00               0
GRID*               6459               0-5.423256311E+001.2281763638E+02+
*       -1.810061457E+00               0
GRID*               6460               0-5.423150236E+001.2281755499E+02+
*       -3.620078331E+00               0
GRID*               6461               0-4.011389557E+001.2194348766E+02+
*       -3.620032508E+00               0
GRID*               6462               0-5.423313207E+001.2281768004E+02+
*       -5.430052520E+00               0
GRID*               6463               0-2.463020441E+001.2134359379E+02+
*       -1.809992290E+00               0
GRID*               6464               0-2.463031086E+001.2134359821E+02+
*       -3.619990878E+00               0
GRID*               6465               0-8.300586639E-011.2103843892E+02+
*       -3.620043583E+00               0
GRID*               6466               0-2.463034761E+001.2134359973E+02+
*       -5.429990415E+00               0
GRID*               6467               08.3103634267E-011.2103856718E+02+
*       -1.810080977E+00               0
GRID*               6468               08.3086522886E-011.2103854475E+02+
*       -3.620059296E+00               0
GRID*               6469               02.4629797697E+001.2134357724E+02+
*       -3.620002623E+00               0
GRID*               6470               08.3064979576E-011.2103851651E+02+
*       -5.430031986E+00               0
GRID*               6471               04.0111557837E+001.2194339047E+02+
*       -1.809936075E+00               0
GRID*               6472               04.0113192403E+001.2194345829E+02+
*       -3.619958390E+00               0
GRID*               6473               05.4241305808E+001.2281830725E+02+
*       -3.620077707E+00               0
GRID*               6474               04.0117956431E+001.2194365596E+02+
*       -5.430023350E+00               0
GRID*               6475               06.6511957025E+001.2393695315E+02+
*       -1.810031155E+00               0
GRID*               6476               06.6511411901E+001.2393688215E+02+
*       -3.620019929E+00               0
GRID*               6477               07.6518041950E+001.2526194564E+02+
*       -3.619971810E+00               0
GRID*               6478               06.6510925675E+001.2393681883E+02+
*       -5.430009919E+00               0
GRID*               6479               08.3921945748E+001.2674896511E+02+
*       -1.810013688E+00               0
GRID*               6480               08.3923619506E+001.2674936915E+02+
*       -3.620068778E+00               0
GRID*               6481               08.8467280955E+001.2834661980E+02+
*       -3.620046089E+00               0
GRID*               6482               08.3923208262E+001.2674926987E+02+
*       -5.430055298E+00               0
GRID*               6483               09.0000000000E+001.2999999741E+02+
*       -1.810000038E+00               0
GRID*               6484               09.0000000000E+001.2999999741E+02+
*       -3.620000076E+00               0
GRID*               6485               08.8466874809E+001.3165368967E+02+
*       -3.619994018E+00               0
GRID*               6486               09.0000000000E+001.2999999741E+02+
*       -5.430000114E+00               0
GRID*               6487               08.3918876541E+001.3325177587E+02+
*       -1.810088015E+00               0
GRID*               6488               08.3919410589E+001.3325164701E+02+
*       -3.620070501E+00               0
GRID*               6489               07.6518967296E+001.3473793144E+02+
*       -3.620009591E+00               0
GRID*               6490               08.3920343356E+001.3325142193E+02+
*       -5.430039877E+00               0
GRID*               6491               06.6512803616E+001.3606294038E+02+
*       -1.809952404E+00               0
GRID*               6492               06.6512621545E+001.3606296411E+02+
*       -3.619956210E+00               0
GRID*               6493               05.4231522729E+001.3718244139E+02+
*       -3.620078330E+00               0
GRID*               6494               06.6511221527E+001.3606314664E+02+
*       -5.429985204E+00               0
GRID*               6495               04.0112662012E+001.3805655748E+02+
*       -1.810049217E+00               0
GRID*               6496               04.0113891145E+001.3805650649E+02+
*       -3.620032508E+00               0
GRID*               6497               02.4630302219E+001.3865639496E+02+
*       -3.619990878E+00               0
GRID*               6498               04.0115069218E+001.3805645763E+02+
*       -5.430016494E+00               0
GRID*               6499               08.3074455476E-011.3896146872E+02+
*       -1.809956353E+00               0
GRID*               6500               08.3005781753E-011.3896155947E+02+
*       -3.620043583E+00               0
GRID*               6501               0-8.308642696E-011.3896145279E+02+
*       -3.620059296E+00               0
GRID*               6502               08.2997895410E-011.3896156989E+02+
*       -5.430053636E+00               0
GRID*               6503               0-2.462990932E+001.3865641094E+02+
*       -1.810004223E+00               0
GRID*               6504               0-2.462978906E+001.3865641593E+02+
*       -3.620002623E+00               0
GRID*               6505               0-4.011318801E+001.3805653585E+02+
*       -3.619958390E+00               0
GRID*               6506               0-2.462969137E+001.3865641998E+02+
*       -5.430001330E+00               0
GRID*               6507               0-5.424170084E+001.3718166217E+02+
*       -1.810083468E+00               0
GRID*               6508               0-5.424133447E+001.3718169022E+02+
*       -3.620077706E+00               0
GRID*               6509               0-6.651144259E+001.3606311746E+02+
*       -3.620019930E+00               0
GRID*               6510               0-5.423939463E+001.3718183873E+02+
*       -5.430047000E+00               0
GRID*               6511               0-7.651814873E+001.3473803858E+02+
*       -1.809973880E+00               0
GRID*               6512               0-7.651804670E+001.3473805189E+02+
*       -3.619971809E+00               0
GRID*               6513               0-8.392363236E+001.3325062845E+02+
*       -3.620068777E+00               0
GRID*               6514               0-7.651830643E+001.3473801802E+02+
*       -5.429977219E+00               0
GRID*               6515               0-8.391938701E+001.2674834759E+02+
*       -7.081388415E-05               0
GRID*               6516               0-7.651815773E+001.2526196115E+02+
*       1.8099738811E+00               0
GRID*               6517               0-7.651839694E+001.2526199230E+02+
*       -2.121439849E-05               0
GRID*               6518               0-6.651247377E+001.2393702009E+02+
*       4.1433528635E-05               0
GRID*               6519               0-5.424169258E+001.2281833690E+02+
*       1.8100834694E+00               0
GRID*               6520               0-5.423847661E+001.2281809013E+02+
*       3.2403652293E-05               0
GRID*               6521               0-4.011172416E+001.2194339757E+02+
*       -6.201636592E-05               0
GRID*               6522               0-2.462994292E+001.2134358294E+02+
*       1.8100042238E+00               0
GRID*               6523               0-2.463007476E+001.2134358841E+02+
*       5.9818211941E-06               0
GRID*               6524               0-8.310558688E-011.2103856964E+02+
*       8.3087715688E-05               0
GRID*               6525               08.3074291705E-011.2103852872E+02+
*       1.8099563524E+00               0
GRID*               6526               08.3105328619E-011.2103856940E+02+
*       -8.308776248E-05               0
GRID*               6527               02.4630049793E+001.2134358770E+02+
*       -5.981611204E-06               0
GRID*               6528               04.0112643243E+001.2194343551E+02+
*       1.8100492166E+00               0
GRID*               6529               04.0111700908E+001.2194339641E+02+
*       6.2016719968E-05               0
GRID*               6530               05.4238455971E+001.2281808857E+02+
*       -3.240468611E-05               0
GRID*               6531               06.6512756305E+001.2393705725E+02+
*       1.8099524066E+00               0
GRID*               6532               06.6512456281E+001.2393701817E+02+
*       -4.143313477E-05               0
GRID*               6533               07.6518383261E+001.2526199009E+02+
*       2.1214742668E-05               0
GRID*               6534               08.3918855898E+001.2674821923E+02+
*       1.8100880166E+00               0
GRID*               6535               08.3919377656E+001.2674834518E+02+
*       7.0813435037E-05               0
GRID*               6536               08.8467610810E+001.2834687058E+02+
*       -7.784547146E-05               0
GRID*               6537               09.0000000000E+001.2999999741E+02+
*       1.8100000381E+00               0
GRID*               6538               09.0000000000E+001.2999999741E+02+
*       -1.467199149E-12               0
GRID*               6539               08.8467619295E+001.3165312423E+02+
*       7.7846865203E-05               0
GRID*               6540               08.3921967335E+001.3325103007E+02+
*       1.8100136846E+00               0
GRID*               6541               08.3919398437E+001.3325164994E+02+
*       -7.081359590E-05               0
GRID*               6542               07.6518401459E+001.3473800521E+02+
*       -2.121519280E-05               0
GRID*               6543               06.6512004857E+001.3606304451E+02+
*       1.8100311571E+00               0
GRID*               6544               06.6512503795E+001.3606297947E+02+
*       4.1435286266E-05               0
GRID*               6545               05.4238502785E+001.3718190703E+02+
*       3.2402126734E-05               0
GRID*               6546               04.0111576576E+001.3805660251E+02+
*       1.8099360745E+00               0
GRID*               6547               04.0111719646E+001.3805659657E+02+
*       -6.201697274E-05               0
GRID*               6548               02.4630066116E+001.3865640476E+02+
*       5.9815862684E-06               0
GRID*               6549               08.3103794476E-011.3896142994E+02+
*       1.8100809778E+00               0
GRID*               6550               08.3105488484E-011.3896142771E+02+
*       8.3087916270E-05               0
GRID*               6551               0-8.310523022E-011.3896142795E+02+
*       -8.308796254E-05               0
GRID*               6552               0-2.463017080E+001.3865640009E+02+
*       1.8099922904E+00               0
GRID*               6553               0-2.463004115E+001.3865640547E+02+
*       -5.981376042E-06               0
GRID*               6554               0-4.011169640E+001.3805659773E+02+
*       6.2017327157E-05               0
GRID*               6555               0-5.423256367E+001.3718236168E+02+
*       1.8100614563E+00               0
GRID*               6556               0-5.423848215E+001.3718190858E+02+
*       -3.240316004E-05               0
GRID*               6557               0-6.651248630E+001.3606298138E+02+
*       -4.143489218E-05               0
GRID*               6558               0-7.651867344E+001.3473797017E+02+
*       1.8100153471E+00               0
GRID*               6559               0-7.651838778E+001.3473800742E+02+
*       2.1215537156E-05               0
GRID*               6560               0-8.391938908E+001.3325165236E+02+
*       7.0813147013E-05               0
GRID*               6561               0-8.392362887E+001.2674937156E+02+
*       3.6200687776E+00               0
GRID*               6562               0-7.651831550E+001.2526198170E+02+
*       5.4299772200E+00               0
GRID*               6563               0-7.651805563E+001.2526194785E+02+
*       3.6199718101E+00               0
GRID*               6564               0-6.651142938E+001.2393688407E+02+
*       3.6200199294E+00               0
GRID*               6565               0-5.423938831E+001.2281816009E+02+
*       5.4300470005E+00               0
GRID*               6566               0-5.424132651E+001.2281830881E+02+
*       3.6200777072E+00               0
GRID*               6567               0-4.011321560E+001.2194345945E+02+
*       3.6199583893E+00               0
GRID*               6568               0-2.462972496E+001.2134357390E+02+
*       5.4300013302E+00               0
GRID*               6569               0-2.462982265E+001.2134357795E+02+
*       3.6200026232E+00               0
GRID*               6570               0-8.308678136E-011.2103854499E+02+
*       3.6200592958E+00               0
GRID*               6571               08.2997720928E-011.2103842834E+02+
*       5.4300536362E+00               0
GRID*               6572               08.3005608617E-011.2103843868E+02+
*       3.6200435824E+00               0
GRID*               6573               02.4630285890E+001.2134359750E+02+
*       3.6199908780E+00               0
GRID*               6574               04.0115050362E+001.2194353538E+02+
*       5.4300164941E+00               0
GRID*               6575               04.0113872332E+001.2194348650E+02+
*       3.6200325082E+00               0
GRID*               6576               05.4231481668E+001.2281755342E+02+
*       3.6200783312E+00               0
GRID*               6577               06.6511173336E+001.2393685109E+02+
*       5.4299852019E+00               0
GRID*               6578               06.6512574153E+001.2393703352E+02+
*       3.6199562112E+00               0
GRID*               6579               07.6518949471E+001.2526206384E+02+
*       3.6200095911E+00               0
GRID*               6580               08.3920322213E+001.2674857319E+02+
*       5.4300398776E+00               0
GRID*               6581               08.3919389757E+001.2674834810E+02+
*       3.6200705028E+00               0
GRID*               6582               08.8466867106E+001.2834630517E+02+
*       3.6199940139E+00               0
GRID*               6583               09.0000000000E+001.2999999741E+02+
*       5.4300001144E+00               0
GRID*               6584               09.0000000000E+001.2999999741E+02+
*       3.6200000763E+00               0
GRID*               6585               08.8467289120E+001.3165337500E+02+
*       3.6200460907E+00               0
GRID*               6586               08.3923230363E+001.3325072530E+02+
*       5.4300552969E+00               0
GRID*               6587               08.3923641722E+001.3325062604E+02+
*       3.6200687763E+00               0
GRID*               6588               07.6518060375E+001.3473804968E+02+
*       3.6199718092E+00               0
GRID*               6589               06.6510974152E+001.3606317889E+02+
*       5.4300099198E+00               0
GRID*               6590               06.6511460075E+001.3606311554E+02+
*       3.6200199303E+00               0
GRID*               6591               05.4241355172E+001.3718168866E+02+
*       3.6200777063E+00               0
GRID*               6592               04.0117975409E+001.3805633707E+02+
*       5.4300233506E+00               0
GRID*               6593               04.0113211214E+001.3805653470E+02+
*       3.6199583897E+00               0
GRID*               6594               02.4629814013E+001.3865641522E+02+
*       3.6200026231E+00               0
GRID*               6595               08.3065145020E-011.3896148102E+02+
*       5.4300319864E+00               0
GRID*               6596               08.3086685434E-011.3896145255E+02+
*       3.6200592959E+00               0
GRID*               6597               0-8.300552398E-011.3896155971E+02+
*       3.6200435822E+00               0
GRID*               6598               0-2.463031400E+001.3865639415E+02+
*       5.4299904159E+00               0
GRID*               6599               0-2.463027725E+001.3865639568E+02+
*       3.6199908783E+00               0
GRID*               6600               0-4.011386790E+001.3805650765E+02+
*       3.6200325086E+00               0
GRID*               6601               0-5.423313312E+001.3718231808E+02+
*       5.4300525195E+00               0
GRID*               6602               0-5.423150203E+001.3718244295E+02+
*       3.6200783303E+00               0
GRID*               6603               0-6.651260406E+001.3606296603E+02+
*       3.6199562101E+00               0
GRID*               6604               0-7.651919068E+001.3473790274E+02+
*       5.4300047275E+00               0
GRID*               6605               0-7.651895363E+001.3473793364E+02+
*       3.6200095915E+00               0
GRID*               6606               0-8.391940121E+001.3325164943E+02+
*       3.6200705016E+00               0
GRID*               6607               0-8.846634661E+001.2834590839E+02+
*       -5.430044751E+00               0
GRID*               6608               0-8.846657773E+001.2834608410E+02+
*       -7.240022485E+00               0
GRID*               6609               0-8.392117804E+001.2674877994E+02+
*       -7.240012075E+00               0
GRID*               6610               0-8.846749375E+001.2834678051E+02+
*       -1.809933952E+00               0
GRID*               6611               0-8.846687186E+001.2834630771E+02+
*       -3.619994015E+00               0
GRID*               6612               0-8.846750112E+001.2834678611E+02+
*       1.8100668392E+00               0
GRID*               6613               0-8.846761558E+001.2834687313E+02+
*       7.7845685897E-05               0
GRID*               6614               0-8.846705653E+001.2834644811E+02+
*       5.4300240082E+00               0
GRID*               6615               0-8.846728572E+001.2834662235E+02+
*       3.6200460897E+00               0
GRID*               6616               0-8.846687930E+001.2834631337E+02+
*       7.2400069389E+00               0
GRID*               6617               0-8.392213421E+001.2674901076E+02+
*       7.2400197050E+00               0
GRID*               6618               0-7.651975011E+001.2526216853E+02+
*       7.2400069087E+00               0
GRID*               6619               0-6.651059899E+001.2393677593E+02+
*       7.2400028427E+00               0
GRID*               6620               0-5.423735434E+001.2281800402E+02+
*       7.2400147672E+00               0
GRID*               6621               0-4.011786731E+001.2194365245E+02+
*       7.2400218624E+00               0
GRID*               6622               0-2.462965964E+001.2134357119E+02+
*       7.2400004781E+00               0
GRID*               6623               0-8.304743482E-011.2103849341E+02+
*       7.2400094224E+00               0
GRID*               6624               08.3023041304E-011.2103846154E+02+
*       7.2400215324E+00               0
GRID*               6625               02.4630090332E+001.2134358938E+02+
*       7.2399936196E+00               0
GRID*               6626               04.0115917167E+001.2194357135E+02+
*       7.2400047177E+00               0
GRID*               6627               05.4235329419E+001.2281784867E+02+
*       7.2400173680E+00               0
GRID*               6628               06.6509581510E+001.2393664377E+02+
*       7.2400181425E+00               0
GRID*               6629               07.6519349406E+001.2526211592E+02+
*       7.2400014013E+00               0
GRID*               6630               08.3921168666E+001.2674877752E+02+
*       7.2400120747E+00               0
GRID*               6631               08.8466572968E+001.2834608155E+02+
*       7.2400224849E+00               0
GRID*               6632               09.0000000000E+001.2999999741E+02+
*       7.2400001526E+00               0
GRID*               6633               08.8466882292E+001.3165368398E+02+
*       7.2400069391E+00               0
GRID*               6634               08.3922146580E+001.3325098681E+02+
*       7.2400197048E+00               0
GRID*               6635               07.6519753784E+001.3473782890E+02+
*       7.2400069093E+00               0
GRID*               6636               06.6510630208E+001.3606322373E+02+
*       7.2400028428E+00               0
GRID*               6637               05.4237379643E+001.3718199301E+02+
*       7.2400147670E+00               0
GRID*               6638               04.0117863046E+001.3805634173E+02+
*       7.2400218625E+00               0
GRID*               6639               02.4629650998E+001.3865642198E+02+
*       7.2400004781E+00               0
GRID*               6640               08.3047344308E-011.3896150454E+02+
*       7.2400094224E+00               0
GRID*               6641               0-8.302295408E-011.3896153667E+02+
*       7.2400215324E+00               0
GRID*               6642               0-2.463008170E+001.3865640379E+02+
*       7.2399936197E+00               0
GRID*               6643               0-4.011591283E+001.3805642282E+02+
*       7.2400047178E+00               0
GRID*               6644               0-5.423535304E+001.3718214814E+02+
*       7.2400173678E+00               0
GRID*               6645               0-6.650961337E+001.3606335595E+02+
*       7.2400181431E+00               0
GRID*               6646               0-7.651935331E+001.3473788154E+02+
*       7.2400014014E+00               0
GRID*               6647               0-8.392118071E+001.3325122003E+02+
*       7.2400120745E+00               0
GRID*               6648               0-8.846657567E+001.3165391580E+02+
*       7.2400224850E+00               0
GRID*               6649               0-8.846634432E+001.3165409151E+02+
*       5.4300447517E+00               0
GRID*               6650               0-8.846749258E+001.3165321940E+02+
*       1.8099339522E+00               0
GRID*               6651               0-8.846687006E+001.3165369221E+02+
*       3.6199940173E+00               0
GRID*               6652               0-8.846749997E+001.3165321379E+02+
*       -1.810066840E+00               0
GRID*               6653               0-8.846761453E+001.3165312678E+02+
*       -7.784665072E-05               0
GRID*               6654               0-8.846705494E+001.3165355179E+02+
*       -5.430024009E+00               0
GRID*               6655               0-8.846728435E+001.3165337755E+02+
*       -3.620046090E+00               0
GRID*               6656               0-8.846687753E+001.3165368653E+02+
*       -7.240006939E+00               0
GRID*               6657               0-8.392213721E+001.3325098923E+02+
*       -7.240019705E+00               0
GRID*               6658               0-7.651974014E+001.3473783110E+02+
*       -7.240006910E+00               0
GRID*               6659               0-6.651061273E+001.3606322565E+02+
*       -7.240002843E+00               0
GRID*               6660               0-5.423735894E+001.3718199457E+02+
*       -7.240014767E+00               0
GRID*               6661               0-4.011783983E+001.3805634289E+02+
*       -7.240021862E+00               0
GRID*               6662               0-2.462962605E+001.3865642269E+02+
*       -7.240000478E+00               0
GRID*               6663               0-8.304708598E-011.3896150478E+02+
*       -7.240009422E+00               0
GRID*               6664               08.3023212400E-011.3896153643E+02+
*       -7.240021532E+00               0
GRID*               6665               02.4630106657E+001.3865640308E+02+
*       -7.239993620E+00               0
GRID*               6666               04.0115936055E+001.3805642167E+02+
*       -7.240004718E+00               0
GRID*               6667               05.4235373739E+001.3718214657E+02+
*       -7.240017368E+00               0
GRID*               6668               06.6509630836E+001.3606335403E+02+
*       -7.240018143E+00               0
GRID*               6669               07.6519366968E+001.3473787933E+02+
*       -7.240001401E+00               0
GRID*               6670               08.3921190086E+001.3325121762E+02+
*       -7.240012074E+00               0
GRID*               6671               08.8466580432E+001.3165391325E+02+
*       -7.240022485E+00               0
GRID*               6672               09.0000000000E+001.2999999741E+02+
*       -7.240000153E+00               0
GRID*               6673               08.8466874533E+001.2834631082E+02+
*       -7.240006939E+00               0
GRID*               6674               08.3922124841E+001.2674900834E+02+
*       -7.240019705E+00               0
GRID*               6675               07.6519736471E+001.2526216633E+02+
*       -7.240006909E+00               0
GRID*               6676               06.6510581518E+001.2393677401E+02+
*       -7.240002843E+00               0
GRID*               6677               05.4237333633E+001.2281800245E+02+
*       -7.240014767E+00               0
GRID*               6678               04.0117844091E+001.2194365130E+02+
*       -7.240021862E+00               0
GRID*               6679               02.4629634687E+001.2134357048E+02+
*       -7.240000478E+00               0
GRID*               6680               08.3047176485E-011.2103849317E+02+
*       -7.240009422E+00               0
GRID*               6681               0-8.302329962E-011.2103846178E+02+
*       -7.240021532E+00               0
GRID*               6682               0-2.463011529E+001.2134359009E+02+
*       -7.239993620E+00               0
GRID*               6683               0-4.011594039E+001.2194357250E+02+
*       -7.240004718E+00               0
GRID*               6684               0-5.423535012E+001.2281785023E+02+
*       -7.240017368E+00               0
GRID*               6685               0-6.650959898E+001.2393664569E+02+
*       -7.240018143E+00               0
GRID*               6686               0-7.651936306E+001.2526211813E+02+
*       -7.240001401E+00               0
GRID*               5433               0-1.807610047E+003.6177360688E+01+
*       -2.091219948E+00               0
GRID*               5434               0-6.595816389E-044.3848394116E+01+
*       -2.762348365E+00               0
GRID*               5435               02.5191852208E-044.7234471014E+01+
*       -3.058591533E+00               0
GRID*               5436               02.5091400462E-035.0441030885E+01+
*       -3.339129165E+00               0
GRID*               5437               07.2933802243E-035.3556887010E+01+
*       -3.611731245E+00               0
GRID*               5438               01.9022182866E-025.6147510303E+01+
*       -3.838381405E+00               0
GRID*               5439               01.8087557840E+003.6172391384E+01+
*       -2.090785215E+00               0
GRID*               5440               04.1876939412E-043.9809647427E+01+
*       -2.409003841E+00               0
GRID*               5441               0-2.583836713E+003.4677235904E+01+
*       -1.959976044E+00               0
GRID*               5442               0-9.037093077E-013.4762991035E+01+
*       -1.967478650E+00               0
GRID*               5443               0-4.275171043E+003.4458250666E+01+
*       -1.940817312E+00               0
GRID*               5444               0-3.498944378E+003.5958375454E+01+
*       -2.072061215E+00               0
GRID*               5445               0-2.919933126E+003.7566300376E+01+
*       -2.212736449E+00               0
GRID*               5446               01.9651518628E-027.4444855365E+01+
*       -5.439191606E+00               0
GRID*               5447               01.3868742534E+004.4755579809E+01+
*       -2.841716733E+00               0
GRID*               5448               01.6116635298E+004.3061964696E+01+
*       -2.693544717E+00               0
GRID*               5449               01.3873300101E+004.6448618256E+01+
*       -2.989838326E+00               0
GRID*               5450               01.2625773372E+004.8033751250E+01+
*       -3.128519492E+00               0
GRID*               5451               0-2.038308891E-044.5541432558E+01+
*       -2.910469866E+00               0
GRID*               5452               0-1.387533837E+004.4755579810E+01+
*       -2.841716760E+00               0
GRID*               5453               0-1.387078092E+004.6448618256E+01+
*       -2.989838326E+00               0
GRID*               5454               0-1.260141917E+004.8061495274E+01+
*       -3.130946779E+00               0
GRID*               5455               01.3805292634E-034.8837750954E+01+
*       -3.198860350E+00               0
GRID*               5456               0-1.259013305E+004.9664775202E+01+
*       -3.271215595E+00               0
GRID*               5457               01.2637059466E+004.9637031180E+01+
*       -3.268788307E+00               0
GRID*               5458               01.1389532735E+005.1222164163E+01+
*       -3.407469470E+00               0
GRID*               5459               0-1.132077129E+005.1277652208E+01+
*       -3.412324045E+00               0
GRID*               5460               04.9012601194E-035.1998958949E+01+
*       -3.475430205E+00               0
GRID*               5461               0-1.129685008E+005.2835580268E+01+
*       -3.548625084E+00               0
GRID*               5462               01.1413453923E+005.2780092223E+01+
*       -3.543770509E+00               0
GRID*               5463               01.0165927197E+005.4365225202E+01+
*       -3.682451670E+00               0
GRID*               5464               0-1.002748833E+005.4448457270E+01+
*       -3.689733532E+00               0
GRID*               5465               0-1.072846551E-017.2831978361E+01+
*       -5.298083156E+00               0
GRID*               5466               01.7468017642E-027.1246845381E+01+
*       -5.159401994E+00               0
GRID*               5467               01.3157781544E-025.4852198657E+01+
*       -3.725056325E+00               0
GRID*               5468               0-9.968844316E-015.5743768916E+01+
*       -3.803058612E+00               0
GRID*               5469               01.0224571204E+005.5660536849E+01+
*       -3.795776750E+00               0
GRID*               5470               08.9770444834E-015.7245669827E+01+
*       -3.934457910E+00               0
GRID*               5471               0-1.094681556E-016.9633968377E+01+
*       -5.018293545E+00               0
GRID*               5472               01.5284515940E-026.8048835397E+01+
*       -4.879612384E+00               0
GRID*               5473               0-8.699482574E-015.7356645918E+01+
*       -3.944167059E+00               0
GRID*               5474               08.7340091795E-035.8454805465E+01+
*       -4.040243566E+00               0
GRID*               5475               0-1.160186614E-016.0039938439E+01+
*       -4.178924725E+00               0
GRID*               5476               01.0917511598E-026.1652815439E+01+
*       -4.320033172E+00               0
GRID*               5477               0-1.116516571E-016.6435958394E+01+
*       -4.738503937E+00               0
GRID*               5478               01.3101013884E-026.4850825416E+01+
*       -4.599822777E+00               0
GRID*               5479               0-1.138351591E-016.3237948415E+01+
*       -4.458714330E+00               0
GRID*               5480               04.2752541115E+003.4458242610E+01+
*       -1.940816615E+00               0
GRID*               5481               0-1.612323117E+004.3061964697E+01+
*       -2.693544714E+00               0
GRID*               5482               03.4995172525E+003.5955890802E+01+
*       -2.071843851E+00               0
GRID*               5483               02.9205059875E+003.7563815725E+01+
*       -2.212519041E+00               0
GRID*               5484               02.5844926439E+003.4674743188E+01+
*       -1.959758032E+00               0
GRID*               5485               09.0447361332E-013.4760506383E+01+
*       -1.967261282E+00               0
GRID*               5486               05.7286744736E-043.6174876036E+01+
*       -2.091002583E+00               0
GRID*               5487               0-9.035956419E-013.7993504061E+01+
*       -2.250111875E+00               0
GRID*               5488               0-2.015918710E+003.9382443751E+01+
*       -2.371628316E+00               0
GRID*               5489               09.0458727459E-013.7991019410E+01+
*       -2.249894440E+00               0
GRID*               5490               02.0163374882E+003.9382443755E+01+
*       -2.371628291E+00               0
GRID*               5491               0-1.611783943E+004.1042591351E+01+
*       -2.516872487E+00               0
GRID*               5492               0-1.204037682E-044.1829020771E+01+
*       -2.585676126E+00               0
GRID*               5493               01.6122027067E+004.1042591350E+01+
*       -2.516872475E+00               0
GRID*               5528               01.8074956477E+003.6177332795E+01+
*       2.0912174977E+00               0
GRID*               5529               01.1956747109E-044.3848381790E+01+
*       2.7623472862E+00               0
GRID*               5530               04.3115610067E-044.7234469449E+01+
*       3.0585913959E+00               0
GRID*               5531               02.5439801054E-035.0441030685E+01+
*       3.3391291476E+00               0
GRID*               5532               07.2985848708E-035.3556887007E+01+
*       3.6117312443E+00               0
GRID*               5533               01.9022981369E-025.6147510190E+01+
*       3.8383813952E+00               0
GRID*               5534               0-1.808926494E+003.6172400333E+01+
*       2.0907859627E+00               0
GRID*               5535               0-3.357276240E-043.9809648284E+01+
*       2.4090039163E+00               0
GRID*               5536               02.5838625756E+003.4677213893E+01+
*       1.9599741909E+00               0
GRID*               5537               09.0384354500E-013.4762977088E+01+
*       1.9674774365E+00               0
GRID*               5538               04.2752541115E+003.4458242610E+01+
*       1.9408166145E+00               0
GRID*               5539               03.4988871841E+003.5958361507E+01+
*       2.0720600093E+00               0
GRID*               5540               02.9198759227E+003.7566286427E+01+
*       2.2127352289E+00               0
GRID*               5541               01.9651518628E-027.4444855365E+01+
*       5.4391916064E+00               0
GRID*               5542               0-1.387144261E+004.4755573647E+01+
*       2.8417161937E+00               0
GRID*               5543               0-1.611933537E+004.3061958533E+01+
*       2.6935441779E+00               0
GRID*               5544               0-1.386988473E+004.6448617473E+01+
*       2.9898382575E+00               0
GRID*               5545               0-1.260052298E+004.8061494491E+01+
*       3.1309467106E+00               0
GRID*               5546               02.7536111134E-044.5541425613E+01+
*       2.9104692580E+00               0
GRID*               5547               01.3872638302E+004.4755573647E+01+
*       2.8417162207E+00               0
GRID*               5548               01.3874196289E+004.6448617473E+01+
*       2.9898382575E+00               0
GRID*               5549               01.2626669560E+004.8033750468E+01+
*       3.1285194231E+00               0
GRID*               5550               01.4875680822E-034.8837750072E+01+
*       3.1988602727E+00               0
GRID*               5551               0-1.258995884E+004.9664775102E+01+
*       3.2712155858E+00               0
GRID*               5552               01.2637233666E+004.9637031080E+01+
*       3.2687882984E+00               0
GRID*               5553               01.1389706935E+005.1222164063E+01+
*       3.4074694610E+00               0
GRID*               5554               0-1.132059709E+005.1277652108E+01+
*       3.4123240358E+00               0
GRID*               5555               04.9212824722E-035.1998958848E+01+
*       3.4754301965E+00               0
GRID*               5556               0-1.129682406E+005.2835580266E+01+
*       3.5486250838E+00               0
GRID*               5557               01.1413479946E+005.2780092222E+01+
*       3.5437705092E+00               0
GRID*               5558               01.0165953220E+005.4365225201E+01+
*       3.6824516699E+00               0
GRID*               5559               0-1.002746231E+005.4448457268E+01+
*       3.6897335319E+00               0
GRID*               5560               0-1.072846551E-017.2831978361E+01+
*       5.2980831559E+00               0
GRID*               5561               01.7468017642E-027.1246845381E+01+
*       5.1594019938E+00               0
GRID*               5562               01.3160783118E-025.4852198599E+01+
*       3.7250563200E+00               0
GRID*               5563               0-9.968840324E-015.5743768859E+01+
*       3.8030586073E+00               0
GRID*               5564               01.0224575196E+005.5660536792E+01+
*       3.7957767453E+00               0
GRID*               5565               08.9770484759E-015.7245669770E+01+
*       3.9344579051E+00               0
GRID*               5566               0-1.094681556E-016.9633968377E+01+
*       5.0182935450E+00               0
GRID*               5567               01.5284515940E-026.8048835397E+01+
*       4.8796123843E+00               0
GRID*               5568               0-8.699478581E-015.7356645861E+01+
*       3.9441670545E+00               0
GRID*               5569               08.7340091795E-035.8454805465E+01+
*       4.0402435662E+00               0
GRID*               5570               0-1.160186614E-016.0039938439E+01+
*       4.1789247251E+00               0
GRID*               5571               01.0917511598E-026.1652815439E+01+
*       4.3200331715E+00               0
GRID*               5572               0-1.116516571E-016.6435958394E+01+
*       4.7385039368E+00               0
GRID*               5573               01.3101013884E-026.4850825416E+01+
*       4.5998227772E+00               0
GRID*               5574               0-1.138351591E-016.3237948415E+01+
*       4.4587143305E+00               0
GRID*               5575               0-4.275171043E+003.4458250666E+01+
*       1.9408173113E+00               0
GRID*               5576               01.6120531095E+004.3061958534E+01+
*       2.6935441747E+00               0
GRID*               5577               0-3.499602601E+003.5955895277E+01+
*       2.0718442254E+00               0
GRID*               5578               0-2.920591345E+003.7563820201E+01+
*       2.2125194322E+00               0
GRID*               5579               0-2.584494934E+003.4674755727E+01+
*       1.9597590491E+00               0
GRID*               5580               0-9.043675291E-013.4760510862E+01+
*       1.9672616504E+00               0
GRID*               5581               0-7.154236955E-043.6174866563E+01+
*       2.0910017302E+00               0
GRID*               5582               0-9.046311115E-013.7991024314E+01+
*       2.2498948694E+00               0
GRID*               5583               0-2.016295967E+003.9382444183E+01+
*       2.3716283289E+00               0
GRID*               5584               09.0357995929E-013.7993490540E+01+
*       2.2501106920E+00               0
GRID*               5585               02.0159602307E+003.9382444180E+01+
*       2.3716283530E+00               0
GRID*               5586               01.6118254639E+004.1042591779E+01+
*       2.5168725241E+00               0
GRID*               5587               0-1.080824300E-044.1829015036E+01+
*       2.5856756241E+00               0
GRID*               5588               0-1.612161186E+004.1042591779E+01+
*       2.5168725120E+00               0
GRID*               6147               0-2.291624029E+012.5539574310E+01+
*       -1.625337015E+00               0
GRID*               6148               0-2.370324419E+012.4988508650E+01+
*       -4.640741502E+00               0
GRID*               6149               0-3.630077015E+011.6167626016E+01+
*       0.0000000000E+00               0
GRID*               6150               0-3.482838559E+011.7198598642E+01+
*       -3.601786467E+00               0
GRID*               6151               0-3.482838559E+011.7198598642E+01+
*       3.6017864672E+00               0
GRID*               6152               0-2.370237373E+012.4989118152E+01+
*       4.6421608986E+00               0
GRID*               6153               0-2.291510055E+012.5540372363E+01+
*       1.6259042785E+00               0
GRID*               6154               0-2.904375043E+012.1249045081E+01+
*       -5.775000106E+00               0
GRID*               6155               0-2.736231969E+012.2426395681E+01+
*       -5.775000105E+00               0
GRID*               6156               0-3.040321459E+012.0297138044E+01+
*       -5.251043379E+00               0
GRID*               6157               0-3.228388598E+011.8980276888E+01+
*       -5.251043374E+00               0
GRID*               6158               0-2.176430892E+012.6346164463E+01+
*       -5.625000000E+00               0
GRID*               6159               0-2.344775537E+012.5167403263E+01+
*       -6.070370751E+00               0
GRID*               6160               0-2.201979769E+012.6167269782E+01+
*       -4.195370749E+00               0
GRID*               6161               0-2.434865544E+012.4536585472E+01+
*       -2.313711758E+00               0
GRID*               6162               0-2.368312055E+012.5002599114E+01+
*       -8.126685081E-01               0
GRID*               6163               0-2.330974159E+012.5264040562E+01+
*       -3.133039261E+00               0
GRID*               6164               0-2.162629584E+012.6442802748E+01+
*       -2.687668505E+00               0
GRID*               6165               0-2.474215814E+012.4261053712E+01+
*       -3.821414000E+00               0
GRID*               6166               0-2.496394177E+012.4105757884E+01+
*       -6.070370756E+00               0
GRID*               6167               0-2.600285561E+012.3378302789E+01+
*       -5.251043248E+00               0
GRID*               6168               0-3.727753855E+011.5483684960E+01+
*       -1.875000003E+00               0
GRID*               6169               0-3.770580122E+011.5183812974E+01+
*       0.0000000000E+00               0
GRID*               6170               0-3.368919230E+011.7996270861E+01+
*       -1.800893234E+00               0
GRID*               6171               0-3.556457786E+011.6683112313E+01+
*       -1.800893240E+00               0
GRID*               6172               0-3.442538463E+011.7480784630E+01+
*       0.0000000000E+00               0
GRID*               6173               0-3.302365701E+011.8462284455E+01+
*       -3.301936608E+00               0
GRID*               6174               0-3.408861516E+011.7716591935E+01+
*       -5.550893237E+00               0
GRID*               6175               0-3.654134615E+011.5999171096E+01+
*       -3.675893232E+00               0
GRID*               6176               0-3.611308341E+011.6299042969E+01+
*       -5.550893234E+00               0
GRID*               6177               0-3.727753855E+011.5483684960E+01+
*       1.8750000033E+00               0
GRID*               6178               0-3.368919230E+011.7996270861E+01+
*       1.8008932341E+00               0
GRID*               6179               0-3.556457786E+011.6683112313E+01+
*       1.8008932399E+00               0
GRID*               6180               0-3.302365701E+011.8462284455E+01+
*       3.3019366084E+00               0
GRID*               6181               0-3.408861516E+011.7716591935E+01+
*       5.5508932367E+00               0
GRID*               6182               0-3.228388598E+011.8980276888E+01+
*       5.2510433735E+00               0
GRID*               6183               0-3.654134615E+011.5999171096E+01+
*       3.6758932319E+00               0
GRID*               6184               0-3.611308341E+011.6299042969E+01+
*       5.5508932336E+00               0
GRID*               6185               0-2.162629585E+012.6442802770E+01+
*       -8.126685075E-01               0
GRID*               6186               0-2.176430892E+012.6346164463E+01+
*       5.6250000003E+00               0
GRID*               6187               0-2.201936246E+012.6167574533E+01+
*       4.1960804473E+00               0
GRID*               6188               0-2.344732014E+012.5167708013E+01+
*       6.0710804493E+00               0
GRID*               6189               0-2.291567044E+012.5539973373E+01+
*       2.8363161015E-04               0
GRID*               6190               0-2.368255068E+012.5002998140E+01+
*       8.1295213975E-01               0
GRID*               6191               0-2.162572598E+012.6443201796E+01+
*       8.1295213909E-01               0
GRID*               6192               0-2.162572597E+012.6443201774E+01+
*       2.6879521366E+00               0
GRID*               6193               0-2.434808557E+012.4536984498E+01+
*       2.3139953894E+00               0
GRID*               6194               0-2.330873649E+012.5264744341E+01+
*       3.1340325915E+00               0
GRID*               6195               0-2.474172291E+012.4261358464E+01+
*       3.8221236989E+00               0
GRID*               6196               0-2.904375043E+012.1249045081E+01+
*       5.7750001060E+00               0
GRID*               6197               0-2.736231969E+012.2426395681E+01+
*       5.7750001055E+00               0
GRID*               6198               0-3.040321459E+012.0297138044E+01+
*       5.2510433788E+00               0
GRID*               6199               0-2.496350654E+012.4106062635E+01+
*       6.0710804545E+00               0
GRID*               6200               0-2.600285561E+012.3378302789E+01+
*       5.2510432480E+00               0
GRID*               6876               02.2916240291E+012.5539574310E+01+
*       1.6253370153E+00               0
GRID*               6877               02.3703244186E+012.4988508650E+01+
*       4.6407415016E+00               0
GRID*               6878               03.6300770146E+011.6167626016E+01+
*       0.0000000000E+00               0
GRID*               6879               03.4828385589E+011.7198598642E+01+
*       3.6017864672E+00               0
GRID*               6880               03.4828385589E+011.7198598642E+01+
*       -3.601786467E+00               0
GRID*               6881               02.3702373726E+012.4989118152E+01+
*       -4.642160899E+00               0
GRID*               6882               02.2915100554E+012.5540372363E+01+
*       -1.625904279E+00               0
GRID*               6883               02.9043750427E+012.1249045081E+01+
*       5.7750001060E+00               0
GRID*               6884               02.7362319693E+012.2426395681E+01+
*       5.7750001055E+00               0
GRID*               6885               03.0403214593E+012.0297138044E+01+
*       5.2510433788E+00               0
GRID*               6886               03.2283885984E+011.8980276888E+01+
*       5.2510433735E+00               0
GRID*               6887               02.1764308923E+012.6346164463E+01+
*       5.6250000003E+00               0
GRID*               6888               02.3447755367E+012.5167403263E+01+
*       6.0703707508E+00               0
GRID*               6889               02.2019797692E+012.6167269782E+01+
*       4.1953707487E+00               0
GRID*               6890               02.4348655443E+012.4536585472E+01+
*       2.3137117578E+00               0
GRID*               6891               02.3683120550E+012.5002599114E+01+
*       8.1266850814E-01               0
GRID*               6892               02.3309741592E+012.5264040562E+01+
*       3.1330392614E+00               0
GRID*               6893               02.1626295837E+012.6442802748E+01+
*       2.6876685049E+00               0
GRID*               6894               02.4742158138E+012.4261053712E+01+
*       3.8214140004E+00               0
GRID*               6895               02.4963941768E+012.4105757884E+01+
*       6.0703707560E+00               0
GRID*               6896               02.6002855610E+012.3378302789E+01+
*       5.2510432480E+00               0
GRID*               6897               03.7277538552E+011.5483684960E+01+
*       1.8750000033E+00               0
GRID*               6898               03.7705801223E+011.5183812974E+01+
*       0.0000000000E+00               0
GRID*               6899               03.3689192300E+011.7996270861E+01+
*       1.8008932341E+00               0
GRID*               6900               03.5564577856E+011.6683112313E+01+
*       1.8008932399E+00               0
GRID*               6901               03.4425384635E+011.7480784630E+01+
*       0.0000000000E+00               0
GRID*               6902               03.3023657014E+011.8462284455E+01+
*       3.3019366084E+00               0
GRID*               6903               03.4088615159E+011.7716591935E+01+
*       5.5508932367E+00               0
GRID*               6904               03.6541346151E+011.5999171096E+01+
*       3.6758932319E+00               0
GRID*               6905               03.6113083410E+011.6299042969E+01+
*       5.5508932336E+00               0
GRID*               6906               03.7277538552E+011.5483684960E+01+
*       -1.875000003E+00               0
GRID*               6907               03.3689192300E+011.7996270861E+01+
*       -1.800893234E+00               0
GRID*               6908               03.5564577856E+011.6683112313E+01+
*       -1.800893240E+00               0
GRID*               6909               03.3023657014E+011.8462284455E+01+
*       -3.301936608E+00               0
GRID*               6910               03.4088615159E+011.7716591935E+01+
*       -5.550893237E+00               0
GRID*               6911               03.2283885984E+011.8980276888E+01+
*       -5.251043374E+00               0
GRID*               6912               03.6541346151E+011.5999171096E+01+
*       -3.675893232E+00               0
GRID*               6913               03.6113083410E+011.6299042969E+01+
*       -5.550893234E+00               0
GRID*               6914               02.1626295852E+012.6442802770E+01+
*       8.1266850747E-01               0
GRID*               6915               02.1764308923E+012.6346164463E+01+
*       -5.625000000E+00               0
GRID*               6916               02.2019362462E+012.6167574533E+01+
*       -4.196080447E+00               0
GRID*               6917               02.3447320137E+012.5167708013E+01+
*       -6.071080449E+00               0
GRID*               6918               02.2915670445E+012.5539973373E+01+
*       -2.836316101E-04               0
GRID*               6919               02.3682550681E+012.5002998140E+01+
*       -8.129521397E-01               0
GRID*               6920               02.1625725983E+012.6443201796E+01+
*       -8.129521391E-01               0
GRID*               6921               02.1625725968E+012.6443201774E+01+
*       -2.687952137E+00               0
GRID*               6922               02.4348085574E+012.4536984498E+01+
*       -2.313995389E+00               0
GRID*               6923               02.3308736494E+012.5264744341E+01+
*       -3.134032592E+00               0
GRID*               6924               02.4741722908E+012.4261358464E+01+
*       -3.822123699E+00               0
GRID*               6925               02.9043750427E+012.1249045081E+01+
*       -5.775000106E+00               0
GRID*               6926               02.7362319693E+012.2426395681E+01+
*       -5.775000105E+00               0
GRID*               6927               03.0403214593E+012.0297138044E+01+
*       -5.251043379E+00               0
GRID*               6928               02.4963506538E+012.4106062635E+01+
*       -6.071080454E+00               0
GRID*               6929               02.6002855610E+012.3378302789E+01+
*       -5.251043248E+00               0
GRID*               6062               0-2.800472113E+001.1946883613E+02+
*       -9.050000191E+00               0
GRID*               6063               05.2289441305E+001.3981777881E+02+
*       -9.050000191E+00               0
GRID*               6064               07.5613705917E+001.3799244019E+02+
*       -9.050000191E+00               0
GRID*               6065               04.9024920609E+001.2025796862E+02+
*       -9.050000191E+00               0
GRID*               6066               01.2299420598E+001.1897106601E+02+
*       -9.050000191E+00               0
GRID*               6067               09.7607299907E+001.2415836789E+02+
*       -9.050000191E+00               0
GRID*               6068               07.6306564487E+001.2200380124E+02+
*       -9.050000191E+00               0
GRID*               6069               0-1.072440615E+011.2811833834E+02+
*       -9.050000191E+00               0
GRID*               6070               0-1.092746550E+011.3102711720E+02+
*       -9.050000191E+00               0
GRID*               6071               0-6.504451253E+001.2092818043E+02+
*       -9.050000191E+00               0
GRID*               6072               0-9.558635588E+001.2422890550E+02+
*       -9.050000191E+00               0
GRID*               6073               03.8459548120E+001.3923710045E+02+
*       -9.050000191E+00               0
GRID*               6074               05.3262954112E+001.3849992175E+02+
*       -9.050000191E+00               0
GRID*               6075               02.1031429793E+001.4057821104E+02+
*       -9.050000191E+00               0
GRID*               6076               04.5645907832E-011.4073075794E+02+
*       -9.050000191E+00               0
GRID*               6077               03.4861322978E+001.4115888940E+02+
*       -9.050000191E+00               0
GRID*               6078               05.2294527629E+001.4115888940E+02+
*       -9.050000191E+00               0
GRID*               6079               09.4032953267E+001.3777596894E+02+
*       -9.050000191E+00               0
GRID*               6080               08.0806773223E+001.3923170125E+02+
*       -9.050000191E+00               0
GRID*               6081               09.4485803652E+001.3614868669E+02+
*       -9.050000191E+00               0
GRID*               6082               01.0297344467E+011.3437441282E+02+
*       -9.050000191E+00               0
GRID*               6083               07.6066556302E+001.3636515794E+02+
*       -9.050000191E+00               0
GRID*               6084               06.9144640917E+001.4014437056E+02+
*       -9.050000191E+00               0
GRID*               6085               06.3951573611E+001.3890510950E+02+
*       -9.050000191E+00               0
GRID*               6086               06.4925086418E+001.3758725244E+02+
*       -9.050000191E+00               0
GRID*               6087               01.1198021890E+011.3088903284E+02+
*       -9.050000191E+00               0
GRID*               6088               01.1198021327E+011.2923529754E+02+
*       -9.050000191E+00               0
GRID*               6089               01.0894715922E+011.3283234136E+02+
*       -9.050000191E+00               0
GRID*               6090               0-2.221148607E+001.1800936394E+02+
*       -9.050000191E+00               0
GRID*               6091               0-3.814063887E+001.1840402318E+02+
*       -9.050000191E+00               0
GRID*               6092               0-7.852650268E-011.1921995107E+02+
*       -9.050000191E+00               0
GRID*               6093               0-1.815438598E+001.2025365937E+02+
*       -9.050000191E+00               0
GRID*               6094               01.9976848893E-011.2000477431E+02+
*       -9.050000191E+00               0
GRID*               6095               0-2.059415203E-011.1776047888E+02+
*       -9.050000191E+00               0
GRID*               6096               01.4351342609E+001.1776038748E+02+
*       -9.050000191E+00               0
GRID*               6097               03.6827279968E+001.2080076940E+02+
*       -9.050000191E+00               0
GRID*               6098               05.1630674751E+001.2153794987E+02+
*       -9.050000191E+00               0
GRID*               6099               01.8464529963E+001.2015731810E+02+
*       -9.050000191E+00               0
GRID*               6100               03.0662170604E+001.1961451731E+02+
*       -9.050000191E+00               0
GRID*               6101               03.0280934923E+001.1815486926E+02+
*       -9.050000191E+00               0
GRID*               6102               04.8643684928E+001.1879832056E+02+
*       -9.050000191E+00               0
GRID*               6103               09.3037062224E+001.2625231504E+02+
*       -9.050000191E+00               0
GRID*               6104               08.7063342641E+001.2471024377E+02+
*       -9.050000191E+00               0
GRID*               6105               01.0930404074E+011.2728674825E+02+
*       -9.050000191E+00               0
GRID*               6106               01.1387427842E+011.2519280110E+02+
*       -9.050000191E+00               0
GRID*               6107               06.3157448789E+001.1956425056E+02+
*       -9.050000191E+00               0
GRID*               6108               01.0634335618E+011.2350253142E+02+
*       -9.050000191E+00               0
GRID*               6109               09.9768887265E+001.2236037927E+02+
*       -9.050000191E+00               0
GRID*               6110               08.6956932197E+001.2308108456E+02+
*       -9.050000191E+00               0
GRID*               6111               07.6412974931E+001.2363296044E+02+
*       -9.050000191E+00               0
GRID*               6112               08.9118519555E+001.2128309595E+02+
*       -9.050000191E+00               0
GRID*               6113               06.5271496690E+001.2241086618E+02+
*       -9.050000191E+00               0
GRID*               6114               06.2665742548E+001.2113088493E+02+
*       -9.050000191E+00               0
GRID*               6115               07.6798270728E+001.2043716687E+02+
*       -9.050000191E+00               0
GRID*               6116               0-7.625518485E+001.3826710081E+02+
*       -9.050000191E+00               0
GRID*               6117               0-6.305802150E+001.3926368716E+02+
*       -9.050000191E+00               0
GRID*               6118               0-8.948136489E+001.3681136850E+02+
*       -9.050000191E+00               0
GRID*               6119               0-1.286861387E+001.4073075794E+02+
*       -9.050000191E+00               0
GRID*               6120               0-2.877470356E+001.4027820601E+02+
*       -9.050000191E+00               0
GRID*               6121               0-4.620790821E+001.4027820601E+02+
*       -9.050000191E+00               0
GRID*               6122               0-1.223841285E+011.3057572505E+02+
*       -9.050000191E+00               0
GRID*               6123               0-1.193510688E+011.3251903357E+02+
*       -9.050000191E+00               0
GRID*               6124               0-1.213688318E+011.2912133562E+02+
*       -9.050000191E+00               0
GRID*               6125               0-1.186926592E+011.2717278633E+02+
*       -9.050000191E+00               0
GRID*               6126               0-1.082593583E+011.2957272777E+02+
*       -9.050000191E+00               0
GRID*               6127               0-9.963732751E+001.3051355860E+02+
*       -9.050000191E+00               0
GRID*               6128               0-9.862203077E+001.2905916917E+02+
*       -9.050000191E+00               0
GRID*               6129               0-9.659810112E+001.3213912645E+02+
*       -9.050000191E+00               0
GRID*               6130               0-9.818687391E+001.3540531669E+02+
*       -9.050000191E+00               0
GRID*               6131               0-1.066745149E+011.3363104282E+02+
*       -9.050000191E+00               0
GRID*               6132               0-3.406047694E+001.2070620947E+02+
*       -9.050000191E+00               0
GRID*               6133               0-5.258037264E+001.2143588162E+02+
*       -9.050000191E+00               0
GRID*               6134               0-6.577751107E+001.2243247147E+02+
*       -9.050000191E+00               0
GRID*               6135               0-4.652461683E+001.2019850828E+02+
*       -9.050000191E+00               0
GRID*               6136               0-5.666053457E+001.1913369533E+02+
*       -9.050000191E+00               0
GRID*               6137               0-7.117344479E+001.1989978708E+02+
*       -9.050000191E+00               0
GRID*               6138               0-1.128638064E+011.2522806991E+02+
*       -9.050000191E+00               0
GRID*               6139               0-1.053328842E+011.2353780022E+02+
*       -9.050000191E+00               0
GRID*               6140               0-1.014152087E+011.2617362192E+02+
*       -9.050000191E+00               0
GRID*               6141               0-9.558280639E+001.2743360122E+02+
*       -9.050000191E+00               0
GRID*               6142               0-8.975395356E+001.2548888480E+02+
*       -9.050000191E+00               0
GRID*               6143               0-8.349797987E+001.2074740378E+02+
*       -9.050000191E+00               0
GRID*               6144               0-8.104843274E+001.2408283401E+02+
*       -9.050000191E+00               0
GRID*               6145               0-8.031543421E+001.2257854296E+02+
*       -9.050000191E+00               0
GRID*               6146               0-9.876890155E+001.2239776632E+02+
*       -9.050000191E+00               0
GRID*               5776               05.2289441331E+001.3981777881E+02+
*       9.0500001907E+00               0
GRID*               5777               07.5613705942E+001.3799244019E+02+
*       9.0500001907E+00               0
GRID*               5778               09.7779290477E+001.2416707591E+02+
*       9.0500001907E+00               0
GRID*               5779               05.7181293437E+001.2051772665E+02+
*       9.0500001907E+00               0
GRID*               5780               07.7538169240E+001.2204962096E+02+
*       9.0500001907E+00               0
GRID*               5781               0-9.769678540E+001.2499863612E+02+
*       9.0500001907E+00               0
GRID*               5782               0-1.073247105E+011.2819141655E+02+
*       9.0500001907E+00               0
GRID*               5783               0-1.092699909E+011.3103723780E+02+
*       9.0500001907E+00               0
GRID*               5784               0-2.221329716E+001.1912199540E+02+
*       9.0500001907E+00               0
GRID*               5785               0-2.150169146E-011.1888499394E+02+
*       9.0500001907E+00               0
GRID*               5786               0-8.402018512E+001.2220935457E+02+
*       9.0500001907E+00               0
GRID*               5787               03.8459548134E+001.3923710045E+02+
*       9.0500001907E+00               0
GRID*               5788               05.3262954128E+001.3849992175E+02+
*       9.0500001907E+00               0
GRID*               5789               02.1031429794E+001.4057821104E+02+
*       9.0500001907E+00               0
GRID*               5790               04.5645907854E-011.4073075794E+02+
*       9.0500001907E+00               0
GRID*               5791               03.4861322991E+001.4115888940E+02+
*       9.0500001907E+00               0
GRID*               5792               05.2294527642E+001.4115888940E+02+
*       9.0500001907E+00               0
GRID*               5793               01.0894715921E+011.3283234136E+02+
*       9.0500001907E+00               0
GRID*               5794               01.0297344467E+011.3437441282E+02+
*       9.0500001907E+00               0
GRID*               5795               01.1198021890E+011.3088903284E+02+
*       9.0500001907E+00               0
GRID*               5796               09.4032953280E+001.3777596894E+02+
*       9.0500001907E+00               0
GRID*               5797               08.0806773237E+001.3923170125E+02+
*       9.0500001907E+00               0
GRID*               5798               09.4485803653E+001.3614868669E+02+
*       9.0500001907E+00               0
GRID*               5799               07.6066556315E+001.3636515794E+02+
*       9.0500001907E+00               0
GRID*               5800               06.4925086433E+001.3758725244E+02+
*       9.0500001907E+00               0
GRID*               5801               06.3951573637E+001.3890510950E+02+
*       9.0500001907E+00               0
GRID*               5802               06.9144640932E+001.4014437056E+02+
*       9.0500001907E+00               0
GRID*               5803               04.0905466382E+001.2093064842E+02+
*       9.0500001907E+00               0
GRID*               5804               05.5708861166E+001.2166782888E+02+
*       9.0500001907E+00               0
GRID*               5805               03.6451082664E+001.1934131338E+02+
*       9.0500001907E+00               0
GRID*               5806               02.0520733811E+001.1894669179E+02+
*       9.0500001907E+00               0
GRID*               5807               05.2726909718E+001.1892839161E+02+
*       9.0500001907E+00               0
GRID*               5808               06.7240997229E+001.1969449158E+02+
*       9.0500001907E+00               0
GRID*               5809               08.7658729858E+001.2310834843E+02+
*       9.0500001907E+00               0
GRID*               5810               08.9744817423E+001.2130812476E+02+
*       9.0500001907E+00               0
GRID*               5811               09.9865378042E+001.2236685224E+02+
*       9.0500001907E+00               0
GRID*               5812               08.7149337927E+001.2471459778E+02+
*       9.0500001907E+00               0
GRID*               5813               07.7028777308E+001.2365587031E+02+
*       9.0500001907E+00               0
GRID*               5814               01.0642935147E+011.2350688543E+02+
*       9.0500001907E+00               0
GRID*               5815               01.1396027371E+011.2519715511E+02+
*       9.0500001907E+00               0
GRID*               5816               06.5887299067E+001.2243377604E+02+
*       9.0500001907E+00               0
GRID*               5817               06.7359731339E+001.2128367381E+02+
*       9.0500001907E+00               0
GRID*               5818               07.7419435130E+001.2046043874E+02+
*       9.0500001907E+00               0
GRID*               5819               09.3123057510E+001.2625666904E+02+
*       9.0500001907E+00               0
GRID*               5820               01.1198021328E+011.2923529754E+02+
*       9.0500001907E+00               0
GRID*               5821               01.0930404074E+011.2728674825E+02+
*       9.0500001907E+00               0
GRID*               5822               0-8.948136489E+001.3681136850E+02+
*       9.0500001907E+00               0
GRID*               5823               0-9.818687392E+001.3540531669E+02+
*       9.0500001907E+00               0
GRID*               5824               0-7.625518485E+001.3826710081E+02+
*       9.0500001907E+00               0
GRID*               5825               0-6.305802150E+001.3926368716E+02+
*       9.0500001907E+00               0
GRID*               5826               0-1.286861387E+001.4073075794E+02+
*       9.0500001907E+00               0
GRID*               5827               0-2.877470356E+001.4027820601E+02+
*       9.0500001907E+00               0
GRID*               5828               0-4.620790821E+001.4027820601E+02+
*       9.0500001907E+00               0
GRID*               5829               0-1.139190212E+011.2561293522E+02+
*       9.0500001907E+00               0
GRID*               5830               0-1.025107479E+011.2659502634E+02+
*       9.0500001907E+00               0
GRID*               5831               0-1.187329837E+011.2720932543E+02+
*       9.0500001907E+00               0
GRID*               5832               0-1.063880989E+011.2392266553E+02+
*       9.0500001907E+00               0
GRID*               5833               0-9.562313085E+001.2747014032E+02+
*       9.0500001907E+00               0
GRID*               5834               0-9.866235523E+001.2909570828E+02+
*       9.0500001907E+00               0
GRID*               5835               0-9.080916832E+001.2587375011E+02+
*       9.0500001907E+00               0
GRID*               5836               0-9.659576908E+001.3214418675E+02+
*       9.0500001907E+00               0
GRID*               5837               0-9.963499547E+001.3051861890E+02+
*       9.0500001907E+00               0
GRID*               5838               0-1.066745149E+011.3363104282E+02+
*       9.0500001907E+00               0
GRID*               5839               0-1.193487368E+011.3252409387E+02+
*       9.0500001907E+00               0
GRID*               5840               0-1.223817965E+011.3058078535E+02+
*       9.0500001907E+00               0
GRID*               5841               0-1.214091562E+011.2915787473E+02+
*       9.0500001907E+00               0
GRID*               5842               0-1.082973507E+011.2961432717E+02+
*       9.0500001907E+00               0
GRID*               5843               0-3.116476495E+001.2053278910E+02+
*       9.0500001907E+00               0
GRID*               5844               0-1.525867399E+001.2008023900E+02+
*       9.0500001907E+00               0
GRID*               5845               0-4.419437937E+001.1964131969E+02+
*       9.0500001907E+00               0
GRID*               5846               0-5.870846688E+001.2040741967E+02+
*       9.0500001907E+00               0
GRID*               5847               0-3.524291158E+001.1823052599E+02+
*       9.0500001907E+00               0
GRID*               5848               0-1.931256272E+001.1783590439E+02+
*       9.0500001907E+00               0
GRID*               5849               01.1239735091E+001.2011428207E+02+
*       9.0500001907E+00               0
GRID*               5850               07.1308295741E-011.1771740366E+02+
*       9.0500001907E+00               0
GRID*               5851               0-5.227109986E-011.1996173828E+02+
*       9.0500001907E+00               0
GRID*               5852               0-1.218173315E+001.1900349467E+02+
*       9.0500001907E+00               0
GRID*               5853               0-9.280998720E-011.1771740366E+02+
*       9.0500001907E+00               0
GRID*               5854               0-8.210364750E+001.2446769932E+02+
*       9.0500001907E+00               0
GRID*               5855               0-8.066044307E+001.2054030555E+02+
*       9.0500001907E+00               0
GRID*               5856               0-9.298582536E+001.2138799157E+02+
*       9.0500001907E+00               0
GRID*               5857               0-6.206820893E+001.2207646869E+02+
*       9.0500001907E+00               0
GRID*               5858               0-7.526534736E+001.2307305854E+02+
*       9.0500001907E+00               0
GRID*               5859               0-9.954979879E+001.2252802476E+02+
*       9.0500001907E+00               0
GRID*               5860               0-9.085848526E+001.2360399535E+02+
*       9.0500001907E+00               0
GRID*               4377               0-5.932526208E+001.0773152089E+02+
*       2.9644314274E+00               0
GRID*               4378               0-6.083893152E+001.0865585805E+02+
*       -3.019018249E+00               0
GRID*               4379               0-5.515975229E+001.0343252394E+02+
*       -2.385895054E-02               0
GRID*               4380               0-7.339631306E+001.1378535233E+02+
*       4.4730870099E+00               0
GRID*               4381               0-6.759682200E+001.1176776718E+02+
*       1.1402546886E+00               0
GRID*               4382               0-6.512597912E+001.1076115234E+02+
*       4.7275430924E+00               0
GRID*               4383               0-7.259255827E+001.1352805231E+02+
*       -3.347748134E+00               0
GRID*               4384               0-8.100051353E+001.1596932189E+02+
*       8.4211100088E-01               0
GRID*               4385               0-8.574924555E+001.1715836429E+02+
*       -3.862511354E+00               0
GRID*               4386               0-9.814318403E+001.1983968126E+02+
*       -2.639193140E-01               0
GRID*               4387               0-1.002035262E+011.2023736909E+02+
*       -4.692198917E+00               0
GRID*               4388               0-8.471975437E+001.1690976319E+02+
*       4.9142319276E+00               0
GRID*               4389               0-9.245533875E+001.1867347673E+02+
*       2.8928344680E+00               0
GRID*               4390               0-9.701785836E+001.1961461880E+02+
*       5.4794325694E+00               0
GRID*               4391               0-1.030500319E+011.2077566369E+02+
*       3.1071716031E+00               0
GRID*               4392               0-5.486204434E+001.0101066114E+02+
*       1.2381194675E+00               0
GRID*               4393               0-5.486198494E+001.0101089315E+02+
*       -1.261936989E+00               0
GRID*               4394               0-5.485506044E+001.0105053953E+02+
*       5.0000168596E+00               0
GRID*               4395               0-5.517686302E+001.0347222260E+02+
*       3.7380705117E+00               0
GRID*               4396               0-5.670043756E+001.0562722889E+02+
*       5.2322212847E+00               0
GRID*               4397               0-5.666184230E+001.0558759703E+02+
*       1.4703068508E+00               0
GRID*               4398               0-5.485501713E+001.0105070869E+02+
*       -5.000024348E+00               0
GRID*               4399               0-5.517686308E+001.0347222271E+02+
*       -3.761929497E+00               0
GRID*               4400               0-6.041074663E+001.0840772178E+02+
*       -5.259509403E+00               0
GRID*               4401               0-6.427076750E+001.1038386572E+02+
*       -5.259512223E+00               0
GRID*               4402               0-5.714092098E+001.0605359866E+02+
*       -1.521422737E+00               0
GRID*               4403               0-6.005503153E+001.0819412608E+02+
*       -2.729269272E-02               0
GRID*               4404               0-5.718418814E+001.0609322987E+02+
*       -5.259517987E+00               0
GRID*               4405               0-5.965593560E+001.0794551034E+02+
*       5.2322156028E+00               0
GRID*               4406               0-6.294085167E+001.0976021921E+02+
*       2.0523493092E+00               0
GRID*               4407               0-6.390799830E+001.1021850005E+02+
*       -9.393756567E-01               0
GRID*               4408               0-6.193341814E+001.0925190172E+02+
*       3.8459848717E+00               0
GRID*               4409               0-6.234634595E+001.0946445184E+02+
*       6.1137727777E+00               0
GRID*               4410               0-6.632875336E+001.1126524755E+02+
*       2.9339009557E+00               0
GRID*               4411               0-7.083518381E+001.1294292244E+02+
*       5.9865441814E+00               0
GRID*               4412               0-7.577173685E+001.1451259517E+02+
*       5.9865438768E+00               0
GRID*               4413               0-6.896469467E+001.1228134041E+02+
*       4.6003190509E+00               0
GRID*               4414               0-7.036408002E+001.1278032471E+02+
*       2.8066786497E+00               0
GRID*               4415               0-6.673570463E+001.1142953661E+02+
*       6.1137714232E+00               0
GRID*               4416               0-6.595188247E+001.1111037846E+02+
*       -3.183383226E+00               0
GRID*               4417               0-6.999395620E+001.1265074053E+02+
*       -1.103742389E+00               0
GRID*               4418               0-7.045958488E+001.1281349782E+02+
*       -5.423877154E+00               0
GRID*               4419               0-7.534321806E+001.1438482245E+02+
*       -5.423874712E+00               0
GRID*               4420               0-8.189354008E+001.1620158185E+02+
*       -5.681256895E+00               0
GRID*               4421               0-8.748867868E+001.1756802353E+02+
*       -5.881225931E+00               0
GRID*               4422               0-7.873269340E+001.1535910613E+02+
*       -3.605131280E+00               0
GRID*               4423               0-7.371944217E+001.1388710853E+02+
*       9.9118469269E-01               0
GRID*               4424               0-7.704055335E+001.1488282742E+02+
*       2.6575995169E+00               0
GRID*               4425               0-7.659951822E+001.1475546950E+02+
*       -1.252817849E+00               0
GRID*               4426               0-8.332730788E+001.1656574888E+02+
*       -1.510201061E+00               0
GRID*               4427               0-9.169781044E+001.1851049326E+02+
*       -2.063216372E+00               0
GRID*               4428               0-8.905828486E+001.1792719519E+02+
*       2.8909545942E-01               0
GRID*               4429               0-9.264429408E+001.1871344136E+02+
*       -4.277358809E+00               0
GRID*               4430               0-9.916738532E+001.2003879262E+02+
*       -2.478054807E+00               0
GRID*               4431               0-9.455593446E+001.1911529116E+02+
*       -6.296067537E+00               0
GRID*               4432               0-1.010747513E+011.2040247885E+02+
*       -6.679281285E+00               0
GRID*               4433               0-1.073905873E+011.2155638574E+02+
*       -3.251086930E+00               0
GRID*               4434               0-1.062862389E+011.2136160373E+02+
*       -1.036940532E+00               0
GRID*               4435               0-1.073905774E+011.2155639065E+02+
*       -5.061081799E+00               0
GRID*               4436               0-1.083192530E+011.2171824403E+02+
*       -7.048161022E+00               0
GRID*               4437               0-7.873346330E+001.1535931912E+02+
*       4.6936594229E+00               0
GRID*               4438               0-8.140884520E+001.1607605539E+02+
*       6.2071154896E+00               0
GRID*               4439               0-8.647967752E+001.1733194019E+02+
*       1.8674743316E+00               0
GRID*               4440               0-9.525784024E+001.1925862160E+02+
*       1.3144602972E+00               0
GRID*               4441               0-8.283034255E+001.1644070103E+02+
*       2.8781713810E+00               0
GRID*               4442               0-8.848117344E+001.1779624465E+02+
*       3.9035316253E+00               0
GRID*               4443               0-8.695802729E+001.1744438362E+02+
*       6.4070858312E+00               0
GRID*               4444               0-9.304867075E+001.1879974269E+02+
*       6.6896868650E+00               0
GRID*               4445               0-9.945428524E+001.2009252205E+02+
*       7.0728984355E+00               0
GRID*               4446               0-9.061307257E+001.1827382370E+02+
*       5.1968367036E+00               0
GRID*               4447               0-9.470417852E+001.1914556780E+02+
*       4.1861288059E+00               0
GRID*               4448               0-1.062863596E+011.2136160786E+02+
*       7.7305306872E-01               0
GRID*               4449               0-1.005695570E+011.2030911824E+02+
*       1.4216265790E+00               0
GRID*               4450               0-1.089094575E+011.2182016256E+02+
*       2.4585754135E+00               0
GRID*               4451               0-9.761009914E+001.1973176288E+02+
*       3.0000069118E+00               0
GRID*               4452               0-9.998285474E+001.2019785357E+02+
*       4.2933049364E+00               0
GRID*               4453               0-1.089094472E+011.2182017894E+02+
*       4.2685695729E+00               0
GRID*               4454               0-1.083192802E+011.2171824189E+02+
*       7.0481622581E+00               0
GRID*               4455               0-1.056706069E+011.2125188450E+02+
*       5.4547276479E+00               0
GRID*               4710               06.0809443089E+001.0863906351E+02+
*       -3.016444487E+00               0
GRID*               4711               05.9323862000E+001.0773059825E+02+
*       2.9741200910E+00               0
GRID*               4712               05.5158795029E+001.0343027556E+02+
*       -2.068463911E-02               0
GRID*               4713               06.7559538150E+001.1175337486E+02+
*       1.1456404164E+00               0
GRID*               4714               07.3403884900E+001.1378774772E+02+
*       4.4832650634E+00               0
GRID*               4715               06.5119072262E+001.1075817168E+02+
*       4.7327383004E+00               0
GRID*               4716               07.2559616579E+001.1351737561E+02+
*       -3.345400758E+00               0
GRID*               4717               08.5698749041E+001.1714628222E+02+
*       -3.861635401E+00               0
GRID*               4718               08.0978509904E+001.1596354730E+02+
*       8.4738954679E-01               0
GRID*               4719               09.8113981618E+001.1983406065E+02+
*       -2.604498307E-01               0
GRID*               4720               01.0017133824E+011.2023404042E+02+
*       -4.691732941E+00               0
GRID*               4721               09.2418308312E+001.1866523227E+02+
*       2.8961743540E+00               0
GRID*               4722               08.4720681079E+001.1690998878E+02+
*       4.9165665452E+00               0
GRID*               4723               09.7000206199E+001.1961202910E+02+
*       5.4806474671E+00               0
GRID*               4724               01.0303132879E+011.2077220461E+02+
*       3.1085467853E+00               0
GRID*               4725               05.4862188296E+001.0100976452E+02+
*       1.2396644383E+00               0
GRID*               4726               05.4862246951E+001.0100953543E+02+
*       -1.260391307E+00               0
GRID*               4727               05.4855017127E+001.0105070869E+02+
*       5.0000243475E+00               0
GRID*               4728               05.5176373120E+001.0347109857E+02+
*       3.7396577021E+00               0
GRID*               4729               05.6660434194E+001.0558615164E+02+
*       1.4767246125E+00               0
GRID*               4730               05.6700050430E+001.0562683847E+02+
*       5.2370685381E+00               0
GRID*               4731               05.4855060439E+001.0105053953E+02+
*       -5.000016860E+00               0
GRID*               4732               05.5176373069E+001.0347109846E+02+
*       -3.760342306E+00               0
GRID*               4733               06.0396523061E+001.0839931598E+02+
*       -5.258222570E+00               0
GRID*               4734               06.4252329960E+001.1037554112E+02+
*       -5.258225365E+00               0
GRID*               4735               05.7130498081E+001.0604400145E+02+
*       -1.518580616E+00               0
GRID*               4736               06.0040509521E+001.0818525180E+02+
*       -2.116148300E-02               0
GRID*               4737               05.7174842163E+001.0608469455E+02+
*       -5.258225479E+00               0
GRID*               4738               07.0838747787E+001.1294414345E+02+
*       5.9916343276E+00               0
GRID*               4739               07.5775769649E+001.1451379092E+02+
*       5.9916327968E+00               0
GRID*               4740               06.8964101404E+001.1228112272E+02+
*       4.6080046790E+00               0
GRID*               4741               06.6307400877E+001.1125654452E+02+
*       2.9391870292E+00               0
GRID*               4742               07.0347165657E+001.1277444021E+02+
*       2.8144536600E+00               0
GRID*               4743               06.6731999569E+001.1142805401E+02+
*       6.1163688880E+00               0
GRID*               4744               06.2343388194E+001.0946295093E+02+
*       6.1163703746E+00               0
GRID*               4745               05.9655210578E+001.0794504941E+02+
*       5.2370599339E+00               0
GRID*               4746               06.2925007520E+001.0975248385E+02+
*       2.0598816884E+00               0
GRID*               4747               06.3874172091E+001.1020290850E+02+
*       -9.354009705E-01               0
GRID*               4748               06.1929664406E+001.0924994094E+02+
*       3.8534267946E+00               0
GRID*               4749               06.5918806510E+001.1109665686E+02+
*       -3.180922290E+00               0
GRID*               4750               06.9958349126E+001.1263818569E+02+
*       -1.099889259E+00               0
GRID*               4751               07.0444036754E+001.1280810396E+02+
*       -5.422701598E+00               0
GRID*               4752               07.5325519306E+001.1437951433E+02+
*       -5.422700804E+00               0
GRID*               4753               08.1869771231E+001.1619545317E+02+
*       -5.680817349E+00               0
GRID*               4754               07.8691326571E+001.1534768695E+02+
*       -3.603517998E+00               0
GRID*               4755               08.7457967034E+001.1756089775E+02+
*       -5.880500496E+00               0
GRID*               4756               07.3687460860E+001.1387707925E+02+
*       9.9651277043E-01               0
GRID*               4757               07.7034500374E+001.1488108876E+02+
*       2.6653258914E+00               0
GRID*               4758               07.6571250966E+001.1474725917E+02+
*       -1.249007285E+00               0
GRID*               4759               08.3291488332E+001.1655677664E+02+
*       -1.507123877E+00               0
GRID*               4760               09.1656684271E+001.1850165899E+02+
*       -2.061042792E+00               0
GRID*               4761               08.9032915931E+001.1792146598E+02+
*       2.9346832630E-01               0
GRID*               4762               09.2604960261E+001.1870548828E+02+
*       -4.276678871E+00               0
GRID*               4763               09.9137082406E+001.2003434340E+02+
*       -2.476090370E+00               0
GRID*               4764               09.4541773474E+001.1911212391E+02+
*       -6.295540827E+00               0
GRID*               4765               01.0103772670E+011.2039922425E+02+
*       -6.678408418E+00               0
GRID*               4766               01.0737944871E+011.2155439552E+02+
*       -3.250867597E+00               0
GRID*               4767               01.0627080348E+011.2135884317E+02+
*       -1.035237545E+00               0
GRID*               4768               01.0737938862E+011.2155440006E+02+
*       -5.060860093E+00               0
GRID*               4769               01.0830746956E+011.2171619437E+02+
*       -7.047522891E+00               0
GRID*               4770               07.8738154121E+001.1536061274E+02+
*       4.6999158395E+00               0
GRID*               4771               08.1409303300E+001.1607617567E+02+
*       6.2082829951E+00               0
GRID*               4772               08.6449832753E+001.1732489113E+02+
*       1.8717801566E+00               0
GRID*               4773               09.5223814808E+001.1925170193E+02+
*       1.3178614459E+00               0
GRID*               4774               08.2819455069E+001.1643794945E+02+
*       2.8819769268E+00               0
GRID*               4775               08.8463608292E+001.1779224608E+02+
*       3.9063705403E+00               0
GRID*               4776               08.6958513006E+001.1744449767E+02+
*       6.4082527906E+00               0
GRID*               4777               09.3042249921E+001.1879839857E+02+
*       6.6903015686E+00               0
GRID*               4778               09.9445543422E+001.2009120956E+02+
*       7.0735031923E+00               0
GRID*               4779               09.0607303632E+001.1827255425E+02+
*       5.1986147050E+00               0
GRID*               4780               09.4675343728E+001.1914030310E+02+
*       4.1884181521E+00               0
GRID*               4781               01.0889963980E+011.2181849466E+02+
*       4.2692670035E+00               0
GRID*               4782               01.0889983907E+011.2181850116E+02+
*       2.4592736249E+00               0
GRID*               4783               01.0831925298E+011.2171824403E+02+
*       7.0481610219E+00               0
GRID*               4784               01.0566315603E+011.2125057316E+02+
*       5.4553051558E+00               0
GRID*               4785               09.9977009654E+001.2019415020E+02+
*       4.2945966748E+00               0
GRID*               4786               01.0627067254E+011.2135883831E+02+
*       7.7475598990E-01               0
GRID*               4787               01.0054963516E+011.2030434882E+02+
*       1.4240446778E+00               0
GRID*               4788               09.7571659668E+001.1972627957E+02+
*       3.0023532919E+00               0
GRID*               4038               0-1.220978603E+011.3587555119E+02+
*       5.9942774098E+00               0
GRID*               4039               0-1.294841605E+011.3399259958E+02+
*       2.9925505174E+00               0
GRID*               4040               0-1.339088567E+011.3206994178E+02+
*       -3.421903488E-02               0
GRID*               4041               0-1.354944881E+011.3011268917E+02+
*       -3.124085853E+00               0
GRID*               4042               0-1.343702250E+011.2825388739E+02+
*       -6.219565376E+00               0
GRID*               4043               0-1.354978312E+011.3006400476E+02+
*       2.8696184164E+00               0
GRID*               4044               0-1.339016829E+011.2792511093E+02+
*       5.8331132064E+00               0
GRID*               4045               0-1.339429081E+011.3204792804E+02+
*       5.9613133434E+00               0
GRID*               4046               0-1.294732741E+011.2600401997E+02+
*       -3.360796979E+00               0
GRID*               4047               0-1.266429697E+011.2518152179E+02+
*       -6.619811202E+00               0
GRID*               4048               0-1.343266027E+011.2822065859E+02+
*       -1.879159583E-01               0
GRID*               4049               0-1.264669770E+011.2513555955E+02+
*       -1.773525246E-01               0
GRID*               4050               0-1.297654347E+011.2609994835E+02+
*       2.5768565627E+00               0
GRID*               4051               0-1.225154388E+011.3578791200E+02+
*       2.4128283925E-02               0
GRID*               4052               0-1.132853107E+011.3743405301E+02+
*       -2.899785960E+00               0
GRID*               4053               0-1.015373666E+011.3897239663E+02+
*       -5.885703811E+00               0
GRID*               4054               0-1.295793990E+011.3396158300E+02+
*       -3.011234796E+00               0
GRID*               4055               0-1.338914601E+011.3208139909E+02+
*       -6.073872464E+00               0
GRID*               4056               0-1.225163691E+011.3578773375E+02+
*       -5.995116848E+00               0
GRID*               4057               0-9.858176478E+001.3929616633E+02+
*       5.8663251575E+00               0
GRID*               4058               0-1.123204558E+011.3757902590E+02+
*       2.9317688691E+00               0
GRID*               4059               0-8.882421533E+001.4023244280E+02+
*       -2.714174749E+00               0
GRID*               4060               0-7.447307124E+001.4131986456E+02+
*       -5.692207002E+00               0
GRID*               4061               0-1.016107602E+011.3896407349E+02+
*       7.6260146975E-03               0
GRID*               4062               0-7.734841536E+001.4112540714E+02+
*       -2.679621893E-03               0
GRID*               4063               0-8.465316646E+001.4058012648E+02+
*       2.6633860355E+00               0
GRID*               4064               0-1.339386798E+011.3205061767E+02+
*       2.9311096049E+00               0
GRID*               4065               0-1.320476062E+011.3303887125E+02+
*       1.4790932617E+00               0
GRID*               4066               0-1.350772085E+011.3106944293E+02+
*       1.4176236087E+00               0
GRID*               4067               0-1.350857906E+011.3105851307E+02+
*       4.4154166155E+00               0
GRID*               4068               0-1.351236391E+011.2899142147E+02+
*       4.3513712068E+00               0
GRID*               4069               0-1.354992219E+011.2998667617E+02+
*       5.8972611122E+00               0
GRID*               4070               0-1.320707452E+011.3302886994E+02+
*       4.4769937111E+00               0
GRID*               4071               0-1.294441684E+011.3400554831E+02+
*       5.9777579536E+00               0
GRID*               4072               0-1.261421597E+011.3494795857E+02+
*       4.4934305835E+00               0
GRID*               4073               0-1.351458494E+011.2902155350E+02+
*       7.4415695021E+00               0
GRID*               4074               0-1.350617613E+011.3108881597E+02+
*       7.5056433558E+00               0
GRID*               4075               0-1.322941208E+011.2707029853E+02+
*       7.4415813396E+00               0
GRID*               4076               0-1.261079646E+011.3495669032E+02+
*       7.5221205993E+00               0
GRID*               4077               0-1.175781818E+011.3673469718E+02+
*       7.5221131995E+00               0
GRID*               4078               0-1.320499567E+011.3303788731E+02+
*       7.5056647153E+00               0
GRID*               4079               0-1.323989042E+011.2711805012E+02+
*       -4.790259605E+00               0
GRID*               4080               0-1.340677425E+011.2803518423E+02+
*       -3.242436107E+00               0
GRID*               4081               0-1.352520546E+011.2918136000E+02+
*       -4.671823945E+00               0
GRID*               4082               0-1.284987191E+011.2570079379E+02+
*       -7.834907855E+00               0
GRID*               4083               0-1.314064084E+011.2669483407E+02+
*       -6.419723276E+00               0
GRID*               4084               0-1.326428352E+011.2723244178E+02+
*       -7.634789523E+00               0
GRID*               4085               0-1.214228188E+011.2398622972E+02+
*       -7.834913925E+00               0
GRID*               4086               0-1.214218488E+011.2398602789E+02+
*       -6.024948335E+00               0
GRID*               4087               0-1.232884743E+011.2437862721E+02+
*       -4.395482037E+00               0
GRID*               4088               0-1.232877279E+011.2437847191E+02+
*       -2.585508509E+00               0
GRID*               4089               0-1.281239984E+011.2559037579E+02+
*       -4.990322716E+00               0
GRID*               4090               0-1.354912971E+011.3014600603E+02+
*       -1.111894926E-01               0
GRID*               4091               0-1.352264727E+011.2914059786E+02+
*       1.3408926099E+00               0
GRID*               4092               0-1.352419530E+011.2916534467E+02+
*       -1.655889895E+00               0
GRID*               4093               0-1.323626228E+011.2710145086E+02+
*       -1.774470890E+00               0
GRID*               4094               0-1.350574425E+011.3109417111E+02+
*       -1.579157022E+00               0
GRID*               4095               0-1.280439070E+011.2556716613E+02+
*       -1.769084818E+00               0
GRID*               4096               0-1.313066233E+011.2665545146E+02+
*       -1.825555511E-01               0
GRID*               4097               0-1.213142824E+011.2396436723E+02+
*       -9.936536794E-01               0
GRID*               4098               0-1.213162913E+011.2396478524E+02+
*       8.1641770232E-01               0
GRID*               4099               0-1.324699624E+011.2715087381E+02+
*       1.1944228493E+00               0
GRID*               4100               0-1.282071575E+011.2561461176E+02+
*       1.1997475896E+00               0
GRID*               4101               0-1.341041741E+011.2806024088E+02+
*       2.7231694314E+00               0
GRID*               4102               0-1.321496452E+011.2700579793E+02+
*       4.2050494179E+00               0
GRID*               4103               0-1.234977887E+011.2442473379E+02+
*       2.1934210574E+00               0
GRID*               4104               0-1.234993260E+011.2442505367E+02+
*       4.0034756887E+00               0
GRID*               4105               0-1.237701605E+011.2448545093E+02+
*       7.2400218994E+00               0
GRID*               4106               0-1.270536664E+011.2529088036E+02+
*       5.6315527633E+00               0
GRID*               4107               0-1.295535881E+011.3397001192E+02+
*       -5.049221117E-03               0
GRID*               4108               0-1.263162978E+011.3490331306E+02+
*       1.5084511495E+00               0
GRID*               4109               0-1.320846126E+011.3302270694E+02+
*       -1.522854691E+00               0
GRID*               4110               0-1.339258113E+011.3205901720E+02+
*       -3.067577040E+00               0
GRID*               4111               0-1.263748308E+011.3488820523E+02+
*       -1.493438268E+00               0
GRID*               4112               0-1.181876471E+011.3662714589E+02+
*       -1.437821881E+00               0
GRID*               4113               0-1.226697854E+011.3575512696E+02+
*       -2.955616649E+00               0
GRID*               4114               0-1.352554265E+011.2918706077E+02+
*       -7.634798328E+00               0
GRID*               4115               0-1.354886931E+011.3016932451E+02+
*       -6.146722610E+00               0
GRID*               4116               0-1.350479082E+011.3110591213E+02+
*       -7.561915806E+00               0
GRID*               4117               0-1.350524430E+011.3110034742E+02+
*       -4.598921779E+00               0
GRID*               4118               0-1.320703242E+011.3302897003E+02+
*       -4.542584454E+00               0
GRID*               4119               0-1.181888692E+011.3662693225E+02+
*       -4.447466862E+00               0
GRID*               4120               0-1.076894283E+011.3822375657E+02+
*       -4.392831571E+00               0
GRID*               4121               0-1.131538131E+011.3745410700E+02+
*       -5.940433932E+00               0
GRID*               4122               0-1.263783101E+011.3488738898E+02+
*       -4.503181930E+00               0
GRID*               4123               0-1.295361979E+011.3397569314E+02+
*       -6.034460345E+00               0
GRID*               4124               0-1.320117852E+011.3305441868E+02+
*       -7.561923069E+00               0
GRID*               4125               0-1.262848308E+011.3491148290E+02+
*       -7.522561974E+00               0
GRID*               4126               0-1.072277286E+011.3828388121E+02+
*       -7.467859765E+00               0
GRID*               4127               0-9.406831214E+001.3975257779E+02+
*       -7.467869864E+00               0
GRID*               4128               0-1.178178966E+011.3669267284E+02+
*       -7.522544306E+00               0
GRID*               4129               0-1.058727204E+011.3845640171E+02+
*       7.4581807191E+00               0
GRID*               4130               0-1.116570971E+011.3767642499E+02+
*       5.9303029794E+00               0
GRID*               4131               0-9.247700155E+001.3990357008E+02+
*       7.4581698419E+00               0
GRID*               4132               0-1.222246319E+011.3584912174E+02+
*       2.9621621364E+00               0
GRID*               4133               0-1.177594182E+011.3670295352E+02+
*       1.4779546918E+00               0
GRID*               4134               0-1.175205740E+011.3674474593E+02+
*       4.4629672669E+00               0
GRID*               4135               0-1.057995902E+011.3846556013E+02+
*       4.3990558656E+00               0
GRID*               4136               0-9.538566079E+001.3962376929E+02+
*       -4.299864749E+00               0
GRID*               4137               0-1.020189333E+011.3891758901E+02+
*       -2.806974247E+00               0
GRID*               4138               0-8.034938887E+001.4091063484E+02+
*       -7.371114575E+00               0
GRID*               4139               0-8.878654944E+001.4023571355E+02+
*       -5.789005962E+00               0
GRID*               4140               0-6.366130687E+001.4196130469E+02+
*       -7.371125166E+00               0
GRID*               4141               0-6.366298772E+001.4196121190E+02+
*       -5.561154663E+00               0
GRID*               4142               0-8.182858478E+001.4080011501E+02+
*       -4.203171939E+00               0
GRID*               4143               0-6.366484480E+001.4196110937E+02+
*       -3.751187260E+00               0
GRID*               4144               0-7.146088372E+001.4151234374E+02+
*       -2.261978743E+00               0
GRID*               4145               0-1.131783706E+011.3745031106E+02+
*       1.5996350527E-02               0
GRID*               4146               0-1.071916279E+011.3828854568E+02+
*       1.4696384354E+00               0
GRID*               4147               0-1.077240601E+011.3821921353E+02+
*       -1.446191881E+00               0
GRID*               4148               0-9.542316059E+001.3962003287E+02+
*       -1.353160554E+00               0
GRID*               4149               0-8.320643406E+001.4069428931E+02+
*       -1.358434772E+00               0
GRID*               4150               0-9.012729543E+001.4011785830E+02+
*       2.5154209931E-03               0
GRID*               4151               0-6.519039231E+001.4187865646E+02+
*       -9.063999711E-01               0
GRID*               4152               0-6.518463724E+001.4187897419E+02+
*       9.0370119494E-01               0
GRID*               4153               0-9.347645226E+001.3980927629E+02+
*       1.3356164518E+00               0
GRID*               4154               0-8.104698676E+001.4085888906E+02+
*       1.3303468152E+00               0
GRID*               4155               0-9.962413485E+001.3918437847E+02+
*       2.7975721610E+00               0
GRID*               4156               0-9.183788919E+001.3996284882E+02+
*       4.2649386101E+00               0
GRID*               4157               0-6.913985774E+001.4165320011E+02+
*       2.2367988605E+00               0
GRID*               4158               0-6.914128121E+001.4165312152E+02+
*       4.0467738828E+00               0
GRID*               4159               0-6.988940176E+001.4160842431E+02+
*       7.2400085625E+00               0
GRID*               4160               0-7.712272354E+001.4114106409E+02+
*       5.6481623798E+00               0
GRID*               5005               01.3436929651E+011.2825318568E+02+
*       -6.210947743E+00               0
GRID*               5006               01.3549500526E+011.3010875901E+02+
*       -3.118619474E+00               0
GRID*               5007               01.3392260138E+011.3206103479E+02+
*       -3.981699737E-02               0
GRID*               5008               01.2951114142E+011.3398384554E+02+
*       2.9785963561E+00               0
GRID*               5009               01.2212701440E+011.3586945468E+02+
*       5.9796552487E+00               0
GRID*               5010               01.3389844862E+011.2792298405E+02+
*       5.8375741295E+00               0
GRID*               5011               01.3549797074E+011.3005685817E+02+
*       2.8626191669E+00               0
GRID*               5012               01.3394920937E+011.3204392645E+02+
*       5.9561422841E+00               0
GRID*               5013               01.2946759608E+011.2600214365E+02+
*       -3.359039597E+00               0
GRID*               5014               01.2664118341E+011.2518106485E+02+
*       -6.617512426E+00               0
GRID*               5015               01.3432112981E+011.2821653463E+02+
*       -1.892400412E-01               0
GRID*               5016               01.2646001267E+011.2513375182E+02+
*       -1.775526413E-01               0
GRID*               5017               01.2975946604E+011.2609798956E+02+
*       2.5757950475E+00               0
GRID*               5018               01.0155110674E+011.3897082900E+02+
*       -5.875659283E+00               0
GRID*               5019               01.1330782216E+011.3743062735E+02+
*       -2.894505852E+00               0
GRID*               5020               01.2254820389E+011.3578097128E+02+
*       1.3099491359E-02               0
GRID*               5021               01.2959387373E+011.3395683164E+02+
*       -3.011003247E+00               0
GRID*               5022               01.3389394948E+011.3207968231E+02+
*       -6.070746055E+00               0
GRID*               5023               01.2252359788E+011.3578623024E+02+
*       -5.991777188E+00               0
GRID*               5024               01.1235324958E+011.3757418093E+02+
*       2.9254174261E+00               0
GRID*               5025               09.8603107879E+001.3929389370E+02+
*       5.8559525649E+00               0
GRID*               5026               08.8838124470E+001.4023124365E+02+
*       -2.711303020E+00               0
GRID*               5027               07.4480344745E+001.4131939472E+02+
*       -5.689940377E+00               0
GRID*               5028               01.0163819532E+011.3896096204E+02+
*       5.5925556365E-03               0
GRID*               5029               07.7367630437E+001.4112407109E+02+
*       -3.141960480E-03               0
GRID*               5030               08.4672395315E+001.4057858474E+02+
*       2.6603227257E+00               0
GRID*               5031               01.3395033907E+011.3204299175E+02+
*       2.9205150823E+00               0
GRID*               5032               01.3508320231E+011.3106186395E+02+
*       1.4114038057E+00               0
GRID*               5033               01.3206867169E+011.3302966436E+02+
*       1.4695172959E+00               0
GRID*               5034               01.3508966386E+011.3105363228E+02+
*       4.4093218456E+00               0
GRID*               5035               01.3549910756E+011.2998318194E+02+
*       5.8968708084E+00               0
GRID*               5036               01.3512048419E+011.2898720696E+02+
*       4.3500262354E+00               0
GRID*               5037               01.3208669110E+011.3302182297E+02+
*       4.4674028150E+00               0
GRID*               5038               01.2617227398E+011.3494033215E+02+
*       4.4791462098E+00               0
GRID*               5039               01.2945882529E+011.3400081940E+02+
*       5.9678664046E+00               0
GRID*               5040               01.3514502098E+011.2902029054E+02+
*       7.4438036178E+00               0
GRID*               5041               01.3229131006E+011.2706904050E+02+
*       7.4437953324E+00               0
GRID*               5042               01.3506324379E+011.3108701286E+02+
*       7.5030513402E+00               0
GRID*               5043               01.2612007037E+011.3495362768E+02+
*       7.5148327361E+00               0
GRID*               5044               01.1759374615E+011.3673198175E+02+
*       7.5148150218E+00               0
GRID*               5045               01.3205440050E+011.3303593724E+02+
*       7.5030593320E+00               0
GRID*               5046               01.3239806277E+011.2711760006E+02+
*       -4.785050093E+00               0
GRID*               5047               01.3525046890E+011.2917908301E+02+
*       -4.664790973E+00               0
GRID*               5048               01.3406273256E+011.2803182926E+02+
*       -3.238766073E+00               0
GRID*               5049               01.2849807480E+011.2570060758E+02+
*       -7.833761601E+00               0
GRID*               5050               01.3264243958E+011.2723223513E+02+
*       -7.630489292E+00               0
GRID*               5051               01.3140595471E+011.2669467825E+02+
*       -6.414262319E+00               0
GRID*               5052               01.2142229287E+011.2398612628E+02+
*       -7.833767971E+00               0
GRID*               5053               01.2142306764E+011.2398628749E+02+
*       -6.023795446E+00               0
GRID*               5054               01.2328837682E+011.2437856503E+02+
*       -4.394577871E+00               0
GRID*               5055               01.2328773460E+011.2437843139E+02+
*       -2.584555028E+00               0
GRID*               5056               01.2812029182E+011.2558929056E+02+
*       -4.988269513E+00               0
GRID*               5057               01.3549199353E+011.3013944928E+02+
*       -1.144110173E-01               0
GRID*               5058               01.3522317415E+011.2913544856E+02+
*       1.3365722431E+00               0
GRID*               5059               01.3523919014E+011.2916085857E+02+
*       -1.653971629E+00               0
GRID*               5060               01.3235802231E+011.2709929373E+02+
*       -1.774156913E+00               0
GRID*               5061               01.3506298630E+011.3108727635E+02+
*       -1.579145076E+00               0
GRID*               5062               01.2803779028E+011.2556539733E+02+
*       -1.768297958E+00               0
GRID*               5063               01.3129926712E+011.2665256972E+02+
*       -1.834865080E-01               0
GRID*               5064               01.2131208015E+011.2396393942E+02+
*       -9.938739457E-01               0
GRID*               5065               01.2131031483E+011.2396357209E+02+
*       8.1618878567E-01               0
GRID*               5066               01.3246237859E+011.2714738738E+02+
*       1.1933963631E+00               0
GRID*               5067               01.2820053872E+011.2561268005E+02+
*       1.1991332598E+00               0
GRID*               5068               01.3409831131E+011.2805614883E+02+
*       2.7192038732E+00               0
GRID*               5069               01.3214259647E+011.2700272563E+02+
*       4.2067819992E+00               0
GRID*               5070               01.2349051101E+011.2442315955E+02+
*       2.1930141183E+00               0
GRID*               5071               01.2349118937E+011.2442330070E+02+
*       4.0029900623E+00               0
GRID*               5072               01.2376926009E+011.2448526358E+02+
*       7.2400103712E+00               0
GRID*               5073               01.2705010314E+011.2528989957E+02+
*       5.6337860447E+00               0
GRID*               5074               01.2957800490E+011.3396203292E+02+
*       -1.335482699E-02               0
GRID*               5075               01.2634665583E+011.3489548213E+02+
*       1.4957332337E+00               0
GRID*               5076               01.3209931116E+011.3301631939E+02+
*       -1.525349327E+00               0
GRID*               5077               01.3393310651E+011.3205425592E+02+
*       -3.064838010E+00               0
GRID*               5078               01.2639773385E+011.3488228682E+02+
*       -1.499063013E+00               0
GRID*               5079               01.2268521392E+011.3575188077E+02+
*       -2.952792752E+00               0
GRID*               5080               01.1821639962E+011.3662200984E+02+
*       -1.440710286E+00               0
GRID*               5081               01.3505522909E+011.3109686476E+02+
*       -4.594638355E+00               0
GRID*               5082               01.3207662413E+011.3302630436E+02+
*       -4.540937940E+00               0
GRID*               5083               01.3548893413E+011.3016837024E+02+
*       -6.140884215E+00               0
GRID*               5084               01.3525523871E+011.2918684563E+02+
*       -7.630479652E+00               0
GRID*               5085               01.3504876404E+011.3110483026E+02+
*       -7.560360077E+00               0
GRID*               5086               01.1820429856E+011.3662416682E+02+
*       -4.443082496E+00               0
GRID*               5087               01.1316313584E+011.3745265892E+02+
*       -5.933718456E+00               0
GRID*               5088               01.0770267809E+011.3822204716E+02+
*       -4.385138851E+00               0
GRID*               5089               01.2638964948E+011.3488440861E+02+
*       -4.501404001E+00               0
GRID*               5090               01.2954255911E+011.3397360331E+02+
*       -6.031221580E+00               0
GRID*               5091               01.3201386660E+011.3305353572E+02+
*       -7.560380207E+00               0
GRID*               5092               01.2628814819E+011.3491061111E+02+
*       -7.520870066E+00               0
GRID*               5093               01.0723284033E+011.3828322599E+02+
*       -7.462854479E+00               0
GRID*               5094               09.4074317423E+001.3975198853E+02+
*       -7.462842848E+00               0
GRID*               5095               01.1782333749E+011.3669170949E+02+
*       -7.520861014E+00               0
GRID*               5096               01.0588360880E+011.3845502768E+02+
*       7.4529882350E+00               0
GRID*               5097               09.2489883445E+001.3990237411E+02+
*       7.4529998447E+00               0
GRID*               5098               01.1168676876E+011.3767213464E+02+
*       5.9178451130E+00               0
GRID*               5099               01.2225931621E+011.3584182288E+02+
*       2.9520930052E+00               0
GRID*               5100               01.1779225025E+011.3669718324E+02+
*       1.4692332834E+00               0
GRID*               5101               01.1755015483E+011.3673959052E+02+
*       4.4525367902E+00               0
GRID*               5102               01.0583020435E+011.3846169736E+02+
*       4.3907446127E+00               0
GRID*               5103               09.5403422407E+001.3962201155E+02+
*       -4.293472881E+00               0
GRID*               5104               01.0204248133E+011.3891488137E+02+
*       -2.802815025E+00               0
GRID*               5105               08.0352268469E+001.4091042603E+02+
*       -7.369971229E+00               0
GRID*               5106               08.8792688622E+001.4023518568E+02+
*       -5.782851725E+00               0
GRID*               5107               06.3663088910E+001.4196121307E+02+
*       -7.369984502E+00               0
GRID*               5108               06.3660984726E+001.4196132923E+02+
*       -5.560021438E+00               0
GRID*               5109               08.1844555127E+001.4079889038E+02+
*       -4.200538857E+00               0
GRID*               5110               06.3659764624E+001.4196139659E+02+
*       -3.750042845E+00               0
GRID*               5111               07.1473890350E+001.4151153998E+02+
*       -2.260666206E+00               0
GRID*               5112               01.1321087993E+011.3744537096E+02+
*       9.2271407329E-03               0
GRID*               5113               01.0722363720E+011.3828438972E+02+
*       1.4656018965E+00               0
GRID*               5114               01.0774550497E+011.3821641906E+02+
*       -1.444437255E+00               0
GRID*               5115               09.5448983331E+001.3961747876E+02+
*       -1.352870616E+00               0
GRID*               5116               08.3227920298E+001.4069261043E+02+
*       -1.357116678E+00               0
GRID*               5117               09.0151467390E+001.4011570454E+02+
*       1.1820208435E-03               0
GRID*               5118               06.5194865927E+001.4187841282E+02+
*       -9.066125099E-01               0
GRID*               5119               06.5200627818E+001.4187809472E+02+
*       9.0348877606E-01               0
GRID*               5120               09.3500436652E+001.3980699203E+02+
*       1.3328480879E+00               0
GRID*               5121               08.1065580160E+001.4085750705E+02+
*       1.3285835417E+00               0
GRID*               5122               09.9651346265E+001.3918142574E+02+
*       2.7928534893E+00               0
GRID*               5123               09.1864618008E+001.3996041127E+02+
*       4.2581817852E+00               0
GRID*               5124               06.9153539200E+001.4165240188E+02+
*       2.2351096653E+00               0
GRID*               5125               06.9158011610E+001.4165215497E+02+
*       4.0451882922E+00               0
GRID*               5126               06.9891173639E+001.4160832649E+02+
*       7.2400228693E+00               0
GRID*               5127               07.7135623600E+001.4114016845E+02+
*       5.6429783844E+00               0
GRID*               3733               0-1.638418364E+013.0783213944E+01+
*       5.4077325871E+00               0
GRID*               3734               0-1.592566078E+013.1289048165E+01+
*       3.6769675034E+00               0
GRID*               3735               0-1.546299607E+013.1828934178E+01+
*       1.9958562996E+00               0
GRID*               3736               0-1.499090798E+013.2413586323E+01+
*       2.5334847158E-01               0
GRID*               3737               0-1.452634766E+013.3026183562E+01+
*       -1.504226109E+00               0
GRID*               3738               0-1.409066095E+013.3638500850E+01+
*       -3.237543972E+00               0
GRID*               3739               0-1.370062806E+013.4221798640E+01+
*       -5.113869944E+00               0
GRID*               3740               0-1.593568445E+013.1277679965E+01+
*       -4.969157359E+00               0
GRID*               3741               0-1.521243476E+013.2134754588E+01+
*       -3.119014118E+00               0
GRID*               3742               0-1.475514621E+013.2719576783E+01+
*       -4.683497367E+00               0
GRID*               3743               0-1.881882139E+012.8497236906E+01+
*       -3.785994830E+00               0
GRID*               3744               0-1.710428007E+013.0041622349E+01+
*       -4.430048404E+00               0
GRID*               3745               0-1.808148313E+012.9126454451E+01+
*       -4.619612898E+00               0
GRID*               3746               0-1.900044396E+012.8349646455E+01+
*       -5.339395307E+00               0
GRID*               3747               0-1.643763293E+013.0726030150E+01+
*       -2.969670560E+00               0
GRID*               3748               0-1.570165953E+013.1546565343E+01+
*       -1.330679569E+00               0
GRID*               3749               0-1.781615698E+012.9365332688E+01+
*       -2.852955497E+00               0
GRID*               3750               0-1.698255694E+013.0162738841E+01+
*       -1.100737816E+00               0
GRID*               3751               0-1.619766827E+013.0985636484E+01+
*       4.7767666647E-01               0
GRID*               3752               0-1.836873942E+012.8875440230E+01+
*       -7.120319751E-01               0
GRID*               3753               0-1.905711718E+012.8304168920E+01+
*       -2.273344461E+00               0
GRID*               3754               0-1.749060359E+012.9668006520E+01+
*       7.9568723669E-01               0
GRID*               3755               0-1.667947831E+013.0471663730E+01+
*       2.2561944038E+00               0
GRID*               3756               0-1.800014532E+012.9198962799E+01+
*       2.6552682018E+00               0
GRID*               3757               0-1.880302659E+012.8510208506E+01+
*       1.2023132639E+00               0
GRID*               3758               0-1.711895401E+013.0027141146E+01+
*       3.9271369549E+00               0
GRID*               3759               0-1.871295456E+012.8584581411E+01+
*       5.6459703754E+00               0
GRID*               3760               0-1.758084609E+012.9583017284E+01+
*       5.2802154745E+00               0
GRID*               3761               0-1.821743379E+012.9006693651E+01+
*       4.2856102393E+00               0
GRID*               3762               0-1.306896137E+013.5249221450E+01+
*       -3.324405195E+00               0
GRID*               3763               0-1.249593008E+013.6289941262E+01+
*       -1.734449247E+00               0
GRID*               3764               0-1.196970208E+013.7363799767E+01+
*       -1.328566310E-01               0
GRID*               3765               0-1.150162673E+013.8446177414E+01+
*       1.4884382210E+00               0
GRID*               3766               0-1.109285900E+013.9527509325E+01+
*       3.1301044970E+00               0
GRID*               3767               0-1.072759021E+014.0649632993E+01+
*       5.0562244255E+00               0
GRID*               3768               0-1.119534910E+013.9241740196E+01+
*       -3.112254245E-01               0
GRID*               3769               0-1.095860760E+013.9919455482E+01+
*       -2.148278141E+00               0
GRID*               3770               0-1.079662811E+014.0423117894E+01+
*       -3.850579872E+00               0
GRID*               3771               0-1.062389479E+014.1005262194E+01+
*       -5.510852236E+00               0
GRID*               3772               0-1.217219434E+013.6935028319E+01+
*       -3.441800779E+00               0
GRID*               3773               0-1.189959816E+013.7517301771E+01+
*       -5.258627667E+00               0
GRID*               3774               0-1.272250458E+013.5864310951E+01+
*       -4.843092826E+00               0
GRID*               3775               0-1.166316352E+013.8056557848E+01+
*       -1.897550788E+00               0
GRID*               3776               0-1.140860746E+013.8679371458E+01+
*       -3.607229410E+00               0
GRID*               3777               0-1.118312571E+013.9275241434E+01+
*       -5.077597933E+00               0
GRID*               3778               0-1.043718805E+014.1701866560E+01+
*       -2.655278112E+00               0
GRID*               3779               0-1.006083152E+014.3454067977E+01+
*       -1.675101794E+00               0
GRID*               3780               0-1.012279843E+014.3118358786E+01+
*       -3.491279880E+00               0
GRID*               3781               0-1.039188736E+014.1884044399E+01+
*       -4.139274870E+00               0
GRID*               3782               0-1.009858046E+014.3246510462E+01+
*       -5.303456385E+00               0
GRID*               3783               0-1.010266645E+014.3224590686E+01+
*       4.7803131709E+00               0
GRID*               3784               0-1.048199595E+014.1527149328E+01+
*       2.9439965613E+00               0
GRID*               3785               0-1.082260126E+014.0339832727E+01+
*       1.3298271670E+00               0
GRID*               3786               0-1.011167354E+014.3176808608E+01+
*       2.5302212013E-01               0
GRID*               3787               0-1.004324279E+014.3554271260E+01+
*       2.1928902150E+00               0
GRID*               3788               0-1.036518532E+014.1994253281E+01+
*       1.2342455798E+00               0
GRID*               3789               0-1.051996910E+014.1383067621E+01+
*       -5.698162339E-01               0
GRID*               3790               0-1.286656949E+013.5603581873E+01+
*       -1.055100106E-02               0
GRID*               3791               0-1.326806993E+013.4913208628E+01+
*       1.7127637194E+00               0
GRID*               3792               0-1.368516158E+013.4245688646E+01+
*       3.4051707019E+00               0
GRID*               3793               0-1.410495042E+013.3617780012E+01+
*       5.2209836940E+00               0
GRID*               3794               0-1.270685558E+013.5893093839E+01+
*       3.3173566414E+00               0
GRID*               3795               0-1.183691245E+013.7656965221E+01+
*       3.2310376382E+00               0
GRID*               3796               0-1.232346120E+013.6627814525E+01+
*       1.6002625183E+00               0
GRID*               3797               0-1.219618260E+013.6885589340E+01+
*       5.1182350346E+00               0
GRID*               3798               0-1.141363059E+013.8666602000E+01+
*       4.7222261712E+00               0
GRID*               3799               0-1.310626991E+013.5185336074E+01+
*       4.8265608754E+00               0
GRID*               3800               0-1.431287693E+013.3321332826E+01+
*       1.8319457300E+00               0
GRID*               3801               0-1.476075871E+013.2712185903E+01+
*       3.5146578460E+00               0
GRID*               3802               0-1.522001428E+013.2125351571E+01+
*       4.9868536372E+00               0
GRID*               3803               0-1.345608309E+013.4606516698E+01+
*       -1.617119732E+00               0
GRID*               3804               0-1.387225464E+013.3960759434E+01+
*       1.1242345230E-01               0
GRID*               3805               0-1.498159894E+013.2425484224E+01+
*       -3.901261304E+00               0
GRID*               3806               0-1.533207638E+013.1987493720E+01+
*       -4.826291012E+00               0
GRID*               3807               0-1.556927374E+013.1702135735E+01+
*       -4.044078471E+00               0
GRID*               3808               0-1.441771474E+013.3175246332E+01+
*       -3.960513619E+00               0
GRID*               3809               0-1.389359016E+013.3928795434E+01+
*       -4.175710470E+00               0
GRID*               3810               0-1.421409971E+013.3461025592E+01+
*       -4.898686730E+00               0
GRID*               3811               0-1.463745156E+013.2876071636E+01+
*       -3.178272230E+00               0
GRID*               3812               0-1.486439073E+013.2576573357E+01+
*       -2.311612011E+00               0
GRID*               3813               0-1.430619158E+013.3330726545E+01+
*       -2.370890410E+00               0
GRID*               3814               0-1.547017551E+013.1820302265E+01+
*       -6.234573296E+00               0
GRID*               3815               0-1.669646283E+013.0454061816E+01+
*       -6.234564012E+00               0
GRID*               3816               0-1.488700491E+013.2547234250E+01+
*       -6.091747180E+00               0
GRID*               3817               0-1.433958325E+013.3283901025E+01+
*       -6.306921274E+00               0
GRID*               3818               0-1.332731898E+013.4815469664E+01+
*       -6.306929853E+00               0
GRID*               3819               0-1.758679380E+012.9577446799E+01+
*       -4.524816973E+00               0
GRID*               3820               0-1.794847951E+012.9245348824E+01+
*       -3.736259816E+00               0
GRID*               3821               0-1.745686014E+012.9700003895E+01+
*       -3.641511235E+00               0
GRID*               3822               0-1.729777506E+012.9852480153E+01+
*       -5.965021548E+00               0
GRID*               3823               0-1.650946160E+013.0649732214E+01+
*       -4.699607390E+00               0
GRID*               3824               0-1.778524563E+012.9393601317E+01+
*       -6.059803369E+00               0
GRID*               3825               0-1.966000713E+012.7836680103E+01+
*       -4.544699168E+00               0
GRID*               3826               0-1.966004534E+012.7836648936E+01+
*       -6.419688392E+00               0
GRID*               3827               0-1.890945952E+012.8423230318E+01+
*       -4.562695307E+00               0
GRID*               3828               0-1.956664063E+012.7907167982E+01+
*       -3.767992764E+00               0
GRID*               3829               0-1.853622196E+012.8732581601E+01+
*       -4.979523853E+00               0
GRID*               3830               0-1.844706078E+012.8808307081E+01+
*       -4.202815750E+00               0
GRID*               3831               0-1.823369941E+012.8992474515E+01+
*       -6.419697770E+00               0
GRID*               3832               0-1.618458943E+013.0999998766E+01+
*       -3.969418247E+00               0
GRID*               3833               0-1.581185665E+013.1418979365E+01+
*       -3.044349989E+00               0
GRID*               3834               0-1.676770664E+013.0380625193E+01+
*       -3.699853993E+00               0
GRID*               3835               0-1.509997778E+013.2275279361E+01+
*       -1.417460661E+00               0
GRID*               3836               0-1.534141275E+013.1976101650E+01+
*       -5.386686396E-01               0
GRID*               3837               0-1.475628077E+013.2718085841E+01+
*       -6.254355115E-01               0
GRID*               3838               0-1.545481742E+013.1838767648E+01+
*       -2.224840439E+00               0
GRID*               3839               0-1.606495140E+013.1132428433E+01+
*       -2.150230634E+00               0
GRID*               3840               0-1.558104871E+013.1688207952E+01+
*       3.6554872206E-01               0
GRID*               3841               0-1.582574057E+013.1403045527E+01+
*       1.2368060631E+00               0
GRID*               3842               0-1.522473958E+013.2119500786E+01+
*       1.1245978204E+00               0
GRID*               3843               0-1.594759350E+013.1264213018E+01+
*       -4.264920759E-01               0
GRID*               3844               0-1.632880270E+013.0842857572E+01+
*       -1.215792376E+00               0
GRID*               3845               0-1.658521420E+013.0569964868E+01+
*       -3.116017247E-01               0
GRID*               3846               0-1.711372218E+013.0032299143E+01+
*       -2.911307632E+00               0
GRID*               3847               0-1.831172730E+012.8924636595E+01+
*       -3.319476040E+00               0
GRID*               3848               0-1.670787149E+013.0442269917E+01+
*       -2.035209950E+00               0
GRID*               3849               0-1.739475798E+012.9759206337E+01+
*       -1.976843414E+00               0
GRID*               3850               0-1.809066099E+012.9118330155E+01+
*       -1.782487824E+00               0
GRID*               3851               0-1.766342375E+012.9505985372E+01+
*       -9.063935785E-01               0
GRID*               3852               0-1.968906404E+012.7814889970E+01+
*       -1.136676466E+00               0
GRID*               3853               0-1.968912019E+012.7814844166E+01+
*       -3.011660629E+00               0
GRID*               3854               0-1.871025570E+012.8586818212E+01+
*       -1.492720879E+00               0
GRID*               3855               0-1.933311318E+012.8086506405E+01+
*       -3.561196797E-01               0
GRID*               3856               0-1.893766752E+012.8400342423E+01+
*       -3.029671292E+00               0
GRID*               3857               0-1.842801144E+012.8824584358E+01+
*       -2.563138572E+00               0
GRID*               3858               0-1.605909689E+013.1138965685E+01+
*       2.1260990404E+00               0
GRID*               3859               0-1.629820483E+013.0875969303E+01+
*       2.9666389976E+00               0
GRID*               3860               0-1.569242317E+013.1557333139E+01+
*       2.8364161399E+00               0
GRID*               3861               0-1.643675459E+013.0726961814E+01+
*       1.3669328727E+00               0
GRID*               3862               0-1.723483859E+012.9913555834E+01+
*       -1.525210035E-01               0
GRID*               3863               0-1.792497432E+012.9266537019E+01+
*       4.1825121548E-02               0
GRID*               3864               0-1.683173977E+013.0315134773E+01+
*       6.3660724000E-01               0
GRID*               3865               0-1.708039052E+013.0065269399E+01+
*       1.5259210127E+00               0
GRID*               3866               0-1.774373991E+012.9431726586E+01+
*       1.7254751410E+00               0
GRID*               3867               0-1.732811143E+012.9823198803E+01+
*       2.4557270877E+00               0
GRID*               3868               0-1.955821438E+012.7913566597E+01+
*       2.4760823587E+00               0
GRID*               3869               0-1.955814695E+012.7913621604E+01+
*       6.0106333971E-01               0
GRID*               3870               0-1.914077954E+012.8237513040E+01+
*       3.2026814867E+00               0
GRID*               3871               0-1.839800567E+012.8850294000E+01+
*       1.9288076225E+00               0
GRID*               3872               0-1.858485847E+012.8691584203E+01+
*       2.4514374230E-01               0
GRID*               3873               0-1.813673186E+012.9077585371E+01+
*       9.9901385432E-01               0
GRID*               3874               0-1.651148475E+013.0647583054E+01+
*       3.8020961640E+00               0
GRID*               3875               0-1.674769109E+013.0401184273E+01+
*       4.6674699486E+00               0
GRID*               3876               0-1.615320677E+013.1034555578E+01+
*       4.5423533670E+00               0
GRID*               3877               0-1.689780409E+013.0248054034E+01+
*       3.0916582385E+00               0
GRID*               3878               0-1.755454095E+012.9607703964E+01+
*       3.2912054027E+00               0
GRID*               3879               0-1.951200703E+012.7948725812E+01+
*       6.5729855927E+00               0
GRID*               3880               0-1.951209912E+012.7948650685E+01+
*       4.6980115693E+00               0
GRID*               3881               0-1.809428841E+012.9115102551E+01+
*       6.5729782842E+00               0
GRID*               3882               0-1.753701868E+012.9624187721E+01+
*       6.3901076574E+00               0
GRID*               3883               0-1.813935890E+012.9075258937E+01+
*       5.4630915625E+00               0
GRID*               3884               0-1.692992399E+013.0215612096E+01+
*       6.4538631966E+00               0
GRID*               3885               0-1.697235532E+013.0172949546E+01+
*       5.3439794713E+00               0
GRID*               3886               0-1.734849353E+012.9803578561E+01+
*       4.6036819405E+00               0
GRID*               3887               0-1.925467831E+012.8147711533E+01+
*       4.0178461574E+00               0
GRID*               3888               0-1.810851565E+012.9102508926E+01+
*       3.4704406409E+00               0
GRID*               3889               0-1.846382984E+012.8794018593E+01+
*       4.9657927898E+00               0
GRID*               3890               0-1.766054760E+012.9508654570E+01+
*       4.1063784301E+00               0
GRID*               3891               0-1.789664795E+012.9292134976E+01+
*       4.7829082065E+00               0
GRID*               3892               0-1.260449196E+013.6083530182E+01+
*       -3.383095984E+00               0
GRID*               3893               0-1.277628348E+013.5766122237E+01+
*       -2.529414646E+00               0
GRID*               3894               0-1.233172573E+013.6611338959E+01+
*       -2.588130264E+00               0
GRID*               3895               0-1.284551708E+013.5641225089E+01+
*       -6.171544589E+00               0
GRID*               3896               0-1.319593480E+013.5033563960E+01+
*       -4.978446933E+00               0
GRID*               3897               0-1.241051072E+013.6455690769E+01+
*       -6.379301191E+00               0
GRID*               3898               0-1.163620918E+013.8120268837E+01+
*       -6.379308680E+00               0
GRID*               3899               0-1.229579031E+013.6683226737E+01+
*       -5.050863871E+00               0
GRID*               3900               0-1.244092094E+013.6396334503E+01+
*       -4.142440864E+00               0
GRID*               3901               0-1.203402018E+013.7225299893E+01+
*       -4.350216817E+00               0
GRID*               3902               0-1.289355341E+013.5555548621E+01+
*       -4.083750953E+00               0
GRID*               3903               0-1.337863438E+013.4731642185E+01+
*       -4.219122476E+00               0
GRID*               3904               0-1.206218378E+013.7165348161E+01+
*       -1.816055994E+00               0
GRID*               3905               0-1.191071764E+013.7492768115E+01+
*       -2.669702506E+00               0
GRID*               3906               0-1.222624310E+013.6824039735E+01+
*       -9.337295600E-01               0
GRID*               3907               0-1.181382919E+013.7708978787E+01+
*       -1.015194080E+00               0
GRID*               3908               0-1.156344104E+013.8294879441E+01+
*       -2.220364676E-01               0
GRID*               3909               0-1.172931958E+013.7902157636E+01+
*       6.7780840318E-01               0
GRID*               3910               0-1.134510118E+013.8842618682E+01+
*       5.8861379396E-01               0
GRID*               3911               0-1.142167337E+013.8646200637E+01+
*       -1.104397185E+00               0
GRID*               3912               0-1.177382904E+013.7799837964E+01+
*       -3.524493314E+00               0
GRID*               3913               0-1.164682058E+013.8095128372E+01+
*       -4.432901946E+00               0
GRID*               3914               0-1.153378449E+013.8367119268E+01+
*       -2.752392765E+00               0
GRID*               3915               0-1.129230980E+013.8980968034E+01+
*       -2.022911937E+00               0
GRID*               3916               0-1.107454155E+013.9579766883E+01+
*       -1.229756014E+00               0
GRID*               3917               0-1.117544604E+013.9296382041E+01+
*       -2.877739565E+00               0
GRID*               3918               0-1.108651284E+013.9545563272E+01+
*       -3.728898867E+00               0
GRID*               3919               0-1.087628202E+014.0170872717E+01+
*       -2.999432270E+00               0
GRID*               3920               0-1.128435981E+013.9002014210E+01+
*       -6.288796992E+00               0
GRID*               3921               0-1.152471637E+013.8389331974E+01+
*       -5.168081121E+00               0
GRID*               3922               0-1.097903726E+013.9858403345E+01+
*       -6.505415233E+00               0
GRID*               3923               0-1.045830199E+014.1618851747E+01+
*       -6.505421594E+00               0
GRID*               3924               0-1.088778623E+014.0135184614E+01+
*       -5.294228448E+00               0
GRID*               3925               0-1.098293758E+013.9846817946E+01+
*       -4.464083781E+00               0
GRID*               3926               0-1.070849212E+014.0713674210E+01+
*       -4.680717963E+00               0
GRID*               3927               0-1.129396669E+013.8976585843E+01+
*       -4.342413352E+00               0
GRID*               3928               0-1.009124325E+014.3286104841E+01+
*       -2.583190202E+00               0
GRID*               3929               0-1.026969268E+014.2407852594E+01+
*       -3.073284647E+00               0
GRID*               3930               0-1.023329423E+014.2574550878E+01+
*       -2.165181402E+00               0
GRID*               3931               0-9.877573111E+004.4654873625E+01+
*       -2.712529153E+00               0
GRID*               3932               0-9.877623255E+004.4654545880E+01+
*       -8.374566880E-01               0
GRID*               3933               0-9.899755833E+004.4485919624E+01+
*       -3.620681003E+00               0
GRID*               3934               0-1.041436661E+014.1792913328E+01+
*       -3.397276571E+00               0
GRID*               3935               0-1.024953455E+014.2499494075E+01+
*       -3.815276334E+00               0
GRID*               3936               0-1.058315528E+014.1150597691E+01+
*       -3.994946707E+00               0
GRID*               3937               0-1.050387417E+014.1443667580E+01+
*       -4.825079314E+00               0
GRID*               3938               0-1.060838314E+014.1060201977E+01+
*       -3.252951210E+00               0
GRID*               3939               0-9.891154702E+004.4550394217E+01+
*       -6.401733342E+00               0
GRID*               3940               0-9.891130621E+004.4550551607E+01+
*       -4.526768139E+00               0
GRID*               3941               0-1.019825957E+014.2740398204E+01+
*       -6.401723627E+00               0
GRID*               3942               0-1.011060567E+014.3182419803E+01+
*       -4.397368351E+00               0
GRID*               3943               0-1.033543068E+014.2119732832E+01+
*       -5.407131914E+00               0
GRID*               3944               0-1.023572169E+014.2563255140E+01+
*       -4.721371185E+00               0
GRID*               3945               0-1.020051602E+014.2729532627E+01+
*       6.1401499500E+00               0
GRID*               3946               0-1.038094005E+014.1928951296E+01+
*       4.9182399823E+00               0
GRID*               3947               0-1.050493406E+014.1439671476E+01+
*       6.2781011437E+00               0
GRID*               3948               0-9.892616151E+004.4539364946E+01+
*       6.1401464116E+00               0
GRID*               3949               0-9.892633383E+004.4539252314E+01+
*       4.2651713157E+00               0
GRID*               3950               0-1.114295600E+013.9386470340E+01+
*       1.4090634528E+00               0
GRID*               3951               0-1.100250559E+013.9788953384E+01+
*       5.0922562832E-01               0
GRID*               3952               0-1.129098818E+013.8984468563E+01+
*       2.3092734162E+00               0
GRID*               3953               0-1.095424118E+013.9932549293E+01+
*       2.2299577000E+00               0
GRID*               3954               0-1.076662100E+014.0520629812E+01+
*       3.0371223360E+00               0
GRID*               3955               0-1.064501396E+014.0931248246E+01+
*       2.1369440999E+00               0
GRID*               3956               0-1.060080547E+014.1087245292E+01+
*       4.0001168296E+00               0
GRID*               3957               0-1.027752038E+014.2372706574E+01+
*       3.8621235424E+00               0
GRID*               3958               0-1.090367915E+014.0086173936E+01+
*       4.0932198155E+00               0
GRID*               3959               0-9.895895764E+004.4514764702E+01+
*       1.2661152453E-01               0
GRID*               3960               0-1.008586053E+014.3315376240E+01+
*       -7.110419571E-01               0
GRID*               3961               0-9.871189229E+004.4705264052E+01+
*       2.9714831364E+00               0
GRID*               3962               0-1.007241083E+014.3389280710E+01+
*       3.4866129259E+00               0
GRID*               3963               0-9.871204018E+004.4705167391E+01+
*       1.0965045042E+00               0
GRID*               3964               0-1.007670996E+014.3365561048E+01+
*       1.2229224376E+00               0
GRID*               3965               0-1.024154560E+014.2536288744E+01+
*       2.5684133341E+00               0
GRID*               3966               0-1.042246676E+014.1760416889E+01+
*       2.0891218039E+00               0
GRID*               3967               0-1.057974685E+014.1162961109E+01+
*       1.2820725439E+00               0
GRID*               3968               0-1.019175001E+014.2771878551E+01+
*       1.7135273246E+00               0
GRID*               3969               0-1.023128212E+014.2583937178E+01+
*       7.4364692438E-01               0
GRID*               3970               0-1.026839992E+014.2413682643E+01+
*       -1.122457497E+00               0
GRID*               3971               0-1.047805528E+014.1542326113E+01+
*       -1.612546083E+00               0
GRID*               3972               0-1.029929262E+014.2276166260E+01+
*       -1.583950398E-01               0
GRID*               3973               0-1.044064603E+014.1688188939E+01+
*       3.3221098519E-01               0
GRID*               3974               0-1.066565156E+014.0859711412E+01+
*       3.8002745737E-01               0
GRID*               3975               0-1.083352206E+014.0305127133E+01+
*       -4.405909671E-01               0
GRID*               3976               0-1.068130305E+014.0805955515E+01+
*       -2.401809284E+00               0
GRID*               3977               0-1.072806379E+014.0648045167E+01+
*       -1.359078042E+00               0
GRID*               3978               0-1.166589091E+013.8050124984E+01+
*       2.3597401993E+00               0
GRID*               3979               0-1.144602407E+013.8584747410E+01+
*       3.1805685675E+00               0
GRID*               3980               0-1.207444975E+013.7139371649E+01+
*       2.4157105398E+00               0
GRID*               3981               0-1.251207902E+013.6258939030E+01+
*       2.4587917419E+00               0
GRID*               3982               0-1.225464682E+013.6766247532E+01+
*       3.2742520272E+00               0
GRID*               3983               0-1.189454801E+013.7528491255E+01+
*       1.5444245089E+00               0
GRID*               3984               0-1.214359629E+013.6994321217E+01+
*       7.3371298359E-01               0
GRID*               3985               0-1.240055384E+013.6475229394E+01+
*       -7.180083606E-02               0
GRID*               3986               0-1.258900263E+013.6112707648E+01+
*       7.9481743266E-01               0
GRID*               3987               0-1.267857291E+013.5945316588E+01+
*       -8.725002866E-01               0
GRID*               3988               0-1.298192801E+013.5399956034E+01+
*       2.5150649884E+00               0
GRID*               3989               0-1.347400110E+013.4577791697E+01+
*       2.5589715652E+00               0
GRID*               3990               0-1.318020171E+013.5060015662E+01+
*       3.3612617827E+00               0
GRID*               3991               0-1.277892183E+013.5761337853E+01+
*       1.6564926247E+00               0
GRID*               3992               0-1.306454611E+013.5256808284E+01+
*       8.5110145205E-01               0
GRID*               3993               0-1.124928323E+013.9095596458E+01+
*       3.9261618146E+00               0
GRID*               3994               0-1.104982287E+013.9650832617E+01+
*       4.8892442969E+00               0
GRID*               3995               0-1.161972427E+013.8159508219E+01+
*       3.9766218654E+00               0
GRID*               3996               0-1.201327864E+013.7269727018E+01+
*       4.1746418582E+00               0
GRID*               3997               0-1.178757985E+013.7768492913E+01+
*       4.9202287871E+00               0
GRID*               3998               0-1.103868726E+013.9683101706E+01+
*       6.2781125667E+00               0
GRID*               3999               0-1.177388099E+013.7799723272E+01+
*       6.3091044379E+00               0
GRID*               4000               0-1.257131949E+013.6146091919E+01+
*       6.3091143724E+00               0
GRID*               4001               0-1.140117805E+013.8698294655E+01+
*       6.1111130461E+00               0
GRID*               4002               0-1.244605181E+013.6386338374E+01+
*       4.2178327235E+00               0
GRID*               4003               0-1.303821224E+013.5302197048E+01+
*       6.1632798846E+00               0
GRID*               4004               0-1.263480671E+013.6026704896E+01+
*       4.9723917263E+00               0
GRID*               4005               0-1.351865923E+013.4506576700E+01+
*       6.3604791333E+00               0
GRID*               4006               0-1.455305732E+013.2989867176E+01+
*       6.3604880267E+00               0
GRID*               4007               0-1.359104707E+013.4392278469E+01+
*       5.0237727760E+00               0
GRID*               4008               0-1.290370526E+013.5537544491E+01+
*       4.0719697760E+00               0
GRID*               4009               0-1.339050970E+013.4712352019E+01+
*       4.1158571489E+00               0
GRID*               4010               0-1.389269691E+013.3930134069E+01+
*       4.3130813975E+00               0
GRID*               4011               0-1.420869691E+013.3468714200E+01+
*       3.4599532889E+00               0
GRID*               4012               0-1.442785509E+013.3161219298E+01+
*       4.3678460457E+00               0
GRID*               4013               0-1.399401893E+013.3779760835E+01+
*       2.6186222580E+00               0
GRID*               4014               0-1.453448616E+013.3015109929E+01+
*       2.6732902940E+00               0
GRID*               4015               0-1.487385365E+013.2564288307E+01+
*       1.9138995255E+00               0
GRID*               4016               0-1.464670823E+013.2863678844E+01+
*       1.0426309408E+00               0
GRID*               4017               0-1.510688070E+013.2266592469E+01+
*       2.7552562388E+00               0
GRID*               4018               0-1.533010061E+013.1989904249E+01+
*       3.5958099260E+00               0
GRID*               4019               0-1.511977695E+013.2250385445E+01+
*       6.2434261348E+00               0
GRID*               4020               0-1.464853495E+013.2861218571E+01+
*       5.1039055557E+00               0
GRID*               4021               0-1.568552919E+013.1565373027E+01+
*       6.4538551493E+00               0
GRID*               4022               0-1.579018099E+013.1443942653E+01+
*       5.1972937127E+00               0
GRID*               4023               0-1.556823941E+013.1703367000E+01+
*       4.3319028370E+00               0
GRID*               4024               0-1.498822272E+013.2417017035E+01+
*       4.2507657947E+00               0
GRID*               4025               0-1.295965647E+013.5438923219E+01+
*       -1.675788237E+00               0
GRID*               4026               0-1.315552175E+013.5101670721E+01+
*       -8.138453245E-01               0
GRID*               4027               0-1.326012023E+013.4926404038E+01+
*       -2.470758992E+00               0
GRID*               4028               0-1.356444950E+013.4434108224E+01+
*       -3.280972743E+00               0
GRID*               4029               0-1.376764024E+013.4119025535E+01+
*       -2.427381938E+00               0
GRID*               4030               0-1.377553104E+013.4107008668E+01+
*       1.7724379382E+00               0
GRID*               4031               0-1.356488858E+013.4433437003E+01+
*       9.1263090484E-01               0
GRID*               4032               0-1.409006795E+013.3639357104E+01+
*       9.7217878001E-01               0
GRID*               4033               0-1.335365388E+013.4772375995E+01+
*       5.0964123427E-02               0
GRID*               4034               0-1.366171831E+013.4281997010E+01+
*       -7.523367630E-01               0
GRID*               4035               0-1.441660351E+013.3176793206E+01+
*       1.8280602550E-01               0
GRID*               4036               0-1.419378558E+013.3490015270E+01+
*       -6.959737390E-01               0
GRID*               4037               0-1.397593492E+013.3806430654E+01+
*       -1.560750587E+00               0
GRID*               5128               01.6384183645E+013.0783213944E+01+
*       -5.407732587E+00               0
GRID*               5129               01.5925660784E+013.1289048165E+01+
*       -3.676967503E+00               0
GRID*               5130               01.5462996067E+013.1828934178E+01+
*       -1.995856300E+00               0
GRID*               5131               01.4990907980E+013.2413586323E+01+
*       -2.533484716E-01               0
GRID*               5132               01.4526347657E+013.3026183562E+01+
*       1.5042261087E+00               0
GRID*               5133               01.4090660950E+013.3638500850E+01+
*       3.2375439718E+00               0
GRID*               5134               01.3700628058E+013.4221798640E+01+
*       5.1138699436E+00               0
GRID*               5135               01.5935684454E+013.1277679965E+01+
*       4.9691573594E+00               0
GRID*               5136               01.5212434761E+013.2134754588E+01+
*       3.1190141178E+00               0
GRID*               5137               01.4755146205E+013.2719576783E+01+
*       4.6834973668E+00               0
GRID*               5138               01.8818821389E+012.8497236906E+01+
*       3.7859948300E+00               0
GRID*               5139               01.7104280069E+013.0041622349E+01+
*       4.4300484036E+00               0
GRID*               5140               01.8081483133E+012.9126454451E+01+
*       4.6196128983E+00               0
GRID*               5141               01.9000443958E+012.8349646455E+01+
*       5.3393953070E+00               0
GRID*               5142               01.6437632929E+013.0726030150E+01+
*       2.9696705601E+00               0
GRID*               5143               01.5701659531E+013.1546565343E+01+
*       1.3306795694E+00               0
GRID*               5144               01.7816156984E+012.9365332688E+01+
*       2.8529554971E+00               0
GRID*               5145               01.6982556940E+013.0162738841E+01+
*       1.1007378160E+00               0
GRID*               5146               01.6197668267E+013.0985636484E+01+
*       -4.776766665E-01               0
GRID*               5147               01.8368739421E+012.8875440230E+01+
*       7.1203197511E-01               0
GRID*               5148               01.9057117175E+012.8304168920E+01+
*       2.2733444611E+00               0
GRID*               5149               01.7490603590E+012.9668006520E+01+
*       -7.956872367E-01               0
GRID*               5150               01.6679478307E+013.0471663730E+01+
*       -2.256194404E+00               0
GRID*               5151               01.8000145322E+012.9198962799E+01+
*       -2.655268202E+00               0
GRID*               5152               01.8803026589E+012.8510208506E+01+
*       -1.202313264E+00               0
GRID*               5153               01.7118954007E+013.0027141146E+01+
*       -3.927136955E+00               0
GRID*               5154               01.8712954558E+012.8584581411E+01+
*       -5.645970375E+00               0
GRID*               5155               01.7580846091E+012.9583017284E+01+
*       -5.280215474E+00               0
GRID*               5156               01.8217433785E+012.9006693651E+01+
*       -4.285610239E+00               0
GRID*               5157               01.3068961366E+013.5249221450E+01+
*       3.3244051949E+00               0
GRID*               5158               01.2495930080E+013.6289941262E+01+
*       1.7344492473E+00               0
GRID*               5159               01.1969702084E+013.7363799767E+01+
*       1.3285663100E-01               0
GRID*               5160               01.1501626735E+013.8446177414E+01+
*       -1.488438221E+00               0
GRID*               5161               01.1092859001E+013.9527509325E+01+
*       -3.130104497E+00               0
GRID*               5162               01.0727590211E+014.0649632993E+01+
*       -5.056224425E+00               0
GRID*               5163               01.1195349100E+013.9241740196E+01+
*       3.1122542453E-01               0
GRID*               5164               01.0958607596E+013.9919455482E+01+
*       2.1482781409E+00               0
GRID*               5165               01.0796628112E+014.0423117894E+01+
*       3.8505798723E+00               0
GRID*               5166               01.0623894789E+014.1005262194E+01+
*       5.5108522360E+00               0
GRID*               5167               01.2172194342E+013.6935028319E+01+
*       3.4418007794E+00               0
GRID*               5168               01.1899598164E+013.7517301771E+01+
*       5.2586276670E+00               0
GRID*               5169               01.2722504581E+013.5864310951E+01+
*       4.8430928262E+00               0
GRID*               5170               01.1663163517E+013.8056557848E+01+
*       1.8975507877E+00               0
GRID*               5171               01.1408607464E+013.8679371458E+01+
*       3.6072294105E+00               0
GRID*               5172               01.1183125715E+013.9275241434E+01+
*       5.0775979332E+00               0
GRID*               5173               01.0437188046E+014.1701866560E+01+
*       2.6552781116E+00               0
GRID*               5174               01.0060831524E+014.3454067977E+01+
*       1.6751017942E+00               0
GRID*               5175               01.0122798428E+014.3118358786E+01+
*       3.4912798801E+00               0
GRID*               5176               01.0391887365E+014.1884044399E+01+
*       4.1392748700E+00               0
GRID*               5177               01.0098580457E+014.3246510462E+01+
*       5.3034563851E+00               0
GRID*               5178               01.0102666451E+014.3224590686E+01+
*       -4.780313171E+00               0
GRID*               5179               01.0481995948E+014.1527149328E+01+
*       -2.943996561E+00               0
GRID*               5180               01.0822601263E+014.0339832727E+01+
*       -1.329827167E+00               0
GRID*               5181               01.0111673543E+014.3176808608E+01+
*       -2.530221201E-01               0
GRID*               5182               01.0043242792E+014.3554271260E+01+
*       -2.192890215E+00               0
GRID*               5183               01.0365185317E+014.1994253281E+01+
*       -1.234245580E+00               0
GRID*               5184               01.0519969097E+014.1383067621E+01+
*       5.6981623386E-01               0
GRID*               5185               01.2866569491E+013.5603581873E+01+
*       1.0551001059E-02               0
GRID*               5186               01.3268069928E+013.4913208628E+01+
*       -1.712763719E+00               0
GRID*               5187               01.3685161583E+013.4245688646E+01+
*       -3.405170702E+00               0
GRID*               5188               01.4104950417E+013.3617780012E+01+
*       -5.220983694E+00               0
GRID*               5189               01.2706855579E+013.5893093839E+01+
*       -3.317356641E+00               0
GRID*               5190               01.1836912446E+013.7656965221E+01+
*       -3.231037638E+00               0
GRID*               5191               01.2323461196E+013.6627814525E+01+
*       -1.600262518E+00               0
GRID*               5192               01.2196182601E+013.6885589340E+01+
*       -5.118235035E+00               0
GRID*               5193               01.1413630590E+013.8666602000E+01+
*       -4.722226171E+00               0
GRID*               5194               01.3106269908E+013.5185336074E+01+
*       -4.826560875E+00               0
GRID*               5195               01.4312876932E+013.3321332826E+01+
*       -1.831945730E+00               0
GRID*               5196               01.4760758709E+013.2712185903E+01+
*       -3.514657846E+00               0
GRID*               5197               01.5220014282E+013.2125351571E+01+
*       -4.986853637E+00               0
GRID*               5198               01.3456083087E+013.4606516698E+01+
*       1.6171197318E+00               0
GRID*               5199               01.3872254638E+013.3960759434E+01+
*       -1.124234523E-01               0
GRID*               5200               01.4981598936E+013.2425484224E+01+
*       3.9012613036E+00               0
GRID*               5201               01.5332076376E+013.1987493720E+01+
*       4.8262910122E+00               0
GRID*               5202               01.5569273741E+013.1702135735E+01+
*       4.0440784710E+00               0
GRID*               5203               01.4417714741E+013.3175246332E+01+
*       3.9605136190E+00               0
GRID*               5204               01.3893590165E+013.3928795434E+01+
*       4.1757104704E+00               0
GRID*               5205               01.4214099708E+013.3461025592E+01+
*       4.8986867302E+00               0
GRID*               5206               01.4637451563E+013.2876071636E+01+
*       3.1782722300E+00               0
GRID*               5207               01.4864390728E+013.2576573357E+01+
*       2.3116120111E+00               0
GRID*               5208               01.4306191582E+013.3330726545E+01+
*       2.3708904096E+00               0
GRID*               5209               01.5470175512E+013.1820302265E+01+
*       6.2345732957E+00               0
GRID*               5210               01.6696462827E+013.0454061816E+01+
*       6.2345640119E+00               0
GRID*               5211               01.4887004914E+013.2547234250E+01+
*       6.0917471799E+00               0
GRID*               5212               01.4339583252E+013.3283901025E+01+
*       6.3069212744E+00               0
GRID*               5213               01.3327318978E+013.4815469664E+01+
*       6.3069298525E+00               0
GRID*               5214               01.7586793795E+012.9577446799E+01+
*       4.5248169730E+00               0
GRID*               5215               01.7948479507E+012.9245348824E+01+
*       3.7362598156E+00               0
GRID*               5216               01.7456860139E+012.9700003895E+01+
*       3.6415112353E+00               0
GRID*               5217               01.7297775062E+012.9852480153E+01+
*       5.9650215485E+00               0
GRID*               5218               01.6509461602E+013.0649732214E+01+
*       4.6996073902E+00               0
GRID*               5219               01.7785245634E+012.9393601317E+01+
*       6.0598033688E+00               0
GRID*               5220               01.9660007130E+012.7836680103E+01+
*       4.5446991678E+00               0
GRID*               5221               01.9660045335E+012.7836648936E+01+
*       6.4196883919E+00               0
GRID*               5222               01.8909459516E+012.8423230318E+01+
*       4.5626953065E+00               0
GRID*               5223               01.9566640631E+012.7907167982E+01+
*       3.7679927635E+00               0
GRID*               5224               01.8536221965E+012.8732581601E+01+
*       4.9795238529E+00               0
GRID*               5225               01.8447060780E+012.8808307081E+01+
*       4.2028157496E+00               0
GRID*               5226               01.8233699415E+012.8992474515E+01+
*       6.4196977697E+00               0
GRID*               5227               01.6184589432E+013.0999998766E+01+
*       3.9694182473E+00               0
GRID*               5228               01.5811856648E+013.1418979365E+01+
*       3.0443499889E+00               0
GRID*               5229               01.6767706644E+013.0380625193E+01+
*       3.6998539934E+00               0
GRID*               5230               01.5099977783E+013.2275279361E+01+
*       1.4174606612E+00               0
GRID*               5231               01.5341412753E+013.1976101650E+01+
*       5.3866863959E-01               0
GRID*               5232               01.4756280774E+013.2718085841E+01+
*       6.2543551155E-01               0
GRID*               5233               01.5454817420E+013.1838767648E+01+
*       2.2248404388E+00               0
GRID*               5234               01.6064951398E+013.1132428433E+01+
*       2.1502306338E+00               0
GRID*               5235               01.5581048710E+013.1688207952E+01+
*       -3.655487221E-01               0
GRID*               5236               01.5825740575E+013.1403045527E+01+
*       -1.236806063E+00               0
GRID*               5237               01.5224739578E+013.2119500786E+01+
*       -1.124597820E+00               0
GRID*               5238               01.5947593498E+013.1264213018E+01+
*       4.2649207586E-01               0
GRID*               5239               01.6328802698E+013.0842857572E+01+
*       1.2157923762E+00               0
GRID*               5240               01.6585214195E+013.0569964868E+01+
*       3.1160172469E-01               0
GRID*               5241               01.7113722180E+013.0032299143E+01+
*       2.9113076322E+00               0
GRID*               5242               01.8311727297E+012.8924636595E+01+
*       3.3194760404E+00               0
GRID*               5243               01.6707871487E+013.0442269917E+01+
*       2.0352099504E+00               0
GRID*               5244               01.7394757983E+012.9759206337E+01+
*       1.9768434144E+00               0
GRID*               5245               01.8090660992E+012.9118330155E+01+
*       1.7824878243E+00               0
GRID*               5246               01.7663423750E+012.9505985372E+01+
*       9.0639357845E-01               0
GRID*               5247               01.9689064038E+012.7814889970E+01+
*       1.1366764663E+00               0
GRID*               5248               01.9689120186E+012.7814844166E+01+
*       3.0116606288E+00               0
GRID*               5249               01.8710255700E+012.8586818212E+01+
*       1.4927208788E+00               0
GRID*               5250               01.9333113176E+012.8086506405E+01+
*       3.5611967969E-01               0
GRID*               5251               01.8937667520E+012.8400342423E+01+
*       3.0296712921E+00               0
GRID*               5252               01.8428011443E+012.8824584358E+01+
*       2.5631385716E+00               0
GRID*               5253               01.6059096890E+013.1138965685E+01+
*       -2.126099040E+00               0
GRID*               5254               01.6298204830E+013.0875969303E+01+
*       -2.966638998E+00               0
GRID*               5255               01.5692423168E+013.1557333139E+01+
*       -2.836416140E+00               0
GRID*               5256               01.6436754590E+013.0726961814E+01+
*       -1.366932873E+00               0
GRID*               5257               01.7234838594E+012.9913555834E+01+
*       1.5252100355E-01               0
GRID*               5258               01.7924974317E+012.9266537019E+01+
*       -4.182512155E-02               0
GRID*               5259               01.6831739770E+013.0315134773E+01+
*       -6.366072400E-01               0
GRID*               5260               01.7080390521E+013.0065269399E+01+
*       -1.525921013E+00               0
GRID*               5261               01.7743739907E+012.9431726586E+01+
*       -1.725475141E+00               0
GRID*               5262               01.7328111429E+012.9823198803E+01+
*       -2.455727088E+00               0
GRID*               5263               01.9558214377E+012.7913566597E+01+
*       -2.476082359E+00               0
GRID*               5264               01.9558146946E+012.7913621604E+01+
*       -6.010633397E-01               0
GRID*               5265               01.9140779543E+012.8237513040E+01+
*       -3.202681487E+00               0
GRID*               5266               01.8398005674E+012.8850294000E+01+
*       -1.928807623E+00               0
GRID*               5267               01.8584858475E+012.8691584203E+01+
*       -2.451437423E-01               0
GRID*               5268               01.8136731858E+012.9077585371E+01+
*       -9.990138543E-01               0
GRID*               5269               01.6511484746E+013.0647583054E+01+
*       -3.802096164E+00               0
GRID*               5270               01.6747691091E+013.0401184273E+01+
*       -4.667469949E+00               0
GRID*               5271               01.6153206774E+013.1034555578E+01+
*       -4.542353367E+00               0
GRID*               5272               01.6897804093E+013.0248054034E+01+
*       -3.091658239E+00               0
GRID*               5273               01.7554540946E+012.9607703964E+01+
*       -3.291205403E+00               0
GRID*               5274               01.9512007026E+012.7948725812E+01+
*       -6.572985593E+00               0
GRID*               5275               01.9512099121E+012.7948650685E+01+
*       -4.698011569E+00               0
GRID*               5276               01.8094288408E+012.9115102551E+01+
*       -6.572978284E+00               0
GRID*               5277               01.7537018680E+012.9624187721E+01+
*       -6.390107657E+00               0
GRID*               5278               01.8139358905E+012.9075258937E+01+
*       -5.463091562E+00               0
GRID*               5279               01.6929923989E+013.0215612096E+01+
*       -6.453863197E+00               0
GRID*               5280               01.6972355315E+013.0172949546E+01+
*       -5.343979471E+00               0
GRID*               5281               01.7348493529E+012.9803578561E+01+
*       -4.603681941E+00               0
GRID*               5282               01.9254678311E+012.8147711533E+01+
*       -4.017846157E+00               0
GRID*               5283               01.8108515647E+012.9102508926E+01+
*       -3.470440641E+00               0
GRID*               5284               01.8463829841E+012.8794018593E+01+
*       -4.965792790E+00               0
GRID*               5285               01.7660547597E+012.9508654570E+01+
*       -4.106378430E+00               0
GRID*               5286               01.7896647951E+012.9292134976E+01+
*       -4.782908207E+00               0
GRID*               5287               01.2604491961E+013.6083530182E+01+
*       3.3830959843E+00               0
GRID*               5288               01.2776283476E+013.5766122237E+01+
*       2.5294146462E+00               0
GRID*               5289               01.2331725726E+013.6611338959E+01+
*       2.5881302638E+00               0
GRID*               5290               01.2845517082E+013.5641225089E+01+
*       6.1715445885E+00               0
GRID*               5291               01.3195934800E+013.5033563960E+01+
*       4.9784469331E+00               0
GRID*               5292               01.2410510722E+013.6455690769E+01+
*       6.3793011908E+00               0
GRID*               5293               01.1636209179E+013.8120268837E+01+
*       6.3793086799E+00               0
GRID*               5294               01.2295790306E+013.6683226737E+01+
*       5.0508638708E+00               0
GRID*               5295               01.2440920945E+013.6396334503E+01+
*       4.1424408638E+00               0
GRID*               5296               01.2034020176E+013.7225299893E+01+
*       4.3502168172E+00               0
GRID*               5297               01.2893553412E+013.5555548621E+01+
*       4.0837509528E+00               0
GRID*               5298               01.3378634377E+013.4731642185E+01+
*       4.2191224762E+00               0
GRID*               5299               01.2062183778E+013.7165348161E+01+
*       1.8160559936E+00               0
GRID*               5300               01.1910717636E+013.7492768115E+01+
*       2.6697025063E+00               0
GRID*               5301               01.2226243102E+013.6824039735E+01+
*       9.3372955997E-01               0
GRID*               5302               01.1813829194E+013.7708978787E+01+
*       1.0151940797E+00               0
GRID*               5303               01.1563441045E+013.8294879441E+01+
*       2.2203646755E-01               0
GRID*               5304               01.1729319577E+013.7902157636E+01+
*       -6.778084032E-01               0
GRID*               5305               01.1345101180E+013.8842618682E+01+
*       -5.886137940E-01               0
GRID*               5306               01.1421673372E+013.8646200637E+01+
*       1.1043971846E+00               0
GRID*               5307               01.1773829039E+013.7799837964E+01+
*       3.5244933143E+00               0
GRID*               5308               01.1646820585E+013.8095128372E+01+
*       4.4329019457E+00               0
GRID*               5309               01.1533784487E+013.8367119268E+01+
*       2.7523927646E+00               0
GRID*               5310               01.1292309804E+013.8980968034E+01+
*       2.0229119369E+00               0
GRID*               5311               01.1074541554E+013.9579766883E+01+
*       1.2297560141E+00               0
GRID*               5312               01.1175446038E+013.9296382041E+01+
*       2.8777395652E+00               0
GRID*               5313               01.1086512840E+013.9545563272E+01+
*       3.7288988674E+00               0
GRID*               5314               01.0876282017E+014.0170872717E+01+
*       2.9994322701E+00               0
GRID*               5315               01.1284359811E+013.9002014210E+01+
*       6.2887969922E+00               0
GRID*               5316               01.1524716366E+013.8389331974E+01+
*       5.1680811208E+00               0
GRID*               5317               01.0979037265E+013.9858403345E+01+
*       6.5054152328E+00               0
GRID*               5318               01.0458301990E+014.1618851747E+01+
*       6.5054215936E+00               0
GRID*               5319               01.0887786235E+014.0135184614E+01+
*       5.2942284476E+00               0
GRID*               5320               01.0982937580E+013.9846817946E+01+
*       4.4640837807E+00               0
GRID*               5321               01.0708492117E+014.0713674210E+01+
*       4.6807179633E+00               0
GRID*               5322               01.1293966689E+013.8976585843E+01+
*       4.3424133516E+00               0
GRID*               5323               01.0091243251E+014.3286104841E+01+
*       2.5831902016E+00               0
GRID*               5324               01.0269692680E+014.2407852594E+01+
*       3.0732846468E+00               0
GRID*               5325               01.0233294229E+014.2574550878E+01+
*       2.1651814022E+00               0
GRID*               5326               09.8775731111E+004.4654873625E+01+
*       2.7125291530E+00               0
GRID*               5327               09.8776232552E+004.4654545880E+01+
*       8.3745668803E-01               0
GRID*               5328               09.8997558333E+004.4485919624E+01+
*       3.6206810026E+00               0
GRID*               5329               01.0414366614E+014.1792913328E+01+
*       3.3972765708E+00               0
GRID*               5330               01.0249534545E+014.2499494075E+01+
*       3.8152763335E+00               0
GRID*               5331               01.0583155283E+014.1150597691E+01+
*       3.9949467070E+00               0
GRID*               5332               01.0503874166E+014.1443667580E+01+
*       4.8250793141E+00               0
GRID*               5333               01.0608383145E+014.1060201977E+01+
*       3.2529512096E+00               0
GRID*               5334               09.8911547015E+004.4550394217E+01+
*       6.4017333416E+00               0
GRID*               5335               09.8911306213E+004.4550551607E+01+
*       4.5267681389E+00               0
GRID*               5336               01.0198259570E+014.2740398204E+01+
*       6.4017236273E+00               0
GRID*               5337               01.0110605669E+014.3182419803E+01+
*       4.3973683509E+00               0
GRID*               5338               01.0335430677E+014.2119732832E+01+
*       5.4071319136E+00               0
GRID*               5339               01.0235721686E+014.2563255140E+01+
*       4.7213711854E+00               0
GRID*               5340               01.0200516023E+014.2729532627E+01+
*       -6.140149950E+00               0
GRID*               5341               01.0380940050E+014.1928951296E+01+
*       -4.918239982E+00               0
GRID*               5342               01.0504934061E+014.1439671476E+01+
*       -6.278101144E+00               0
GRID*               5343               09.8926161510E+004.4539364946E+01+
*       -6.140146412E+00               0
GRID*               5344               09.8926333834E+004.4539252314E+01+
*       -4.265171316E+00               0
GRID*               5345               01.1142956004E+013.9386470340E+01+
*       -1.409063453E+00               0
GRID*               5346               01.1002505590E+013.9788953384E+01+
*       -5.092256283E-01               0
GRID*               5347               01.1290988178E+013.8984468563E+01+
*       -2.309273416E+00               0
GRID*               5348               01.0954241178E+013.9932549293E+01+
*       -2.229957700E+00               0
GRID*               5349               01.0766621002E+014.0520629812E+01+
*       -3.037122336E+00               0
GRID*               5350               01.0645013962E+014.0931248246E+01+
*       -2.136944100E+00               0
GRID*               5351               01.0600805465E+014.1087245292E+01+
*       -4.000116830E+00               0
GRID*               5352               01.0277520380E+014.2372706574E+01+
*       -3.862123542E+00               0
GRID*               5353               01.0903679151E+014.0086173936E+01+
*       -4.093219815E+00               0
GRID*               5354               09.8958957639E+004.4514764702E+01+
*       -1.266115245E-01               0
GRID*               5355               01.0085860530E+014.3315376240E+01+
*       7.1104195710E-01               0
GRID*               5356               09.8711892293E+004.4705264052E+01+
*       -2.971483136E+00               0
GRID*               5357               01.0072410834E+014.3389280710E+01+
*       -3.486612926E+00               0
GRID*               5358               09.8712040182E+004.4705167391E+01+
*       -1.096504504E+00               0
GRID*               5359               01.0076709962E+014.3365561048E+01+
*       -1.222922438E+00               0
GRID*               5360               01.0241545603E+014.2536288744E+01+
*       -2.568413334E+00               0
GRID*               5361               01.0422466757E+014.1760416889E+01+
*       -2.089121804E+00               0
GRID*               5362               01.0579746852E+014.1162961109E+01+
*       -1.282072544E+00               0
GRID*               5363               01.0191750008E+014.2771878551E+01+
*       -1.713527325E+00               0
GRID*               5364               01.0231282125E+014.2583937178E+01+
*       -7.436469244E-01               0
GRID*               5365               01.0268399922E+014.2413682643E+01+
*       1.1224574973E+00               0
GRID*               5366               01.0478055276E+014.1542326113E+01+
*       1.6125460828E+00               0
GRID*               5367               01.0299292617E+014.2276166260E+01+
*       1.5839503982E-01               0
GRID*               5368               01.0440646033E+014.1688188939E+01+
*       -3.322109852E-01               0
GRID*               5369               01.0665651560E+014.0859711412E+01+
*       -3.800274574E-01               0
GRID*               5370               01.0833522056E+014.0305127133E+01+
*       4.4059096714E-01               0
GRID*               5371               01.0681303047E+014.0805955515E+01+
*       2.4018092843E+00               0
GRID*               5372               01.0728063789E+014.0648045167E+01+
*       1.3590780419E+00               0
GRID*               5373               01.1665890912E+013.8050124984E+01+
*       -2.359740199E+00               0
GRID*               5374               01.1446024074E+013.8584747410E+01+
*       -3.180568568E+00               0
GRID*               5375               01.2074449753E+013.7139371649E+01+
*       -2.415710540E+00               0
GRID*               5376               01.2512079022E+013.6258939030E+01+
*       -2.458791742E+00               0
GRID*               5377               01.2254646816E+013.6766247532E+01+
*       -3.274252027E+00               0
GRID*               5378               01.1894548012E+013.7528491255E+01+
*       -1.544424509E+00               0
GRID*               5379               01.2143596289E+013.6994321217E+01+
*       -7.337129836E-01               0
GRID*               5380               01.2400553842E+013.6475229394E+01+
*       7.1800836056E-02               0
GRID*               5381               01.2589002633E+013.6112707648E+01+
*       -7.948174327E-01               0
GRID*               5382               01.2678572913E+013.5945316588E+01+
*       8.7250028663E-01               0
GRID*               5383               01.2981928006E+013.5399956034E+01+
*       -2.515064988E+00               0
GRID*               5384               01.3474001096E+013.4577791697E+01+
*       -2.558971565E+00               0
GRID*               5385               01.3180201709E+013.5060015662E+01+
*       -3.361261783E+00               0
GRID*               5386               01.2778921833E+013.5761337853E+01+
*       -1.656492625E+00               0
GRID*               5387               01.3064546110E+013.5256808284E+01+
*       -8.511014520E-01               0
GRID*               5388               01.1249283231E+013.9095596458E+01+
*       -3.926161815E+00               0
GRID*               5389               01.1049822869E+013.9650832617E+01+
*       -4.889244297E+00               0
GRID*               5390               01.1619724267E+013.8159508219E+01+
*       -3.976621865E+00               0
GRID*               5391               01.2013278640E+013.7269727018E+01+
*       -4.174641858E+00               0
GRID*               5392               01.1787579846E+013.7768492913E+01+
*       -4.920228787E+00               0
GRID*               5393               01.1038687255E+013.9683101706E+01+
*       -6.278112567E+00               0
GRID*               5394               01.1773880989E+013.7799723272E+01+
*       -6.309104438E+00               0
GRID*               5395               01.2571319487E+013.6146091919E+01+
*       -6.309114372E+00               0
GRID*               5396               01.1401178052E+013.8698294655E+01+
*       -6.111113046E+00               0
GRID*               5397               01.2446051807E+013.6386338374E+01+
*       -4.217832724E+00               0
GRID*               5398               01.3038212238E+013.5302197048E+01+
*       -6.163279885E+00               0
GRID*               5399               01.2634806713E+013.6026704896E+01+
*       -4.972391726E+00               0
GRID*               5400               01.3518659233E+013.4506576700E+01+
*       -6.360479133E+00               0
GRID*               5401               01.4553057321E+013.2989867176E+01+
*       -6.360488027E+00               0
GRID*               5402               01.3591047066E+013.4392278469E+01+
*       -5.023772776E+00               0
GRID*               5403               01.2903705258E+013.5537544491E+01+
*       -4.071969776E+00               0
GRID*               5404               01.3390509697E+013.4712352019E+01+
*       -4.115857149E+00               0
GRID*               5405               01.3892696906E+013.3930134069E+01+
*       -4.313081398E+00               0
GRID*               5406               01.4208696907E+013.3468714200E+01+
*       -3.459953289E+00               0
GRID*               5407               01.4427855088E+013.3161219298E+01+
*       -4.367846046E+00               0
GRID*               5408               01.3994018928E+013.3779760835E+01+
*       -2.618622258E+00               0
GRID*               5409               01.4534486163E+013.3015109929E+01+
*       -2.673290294E+00               0
GRID*               5410               01.4873853654E+013.2564288307E+01+
*       -1.913899525E+00               0
GRID*               5411               01.4646708228E+013.2863678844E+01+
*       -1.042630941E+00               0
GRID*               5412               01.5106880703E+013.2266592469E+01+
*       -2.755256239E+00               0
GRID*               5413               01.5330100610E+013.1989904249E+01+
*       -3.595809926E+00               0
GRID*               5414               01.5119776950E+013.2250385445E+01+
*       -6.243426135E+00               0
GRID*               5415               01.4648534953E+013.2861218571E+01+
*       -5.103905556E+00               0
GRID*               5416               01.5685529185E+013.1565373027E+01+
*       -6.453855149E+00               0
GRID*               5417               01.5790180985E+013.1443942653E+01+
*       -5.197293713E+00               0
GRID*               5418               01.5568239414E+013.1703367000E+01+
*       -4.331902837E+00               0
GRID*               5419               01.4988222717E+013.2417017035E+01+
*       -4.250765795E+00               0
GRID*               5420               01.2959656467E+013.5438923219E+01+
*       1.6757882367E+00               0
GRID*               5421               01.3155521755E+013.5101670721E+01+
*       8.1384532447E-01               0
GRID*               5422               01.3260120232E+013.4926404038E+01+
*       2.4707589923E+00               0
GRID*               5423               01.3564449497E+013.4434108224E+01+
*       3.2809727427E+00               0
GRID*               5424               01.3767640245E+013.4119025535E+01+
*       2.4273819379E+00               0
GRID*               5425               01.3775531038E+013.4107008668E+01+
*       -1.772437938E+00               0
GRID*               5426               01.3564888581E+013.4433437003E+01+
*       -9.126309048E-01               0
GRID*               5427               01.4090067953E+013.3639357104E+01+
*       -9.721787800E-01               0
GRID*               5428               01.3353653885E+013.4772375995E+01+
*       -5.096412343E-02               0
GRID*               5429               01.3661718311E+013.4281997010E+01+
*       7.5233676302E-01               0
GRID*               5430               01.4416603508E+013.3176793206E+01+
*       -1.828060255E-01               0
GRID*               5431               01.4193785577E+013.3490015270E+01+
*       6.9597373896E-01               0
GRID*               5432               01.3975934921E+013.3806430654E+01+
*       1.5607505865E+00               0
GRID*               5957               0-3.473483602E+006.6634455169E+01+
*       -5.520186233E+00               0
GRID*               5958               0-3.818203725E+006.3586325198E+01+
*       -5.332637626E+00               0
GRID*               5959               0-4.162431118E+006.0508887591E+01+
*       -5.145821064E+00               0
GRID*               5960               0-4.515948334E+005.7385303789E+01+
*       -4.965815139E+00               0
GRID*               5961               0-4.920645637E+005.3900413671E+01+
*       -4.783479184E+00               0
GRID*               5962               0-4.572012590E+005.0710461952E+01+
*       -4.019720193E+00               0
GRID*               5963               0-5.880341703E+005.1576964971E+01+
*       -5.653794237E+00               0
GRID*               5964               0-5.884900650E+004.9589029242E+01+
*       -5.201130522E+00               0
GRID*               5965               0-6.397498697E+004.8548760101E+01+
*       -6.131519847E+00               0
GRID*               5966               0-5.968193855E+004.7952921016E+01+
*       -4.983800066E+00               0
GRID*               5967               0-6.472857772E+004.7257656198E+01+
*       -5.924059580E+00               0
GRID*               5968               0-4.742474585E+004.8182642936E+01+
*       -3.779972743E+00               0
GRID*               5969               0-3.141315124E+006.9594914830E+01+
*       -5.709153455E+00               0
GRID*               5970               0-2.881109091E+007.2059892126E+01+
*       -5.880539144E+00               0
GRID*               5971               0-1.105637142E+008.6713199219E+01+
*       -6.831988916E+00               0
GRID*               5972               0-1.690878005E+007.7822396854E+01+
*       -6.005013744E+00               0
GRID*               5973               0-4.451783851E+006.5858352821E+01+
*       -6.388538211E+00               0
GRID*               5974               0-3.646233023E+006.5110463146E+01+
*       -5.426044105E+00               0
GRID*               5975               0-4.609128138E+006.4331858636E+01+
*       -6.309250096E+00               0
GRID*               5976               0-4.258113635E+006.7315727047E+01+
*       -6.406853391E+00               0
GRID*               5977               0-2.605445889E+006.4325118175E+01+
*       -4.770261021E+00               0
GRID*               5978               0-2.732408834E+006.2712233876E+01+
*       -4.629260460E+00               0
GRID*               5979               0-2.423557337E+006.5846856171E+01+
*       -4.882166399E+00               0
GRID*               5980               0-4.795639962E+006.2873554699E+01+
*       -6.292017729E+00               0
GRID*               5981               0-3.990602272E+006.2047666768E+01+
*       -5.238776134E+00               0
GRID*               5982               0-4.951463772E+006.1332285871E+01+
*       -6.213239133E+00               0
GRID*               5983               0-2.914907532E+006.1176004404E+01+
*       -4.516708603E+00               0
GRID*               5984               0-3.041890188E+005.9563124199E+01+
*       -4.375679199E+00               0
GRID*               5985               0-5.131757154E+005.9873155814E+01+
*       -6.198017696E+00               0
GRID*               5986               0-4.339604019E+005.8947169690E+01+
*       -5.055346153E+00               0
GRID*               5987               0-5.289133471E+005.8308480705E+01+
*       -6.123545398E+00               0
GRID*               5988               0-3.230984633E+005.8004180422E+01+
*       -4.264150930E+00               0
GRID*               5989               0-3.357977705E+005.6391302033E+01+
*       -4.123109730E+00               0
GRID*               5990               0-5.462697617E+005.6848558485E+01+
*       -6.109424901E+00               0
GRID*               5991               0-4.718994657E+005.5642976549E+01+
*       -4.873934173E+00               0
GRID*               5992               0-5.638970032E+005.5102407413E+01+
*       -6.037198111E+00               0
GRID*               5993               0-3.577671147E+005.4652667401E+01+
*       -4.003921176E+00               0
GRID*               5994               0-3.704680559E+005.3039792920E+01+
*       -3.862849778E+00               0
GRID*               5995               0-3.468005561E+005.1430073090E+01+
*       -3.593650321E+00               0
GRID*               5996               0-3.594982403E+004.9817195050E+01+
*       -3.452591035E+00               0
GRID*               5997               0-5.805708267E+005.3641665580E+01+
*       -6.024607020E+00               0
GRID*               5998               0-5.444754161E+005.2744992330E+01+
*       -5.186315470E+00               0
GRID*               5999               0-6.110138316E+005.2458104964E+01+
*       -6.552569004E+00               0
GRID*               6000               0-4.757891835E+005.2307604975E+01+
*       -4.387214265E+00               0
GRID*               6001               0-5.328529269E+005.1159631393E+01+
*       -4.746463772E+00               0
GRID*               6002               0-6.250262657E+005.1031383006E+01+
*       -6.550415806E+00               0
GRID*               6003               0-5.885416952E+005.0583342620E+01+
*       -5.426054044E+00               0
GRID*               6004               0-5.299670331E+005.0161270023E+01+
*       -4.542245932E+00               0
GRID*               6005               0-6.292095756E+005.0041828849E+01+
*       -6.308435334E+00               0
GRID*               6006               0-6.432840295E+004.9509936528E+01+
*       -6.810126246E+00               0
GRID*               6007               0-6.544616709E+004.8225034354E+01+
*       -6.809529237E+00               0
GRID*               6008               0-6.176154199E+004.9072893805E+01+
*       -5.650398254E+00               0
GRID*               6009               0-6.657157827E+004.6447069801E+01+
*       -6.409094442E+00               0
GRID*               6010               0-6.134610927E+004.6532897418E+01+
*       -4.949195297E+00               0
GRID*               6011               0-6.254629469E+004.7609184167E+01+
*       -5.438102477E+00               0
GRID*               6012               0-5.795877144E+004.6869798166E+01+
*       -4.525790735E+00               0
GRID*               6013               0-6.435504275E+004.7903115089E+01+
*       -6.027927973E+00               0
GRID*               6014               0-6.591096709E+004.7580332171E+01+
*       -6.704171832E+00               0
GRID*               6015               0-6.223362450E+004.8255522301E+01+
*       -5.538952988E+00               0
GRID*               6016               0-6.673037450E+004.6759338410E+01+
*       -7.202098831E+00               0
GRID*               6017               0-5.177634119E+004.6984388816E+01+
*       -3.922133528E+00               0
GRID*               6018               0-5.421452005E+004.8078646095E+01+
*       -4.316688065E+00               0
GRID*               6019               0-3.805080557E+004.6939859702E+01+
*       -3.196023429E+00               0
GRID*               6020               0-3.678095789E+004.8552735102E+01+
*       -3.337105936E+00               0
GRID*               6021               0-4.657262085E+004.9446556580E+01+
*       -3.899815379E+00               0
GRID*               6022               0-5.387328154E+004.8897806030E+01+
*       -4.419451352E+00               0
GRID*               6023               0-5.926747373E+004.8771001653E+01+
*       -5.092341664E+00               0
GRID*               6024               0-2.296452620E+006.7459708274E+01+
*       -5.023360023E+00               0
GRID*               6025               0-2.582104877E-019.3991186148E+01+
*       -7.361847018E+00               0
GRID*               6026               0-4.177154019E-019.3413490671E+01+
*       -7.352603624E+00               0
GRID*               6027               0-4.186403477E-019.2726889967E+01+
*       -7.274501761E+00               0
GRID*               6028               0-5.933761040E-019.2041172849E+01+
*       -7.258474125E+00               0
GRID*               6029               0-4.181257546E-019.3101614263E+01+
*       -7.317023774E+00               0
GRID*               6030               0-7.904148727E-018.9638509834E+01+
*       -7.050321172E+00               0
GRID*               6031               0-1.017820355E+008.8582544946E+01+
*       -7.018207740E+00               0
GRID*               6032               0-5.943459161E-019.1579477187E+01+
*       -7.205449746E+00               0
GRID*               6033               0-7.854782486E-019.0757038724E+01+
*       -7.182169523E+00               0
GRID*               6034               0-7.874666626E-019.0227250331E+01+
*       -7.120123720E+00               0
GRID*               6035               0-3.307534857E+006.8114742927E+01+
*       -5.614189326E+00               0
GRID*               6036               0-2.121178527E+006.8937593299E+01+
*       -5.136199199E+00               0
GRID*               6037               0-4.104670581E+006.8798090079E+01+
*       -6.488254269E+00               0
GRID*               6038               0-3.903972868E+007.0254457877E+01+
*       -6.508337980E+00               0
GRID*               6039               0-1.993964780E+007.0550414370E+01+
*       -5.277643734E+00               0
GRID*               6040               0-3.011360185E+007.0827421016E+01+
*       -5.794710399E+00               0
GRID*               6041               0-1.859272707E+007.1781702529E+01+
*       -5.373182982E+00               0
GRID*               6042               0-3.781167919E+007.1488259273E+01+
*       -6.585651121E+00               0
GRID*               6043               0-3.573189227E+007.2943574724E+01+
*       -6.606674460E+00               0
GRID*               6044               0-1.571650083E+008.2850960153E+01+
*       -6.561140665E+00               0
GRID*               6045               0-1.558260101E+008.1461981491E+01+
*       -6.386883708E+00               0
GRID*               6046               0-1.298029073E+008.4278263430E+01+
*       -6.619140496E+00               0
GRID*               6047               0-1.537040624E+008.7377937258E+01+
*       -7.134076961E+00               0
GRID*               6048               0-1.787847378E+008.6067345726E+01+
*       -7.112026370E+00               0
GRID*               6049               0-1.020724006E+008.7838407257E+01+
*       -6.931947768E+00               0
GRID*               6050               0-5.597447625E-018.7164827275E+01+
*       -6.703827962E+00               0
GRID*               6051               0-5.645921837E-018.6150066671E+01+
*       -6.584098827E+00               0
GRID*               6052               0-1.292336173E+008.5516654024E+01+
*       -6.762371411E+00               0
GRID*               6053               0-1.732287939E+007.3394584437E+01+
*       -5.514214483E+00               0
GRID*               6054               0-2.575801331E+007.4311382040E+01+
*       -5.997131572E+00               0
GRID*               6055               0-2.334393521E+007.5760768528E+01+
*       -6.050549500E+00               0
GRID*               6056               0-8.345910901E-017.9071607506E+01+
*       -5.903798193E+00               0
GRID*               6057               0-7.213149850E-017.7604518005E+01+
*       -5.742217593E+00               0
GRID*               6058               0-1.820780054E+008.0016519440E+01+
*       -6.328455872E+00               0
GRID*               6059               0-2.588840204E+007.8742814884E+01+
*       -6.630417450E+00               0
GRID*               6060               0-2.824063257E+007.7291746200E+01+
*       -6.599538277E+00               0
GRID*               6061               0-1.102804132E+007.6265219952E+01+
*       -5.666845168E+00               0
GRID*               5861               0-3.010543753E+007.0317177237E+01+
*       5.7230331884E+00               0
GRID*               5862               0-3.390311392E+006.7186070550E+01+
*       5.5398098761E+00               0
GRID*               5863               0-3.752324511E+006.4049079081E+01+
*       5.3503366066E+00               0
GRID*               5864               0-4.269066776E+005.1256072015E+01+
*       3.9100472383E+00               0
GRID*               5865               0-5.863226594E+004.9183050515E+01+
*       5.0784992284E+00               0
GRID*               5866               0-6.604188368E+004.6800390819E+01+
*       6.2858553791E+00               0
GRID*               5867               0-4.122170021E+006.0926553901E+01+
*       5.1762039984E+00               0
GRID*               5868               0-5.625142938E+005.2224519703E+01+
*       5.3466365560E+00               0
GRID*               5869               0-5.142676806E+005.4912002734E+01+
*       5.2041870396E+00               0
GRID*               5870               0-4.528211112E+005.7836872884E+01+
*       5.0489577136E+00               0
GRID*               5871               0-4.065226995E+005.3138975090E+01+
*       4.0445132162E+00               0
GRID*               5872               0-2.584598131E+007.3438476692E+01+
*       5.8854609890E+00               0
GRID*               5873               0-1.925217906E+007.6516882878E+01+
*       5.9464613673E+00               0
GRID*               5874               0-9.075276903E-018.8427915519E+01+
*       6.9551494654E+00               0
GRID*               5875               0-2.049181109E+006.9297595112E+01+
*       5.1491715732E+00               0
GRID*               5876               0-3.200919056E+006.8751716192E+01+
*       5.6307762622E+00               0
GRID*               5877               0-2.249781728E+006.7734644999E+01+
*       5.0375258457E+00               0
GRID*               5878               0-1.922246387E+007.0910537493E+01+
*       5.2892583658E+00               0
GRID*               5879               0-4.144572432E+006.8160097786E+01+
*       6.4191763431E+00               0
GRID*               5880               0-4.350252751E+006.6631691885E+01+
*       6.3990028710E+00               0
GRID*               5881               0-3.970814202E+006.9728442933E+01+
*       6.4932607657E+00               0
GRID*               5882               0-2.376711022E+006.6121726200E+01+
*       4.8970857552E+00               0
GRID*               5883               0-3.571841759E+006.5617649199E+01+
*       5.4446855531E+00               0
GRID*               5884               0-2.568397589E+006.4555716449E+01+
*       4.7835557794E+00               0
GRID*               5885               0-4.515571830E+006.5060590553E+01+
*       6.3201895075E+00               0
GRID*               5886               0-4.713315263E+006.3531146844E+01+
*       6.3015582121E+00               0
GRID*               5887               0-3.426781140E+005.0085576846E+01+
*       3.4350993481E+00               0
GRID*               5888               0-3.299768813E+005.1698422995E+01+
*       3.5762040861E+00               0
GRID*               5889               0-6.252578154E+004.6310307596E+01+
*       5.1099858939E+00               0
GRID*               5890               0-6.699363823E+004.6215594026E+01+
*       6.5944420651E+00               0
GRID*               5891               0-5.742413989E+004.7484775460E+01+
*       4.5732514638E+00               0
GRID*               5892               0-6.301050912E+004.7999315175E+01+
*       5.6558695767E+00               0
GRID*               5893               0-6.418116178E+004.8614398784E+01+
*       6.2386860964E+00               0
GRID*               5894               0-6.618574689E+004.7405480331E+01+
*       6.8915464222E+00               0
GRID*               5895               0-6.715198339E+004.6216811549E+01+
*       6.8918727602E+00               0
GRID*               5896               0-4.167304099E+004.7367941529E+01+
*       3.3733232897E+00               0
GRID*               5897               0-4.426110133E+004.9091465502E+01+
*       3.7133226663E+00               0
GRID*               5898               0-5.149764783E+005.0233867100E+01+
*       4.4054624309E+00               0
GRID*               5899               0-4.879032094E+006.1966853077E+01+
*       6.2319978190E+00               0
GRID*               5900               0-5.069753828E+006.0436427442E+01+
*       6.2160891812E+00               0
GRID*               5901               0-2.695318159E+006.2942819398E+01+
*       4.6427864417E+00               0
GRID*               5902               0-3.937647249E+006.2487904423E+01+
*       5.2625909888E+00               0
GRID*               5903               0-2.893323739E+006.1384531901E+01+
*       4.5335434761E+00               0
GRID*               5904               0-3.020218077E+005.9771651909E+01+
*       4.3924928976E+00               0
GRID*               5905               0-5.744187052E+005.0703785207E+01+
*       5.2125704116E+00               0
GRID*               5906               0-5.031037286E+005.1754637321E+01+
*       4.5394183974E+00               0
GRID*               5907               0-6.281938724E+004.9973282054E+01+
*       6.2424131802E+00               0
GRID*               5908               0-6.162577924E+005.1493978181E+01+
*       6.3766463692E+00               0
GRID*               5909               0-6.007865559E+005.2998938250E+01+
*       6.3819968833E+00               0
GRID*               5910               0-5.244203838E+005.8887340261E+01+
*       6.1753584086E+00               0
GRID*               5911               0-4.326158211E+005.9381884914E+01+
*       5.1114935074E+00               0
GRID*               5912               0-5.426572161E+005.7355916126E+01+
*       6.1615003942E+00               0
GRID*               5913               0-5.658144505E+005.5883119575E+01+
*       6.2894720660E+00               0
GRID*               5914               0-4.842706410E+005.6375579707E+01+
*       5.1198755949E+00               0
GRID*               5915               0-5.827360030E+005.4350144959E+01+
*       6.2802025442E+00               0
GRID*               5916               0-5.389234883E+005.3569026628E+01+
*       5.2713653258E+00               0
GRID*               5917               0-3.243379143E+005.8231226810E+01+
*       4.2964549013E+00               0
GRID*               5918               0-3.370209399E+005.6618352324E+01+
*       4.1552343851E+00               0
GRID*               5919               0-4.167206655E+005.2197537816E+01+
*       3.9771709850E+00               0
GRID*               5920               0-3.194856893E+005.2639005779E+01+
*       3.6506553914E+00               0
GRID*               5921               0-4.933660408E+005.2697013958E+01+
*       4.6001408693E+00               0
GRID*               5922               0-4.653548778E+005.4034639642E+01+
*       4.5640992180E+00               0
GRID*               5923               0-3.067904214E+005.4251851723E+01+
*       3.7917890105E+00               0
GRID*               5924               0-3.743015313E+005.5169152697E+01+
*       4.1401729961E+00               0
GRID*               5925               0-1.401283284E+008.3767436963E+01+
*       6.5976307532E+00               0
GRID*               5926               0-1.393707643E+008.5005568385E+01+
*       6.7430333334E+00               0
GRID*               5927               0-1.681489907E+008.2251822045E+01+
*       6.5429763125E+00               0
GRID*               5928               0-3.756302178E+007.1255634500E+01+
*       6.5152308016E+00               0
GRID*               5929               0-2.798252145E+007.1877993806E+01+
*       5.8030298899E+00               0
GRID*               5930               0-3.562446398E+007.2819776065E+01+
*       6.5735333110E+00               0
GRID*               5931               0-1.697332954E+007.2468045296E+01+
*       5.3956042835E+00               0
GRID*               5932               0-1.570383042E+007.4081007907E+01+
*       5.5353737686E+00               0
GRID*               5933               0-1.673028772E+008.0863910472E+01+
*       6.3599944402E+00               0
GRID*               5934               0-1.940037314E+007.9345967114E+01+
*       6.3046062629E+00               0
GRID*               5935               0-3.337580795E+007.4345449559E+01+
*       6.5979821715E+00               0
GRID*               5936               0-2.806313458E+007.7415700085E+01+
*       6.6037980603E+00               0
GRID*               5937               0-3.045895187E+007.5892484103E+01+
*       6.5729013855E+00               0
GRID*               5938               0-9.543167465E-017.8420816844E+01+
*       5.8529066252E+00               0
GRID*               5939               0-8.424596579E-017.6953732968E+01+
*       5.6940483673E+00               0
GRID*               5940               0-1.222276983E+007.5614227886E+01+
*       5.6182915112E+00               0
GRID*               5941               0-2.258009470E+007.4978506290E+01+
*       5.9094608689E+00               0
GRID*               5942               0-1.119974949E+008.6419246165E+01+
*       6.7794456069E+00               0
GRID*               5943               0-4.530926355E-018.8767032281E+01+
*       6.8409387521E+00               0
GRID*               5944               0-4.553716868E-018.8022372407E+01+
*       6.7587316203E+00               0
GRID*               5945               0-8.545811785E-018.9345102950E+01+
*       7.0425780764E+00               0
GRID*               5946               0-1.283457790E+008.8999747656E+01+
*       7.2038570464E+00               0
GRID*               5947               0-8.552303707E-018.9935054410E+01+
*       7.1020758495E+00               0
GRID*               5948               0-1.106450662E+008.7431864199E+01+
*       6.9167653865E+00               0
GRID*               5949               0-1.520815364E+008.7828018266E+01+
*       7.1849874645E+00               0
GRID*               5950               0-4.387187285E-019.3009500840E+01+
*       7.3192588035E+00               0
GRID*               5951               0-4.388175686E-019.2634805320E+01+
*       7.2762812039E+00               0
GRID*               5952               0-4.387649084E-019.3321366287E+01+
*       7.3550825909E+00               0
GRID*               5953               0-2.651164755E-019.3952611268E+01+
*       7.3696430870E+00               0
GRID*               5954               0-6.359415516E-019.0871273763E+01+
*       7.1394978693E+00               0
GRID*               5955               0-6.344487846E-019.1862849074E+01+
*       7.2548301017E+00               0
GRID*               5956               0-6.349954697E-019.1401200608E+01+
*       7.2011069557E+00               0
GRID*               5589               02.3428883360E+007.5643646786E+01+
*       -6.039903745E+00               0
GRID*               5590               02.6639620999E+007.3141904361E+01+
*       -5.892486612E+00               0
GRID*               5591               04.2843061392E+005.1235597361E+01+
*       -3.915843862E+00               0
GRID*               5592               05.8604800596E+004.9217934133E+01+
*       -5.081549475E+00               0
GRID*               5593               06.6020286914E+004.6829106117E+01+
*       -6.288914794E+00               0
GRID*               5594               03.0321071441E+007.0143063855E+01+
*       -5.712931312E+00               0
GRID*               5595               03.4004906398E+006.7062451374E+01+
*       -5.529315476E+00               0
GRID*               5596               04.0689978296E+005.3107995115E+01+
*       -4.042514223E+00               0
GRID*               5597               05.6168280973E+005.2272447290E+01+
*       -5.343666653E+00               0
GRID*               5598               03.7543483729E+006.3954241180E+01+
*       -5.337879744E+00               0
GRID*               5599               04.1229721736E+006.0872018465E+01+
*       -5.168534903E+00               0
GRID*               5600               05.1319070436E+005.4930229415E+01+
*       -5.194302054E+00               0
GRID*               5601               04.5230723042E+005.7818194533E+01+
*       -5.041205310E+00               0
GRID*               5602               04.4169216142E-019.3012534284E+01+
*       -7.314824167E+00               0
GRID*               5603               04.4295381117E-019.2638046208E+01+
*       -7.270384909E+00               0
GRID*               5604               04.4071150128E-019.3324228077E+01+
*       -7.351874684E+00               0
GRID*               5605               02.6791333413E-019.3953466717E+01+
*       -7.361790737E+00               0
GRID*               5606               06.3751115070E-019.0878203783E+01+
*       -7.137843087E+00               0
GRID*               5607               08.5279634083E-018.9947826047E+01+
*       -7.103331891E+00               0
GRID*               5608               06.3359628191E-019.1869334809E+01+
*       -7.255863104E+00               0
GRID*               5609               06.3520147843E-019.1407846283E+01+
*       -7.201275620E+00               0
GRID*               5610               02.9821678607E+007.7009807459E+01+
*       -6.692375006E+00               0
GRID*               5611               03.2165694052E+007.5490919279E+01+
*       -6.667630271E+00               0
GRID*               5612               02.0897474680E+007.7909744272E+01+
*       -6.197934936E+00               0
GRID*               5613               01.9739696112E+007.9379911742E+01+
*       -6.326519487E+00               0
GRID*               5614               01.3421769151E+007.6517431669E+01+
*       -5.747483766E+00               0
GRID*               5615               01.7084226231E+008.0892825796E+01+
*       -6.379971045E+00               0
GRID*               5616               01.6738327918E+008.2282874107E+01+
*       -6.542640640E+00               0
GRID*               5617               01.3938201407E+008.3793132640E+01+
*       -6.598009625E+00               0
GRID*               5618               01.3871161698E+008.5031308868E+01+
*       -6.743080406E+00               0
GRID*               5619               01.1130548269E+008.6438778139E+01+
*       -6.782324184E+00               0
GRID*               5620               08.5196202291E-018.9357907908E+01+
*       -7.043629408E+00               0
GRID*               5621               08.5460113543E-018.8613606984E+01+
*       -6.958656721E+00               0
GRID*               5622               01.1017644429E+008.7451665330E+01+
*       -6.917411163E+00               0
GRID*               5623               01.4670266105E+007.4932306952E+01+
*       -5.608799259E+00               0
GRID*               5624               02.5037967357E+007.4392839867E+01+
*       -5.965675953E+00               0
GRID*               5625               01.6330009865E+007.3682856556E+01+
*       -5.523912809E+00               0
GRID*               5626               03.3659821872E+007.4237894413E+01+
*       -6.608684206E+00               0
GRID*               5627               03.5893983543E+007.2717344842E+01+
*       -6.585131959E+00               0
GRID*               5628               03.4377771163E+005.0047683766E+01+
*       -3.433849948E+00               0
GRID*               5629               03.3129327029E+005.1632807721E+01+
*       -3.572551507E+00               0
GRID*               5630               06.2515629216E+004.6324673713E+01+
*       -5.111463135E+00               0
GRID*               5631               06.6982592167E+004.6229949467E+01+
*       -6.595975826E+00               0
GRID*               5632               05.7410499902E+004.7502216959E+01+
*       -4.574788250E+00               0
GRID*               5633               06.2986407363E+004.8031119862E+01+
*       -5.658890002E+00               0
GRID*               5634               06.4119847778E+004.8680000340E+01+
*       -6.240366255E+00               0
GRID*               5635               06.6134784160E+004.7468071640E+01+
*       -6.893068504E+00               0
GRID*               5636               06.7140732455E+004.6231165342E+01+
*       -6.893408619E+00               0
GRID*               5637               04.1693341610E+004.7340226297E+01+
*       -3.370841992E+00               0
GRID*               5638               04.4267596910E+004.9081194108E+01+
*       -3.712336813E+00               0
GRID*               5639               05.1548953520E+005.0240848281E+01+
*       -4.411439800E+00               0
GRID*               5640               01.7580345926E+007.2097807778E+01+
*       -5.384522227E+00               0
GRID*               5641               02.8483160214E+007.1642587669E+01+
*       -5.801991614E+00               0
GRID*               5642               01.9525599180E+007.0601489428E+01+
*       -5.268617160E+00               0
GRID*               5643               03.7595527616E+007.1215403153E+01+
*       -6.511807167E+00               0
GRID*               5644               03.9734223220E+006.9693455256E+01+
*       -6.490021075E+00               0
GRID*               5645               02.0773497917E+006.9016353725E+01+
*       -5.130001043E+00               0
GRID*               5646               03.2167247007E+006.8602841905E+01+
*       -5.620536257E+00               0
GRID*               5647               02.2701782405E+006.7478271844E+01+
*       -5.020444285E+00               0
GRID*               5648               04.1424694213E+006.8150525033E+01+
*       -6.414684831E+00               0
GRID*               5649               04.3476388877E+006.6627384470E+01+
*       -6.394555353E+00               0
GRID*               5650               03.2017974791E+005.2567959310E+01+
*       -3.644732644E+00               0
GRID*               5651               04.1767416082E+005.2171817562E+01+
*       -3.979015963E+00               0
GRID*               5652               03.0769725277E+005.4153087971E+01+
*       -3.783394680E+00               0
GRID*               5653               06.2728915535E+005.0066417131E+01+
*       -6.244215646E+00               0
GRID*               5654               05.7386577717E+005.0745190938E+01+
*       -5.212610840E+00               0
GRID*               5655               06.1518965655E+005.1593769935E+01+
*       -6.374937514E+00               0
GRID*               5656               05.0325862242E+005.1768020411E+01+
*       -4.543046881E+00               0
GRID*               5657               04.9304553390E+005.2705340748E+01+
*       -4.598503961E+00               0
GRID*               5658               04.5097682442E+006.5070814105E+01+
*       -6.313933176E+00               0
GRID*               5659               04.7071454413E+006.3546653916E+01+
*       -6.295284154E+00               0
GRID*               5660               02.3947890860E+006.5893075893E+01+
*       -4.882357407E+00               0
GRID*               5661               03.5778992204E+006.5508413037E+01+
*       -5.433256124E+00               0
GRID*               5662               02.5816239060E+006.4341453762E+01+
*       -4.767045831E+00               0
GRID*               5663               02.7066229690E+006.2756370281E+01+
*       -4.628020209E+00               0
GRID*               5664               04.8720351113E+006.2002472910E+01+
*       -6.228356876E+00               0
GRID*               5665               05.0623805852E+006.0477325854E+01+
*       -6.212426122E+00               0
GRID*               5666               03.9390702609E+006.2413220299E+01+
*       -5.252506578E+00               0
GRID*               5667               02.9039629201E+006.1218363734E+01+
*       -4.519554979E+00               0
GRID*               5668               03.0288982810E+005.9633259637E+01+
*       -4.380708004E+00               0
GRID*               5669               05.3798090198E+005.3602124753E+01+
*       -5.264786002E+00               0
GRID*               5670               04.6489168375E+005.4028074845E+01+
*       -4.559283479E+00               0
GRID*               5671               05.9965268716E+005.3101751086E+01+
*       -6.380400145E+00               0
GRID*               5672               05.8154466983E+005.4438213157E+01+
*       -6.274509776E+00               0
GRID*               5673               05.6463563465E+005.5965884639E+01+
*       -6.283864724E+00               0
GRID*               5674               05.4166554634E+005.7420125603E+01+
*       -6.157298512E+00               0
GRID*               5675               04.8345857136E+005.6375330050E+01+
*       -5.111170785E+00               0
GRID*               5676               05.2345615897E+005.8946261986E+01+
*       -6.171212594E+00               0
GRID*               5677               04.3239473720E+005.9345270947E+01+
*       -5.103824826E+00               0
GRID*               5678               03.2480932207E+005.8110695291E+01+
*       -4.284468541E+00               0
GRID*               5679               03.3729863971E+005.6525582762E+01+
*       -4.145679923E+00               0
GRID*               5680               03.7415412085E+005.5094667813E+01+
*       -4.130171983E+00               0
GRID*               5681               01.1041695032E+008.6728400088E+01+
*       6.8332090153E+00               0
GRID*               5682               03.1252959219E+006.9543246405E+01+
*       5.6910004716E+00               0
GRID*               5683               02.5248031457E+007.4917841835E+01+
*       6.0482270861E+00               0
GRID*               5684               02.7895645698E+007.2475558336E+01+
*       5.8791405338E+00               0
GRID*               5685               03.4749988370E+006.6525480346E+01+
*       5.5055135480E+00               0
GRID*               5686               03.8260548782E+006.3498187544E+01+
*       5.3256411331E+00               0
GRID*               5687               04.1660258526E+006.0466701259E+01+
*       5.1423596161E+00               0
GRID*               5688               04.5208200319E+005.7470449217E+01+
*       4.9836979627E+00               0
GRID*               5689               06.0119659857E+004.8457722123E+01+
*       5.1671469131E+00               0
GRID*               5690               05.0024943776E+005.0519518476E+01+
*       4.3176817852E+00               0
GRID*               5691               06.6137515912E+004.6700545240E+01+
*       6.2863365368E+00               0
GRID*               5692               05.5146028824E+005.2342765928E+01+
*       5.2048210293E+00               0
GRID*               5693               04.9109129544E+005.4604076510E+01+
*       4.8906572684E+00               0
GRID*               5694               07.8534413344E-019.0236338248E+01+
*       7.1205306047E+00               0
GRID*               5695               07.8537200817E-019.0766716157E+01+
*       7.1776483323E+00               0
GRID*               5696               07.8781210471E-018.9647488508E+01+
*       7.0515443766E+00               0
GRID*               5697               05.9403066133E-019.1585168774E+01+
*       7.2026227078E+00               0
GRID*               5698               05.9229054410E-019.2046614637E+01+
*       7.2577135375E+00               0
GRID*               5699               02.5812658244E-019.3991207388E+01+
*       7.3615614780E+00               0
GRID*               5700               04.1745963573E-019.3415751892E+01+
*       7.3513166571E+00               0
GRID*               5701               04.1931701133E-019.2729441378E+01+
*       7.2708255322E+00               0
GRID*               5702               04.1829949563E-019.3104010435E+01+
*       7.3146235083E+00               0
GRID*               5703               01.0148741028E+008.8596538439E+01+
*       7.0187229442E+00               0
GRID*               5704               01.6698852659E+007.9998994814E+01+
*       6.7259774444E+00               0
GRID*               5705               01.7855901370E+007.8528824978E+01+
*       6.5973541737E+00               0
GRID*               5706               01.5982121001E+008.1487759039E+01+
*       6.4051548187E+00               0
GRID*               5707               01.5666427212E+008.2878508367E+01+
*       6.5620903048E+00               0
GRID*               5708               01.2938858181E+008.4299381201E+01+
*       6.6199908153E+00               0
GRID*               5709               01.5335183027E+008.7399571965E+01+
*       7.1348841436E+00               0
GRID*               5710               01.7832199434E+008.6096128337E+01+
*       7.1129908756E+00               0
GRID*               5711               01.0177945914E+008.7852403264E+01+
*       6.9324412153E+00               0
GRID*               5712               05.5903356356E-018.7172440258E+01+
*       6.7043140672E+00               0
GRID*               5713               05.6384252260E-018.6157665260E+01+
*       6.5847145636E+00               0
GRID*               5714               01.2881912604E+008.5537773524E+01+
*       6.7632085926E+00               0
GRID*               5715               01.4351806578E+007.6154653667E+01+
*       5.7522491583E+00               0
GRID*               5716               01.5604315217E+007.4569687543E+01+
*       5.6121107305E+00               0
GRID*               5717               02.2229858651E+007.7133186456E+01+
*       6.1687482476E+00               0
GRID*               5718               03.1844460603E+007.5865974543E+01+
*       6.6978930651E+00               0
GRID*               5719               03.7354123516E+007.1743854433E+01+
*       6.5780737823E+00               0
GRID*               5720               02.9577175202E+007.1009453600E+01+
*       5.7846786283E+00               0
GRID*               5721               03.8916469262E+007.0275613456E+01+
*       6.4974094177E+00               0
GRID*               5722               03.5270179381E+007.3194280648E+01+
*       6.5998773507E+00               0
GRID*               5723               03.4015301661E+007.4416746319E+01+
*       6.6756639403E+00               0
GRID*               5724               02.6573001783E+007.3696727091E+01+
*       5.9634901834E+00               0
GRID*               5725               02.0027702409E+007.0302552207E+01+
*       5.2496121720E+00               0
GRID*               5726               02.1275583326E+006.8717407898E+01+
*       5.1111118697E+00               0
GRID*               5727               01.8269559526E+007.1766466030E+01+
*       5.3622756200E+00               0
GRID*               5728               01.7013756658E+007.3351306595E+01+
*       5.5035510885E+00               0
GRID*               5729               04.2528459312E+006.7312732578E+01+
*       6.3992662008E+00               0
GRID*               5730               04.4462064730E+006.5860116085E+01+
*       6.3809215214E+00               0
GRID*               5731               03.3003526700E+006.8034437285E+01+
*       5.5976731893E+00               0
GRID*               5732               02.3111257860E+006.7210724350E+01+
*       5.0010985265E+00               0
GRID*               5733               04.0922487182E+006.8824028447E+01+
*       6.4771709048E+00               0
GRID*               5734               04.6056597251E+006.4343864317E+01+
*       6.3065594050E+00               0
GRID*               5735               04.7917670059E+006.2890306922E+01+
*       6.2894152220E+00               0
GRID*               5736               03.6509736646E+006.5011916696E+01+
*       5.4151491015E+00               0
GRID*               5737               02.4358992516E+006.5625575761E+01+
*       4.8626453236E+00               0
GRID*               5738               02.6219650961E+006.4114501885E+01+
*       4.7526756791E+00               0
GRID*               5739               02.9272878436E+006.1016129766E+01+
*       4.5032172474E+00               0
GRID*               5740               03.0521378802E+005.9431003489E+01+
*       4.3645475264E+00               0
GRID*               5741               02.7468206434E+006.2529377718E+01+
*       4.6139864860E+00               0
GRID*               5742               03.9963232459E+006.1982504098E+01+
*       5.2335539292E+00               0
GRID*               5743               04.9456347773E+006.1372039947E+01+
*       6.2122560130E+00               0
GRID*               5744               05.1257054002E+005.9917672753E+01+
*       6.1973712420E+00               0
GRID*               5745               04.3439320771E+005.8968665936E+01+
*       5.0624516830E+00               0
GRID*               5746               05.2817765010E+005.8416377282E+01+
*       6.1351001951E+00               0
GRID*               5747               03.2434449324E+005.7936063132E+01+
*       4.2612394347E+00               0
GRID*               5748               03.3682878420E+005.6350935732E+01+
*       4.1225758646E+00               0
GRID*               5749               03.8506604875E+004.9703417458E+01+
*       3.5254826450E+00               0
GRID*               5750               03.7258173729E+005.1288545088E+01+
*       3.6641434818E+00               0
GRID*               5751               06.2589845357E+004.6260508635E+01+
*       5.1103857332E+00               0
GRID*               5752               06.3667018257E+004.7585080025E+01+
*       5.7071966282E+00               0
GRID*               5753               05.8258325197E+004.7123316247E+01+
*       4.6119468538E+00               0
GRID*               5754               06.7037386054E+004.6165633300E+01+
*       6.5946560644E+00               0
GRID*               5755               06.6238157502E+004.7341987088E+01+
*       6.8915781110E+00               0
GRID*               5756               06.4679757950E+004.8235283548E+01+
*       6.2940453112E+00               0
GRID*               5757               06.7191975404E+004.6166855233E+01+
*       6.8916763634E+00               0
GRID*               5758               04.1697544743E+004.7340244065E+01+
*       3.3710129796E+00               0
GRID*               5759               04.5333851083E+004.8706314017E+01+
*       3.7230173510E+00               0
GRID*               5760               05.5499466801E+004.9495068751E+01+
*       4.7069010566E+00               0
GRID*               5761               06.3392063511E+004.9545887610E+01+
*       6.2969560803E+00               0
GRID*               5762               06.1395698308E+005.1494119013E+01+
*       6.2947777832E+00               0
GRID*               5763               05.2807668446E+005.1434629617E+01+
*       4.7412450180E+00               0
GRID*               5764               06.0433568377E+005.0603458532E+01+
*       5.7554027036E+00               0
GRID*               5765               05.9899900961E+005.2924364125E+01+
*       6.3002962471E+00               0
GRID*               5766               03.5862121216E+005.4922692031E+01+
*       4.0400549570E+00               0
GRID*               5767               04.7170301534E+005.6037453932E+01+
*       4.9360501903E+00               0
GRID*               5768               03.7110664560E+005.3337568166E+01+
*       3.9013611740E+00               0
GRID*               5769               04.1002389540E+005.2223667994E+01+
*       3.9449284012E+00               0
GRID*               5770               05.2231429590E+005.3475027349E+01+
*       5.0387043943E+00               0
GRID*               5771               05.4550955004E+005.6961209816E+01+
*       6.1218295585E+00               0
GRID*               5772               05.6173444886E+005.5523391628E+01+
*       6.0988064064E+00               0
GRID*               5773               05.7834114588E+005.4067346750E+01+
*       6.0881364374E+00               0
GRID*               6255               0-3.124872738E+011.5679451764E+01+
*       -2.974362733E+00               0
GRID*               6256               0-2.849999978E+011.7192885070E+01+
*       -4.050000191E+00               0
GRID*               6257               0-2.575249231E+011.8705888860E+01+
*       -2.975360474E+00               0
GRID*               6258               0-2.445000076E+011.9447011710E+01+
*       -2.515049886E-12               0
GRID*               6259               0-2.575249231E+011.8705888860E+01+
*       2.9753604740E+00               0
GRID*               6260               0-2.849999978E+011.7192885070E+01+
*       4.0500001907E+00               0
GRID*               6261               0-3.124872738E+011.5679451764E+01+
*       2.9743627329E+00               0
GRID*               6262               0-3.127852290E+011.1672762179E+01+
*       -2.946553387E+00               0
GRID*               6263               0-2.849999982E+011.2799457794E+01+
*       -4.050000191E+00               0
GRID*               6264               0-2.572202209E+011.3925943198E+01+
*       -2.946996226E+00               0
GRID*               6265               0-2.445000076E+011.4477570494E+01+
*       -5.004823041E-12               0
GRID*               6266               0-2.572202209E+011.3925943198E+01+
*       2.9469962260E+00               0
GRID*               6267               0-2.849999982E+011.2799457794E+01+
*       4.0500001907E+00               0
GRID*               6268               0-3.127852290E+011.1672762179E+01+
*       2.9465533865E+00               0
GRID*               6269               0-3.130762867E+017.7288236604E+00+
*       -2.918847117E+00               0
GRID*               6270               0-2.849999986E+018.4748346080E+00+
*       -4.050000191E+00               0
GRID*               6271               0-2.569247482E+019.2207964473E+00+
*       -2.918925855E+00               0
GRID*               6272               0-2.445000076E+019.5859541427E+00+
*       -7.464335095E-12               0
GRID*               6273               0-2.569247482E+019.2207964473E+00+
*       2.9189258548E+00               0
GRID*               6274               0-2.849999986E+018.4748346080E+00+
*       4.0500001907E+00               0
GRID*               6275               0-3.130762867E+017.7288236604E+00+
*       2.9188471174E+00               0
GRID*               6276               0-3.133598121E+013.8459498335E+00+
*       -2.891314046E+00               0
GRID*               6277               0-2.849999989E+014.2171727301E+00+
*       -4.050000191E+00               0
GRID*               6278               0-2.566400327E+014.5883933840E+00+
*       -2.891297204E+00               0
GRID*               6279               0-2.445000076E+014.7700782697E+00+
*       -9.880650513E-12               0
GRID*               6280               0-2.566400327E+014.5883933840E+00+
*       2.8912972044E+00               0
GRID*               6281               0-2.849999989E+014.2171727301E+00+
*       4.0500001907E+00               0
GRID*               6282               0-3.133598121E+013.8459498335E+00+
*       2.8913140465E+00               0
GRID*               6283               0-3.126363394E+011.3676105192E+01+
*       -2.960515788E+00               0
GRID*               6284               0-2.999494438E+011.2236076285E+01+
*       -3.763991662E+00               0
GRID*               6285               0-2.997609664E+011.4239421670E+01+
*       -3.771422324E+00               0
GRID*               6286               0-2.849999980E+011.4996171432E+01+
*       -4.050000191E+00               0
GRID*               6287               0-2.997602139E+011.6436135488E+01+
*       -3.771452146E+00               0
GRID*               6288               0-2.700539556E+011.3362684044E+01+
*       -3.764096043E+00               0
GRID*               6289               0-2.700554930E+011.5559374684E+01+
*       -3.764149901E+00               0
GRID*               6290               0-2.573725508E+011.6315906786E+01+
*       -2.961242678E+00               0
GRID*               6291               0-2.702472577E+011.7949367074E+01+
*       -3.771680117E+00               0
GRID*               6292               0-2.478150220E+011.4201788366E+01+
*       -1.604709845E+00               0
GRID*               6293               0-2.478976858E+011.6591831138E+01+
*       -1.623682009E+00               0
GRID*               6294               0-2.445000076E+011.6962291102E+01+
*       -3.760775180E-12               0
GRID*               6295               0-2.478976407E+011.9076540674E+01+
*       -1.623659204E+00               0
GRID*               6296               0-2.478150220E+011.4201788366E+01+
*       1.6047098447E+00               0
GRID*               6297               0-2.478149766E+011.6686498394E+01+
*       1.6046860417E+00               0
GRID*               6298               0-2.573725508E+011.6315906786E+01+
*       2.9612426782E+00               0
GRID*               6299               0-2.478976407E+011.9076540674E+01+
*       1.6236592036E+00               0
GRID*               6300               0-2.700539556E+011.3362684044E+01+
*       3.7640960433E+00               0
GRID*               6301               0-2.702457546E+011.5752675924E+01+
*       3.7716277320E+00               0
GRID*               6302               0-2.849999980E+011.4996171432E+01+
*       4.0500001907E+00               0
GRID*               6303               0-2.702472577E+011.7949367074E+01+
*       3.7716801175E+00               0
GRID*               6304               0-2.999494438E+011.2236076285E+01+
*       3.7639916617E+00               0
GRID*               6305               0-2.999486162E+011.4432789895E+01+
*       3.7640245020E+00               0
GRID*               6306               0-3.126363394E+011.3676105192E+01+
*       2.9605157877E+00               0
GRID*               6307               0-2.997602139E+011.6436135488E+01+
*       3.7714521458E+00               0
GRID*               6308               0-3.129311403E+019.7007931820E+00+
*       -2.932733348E+00               0
GRID*               6309               0-3.001354203E+018.1017931120E+00+
*       -3.756552550E+00               0
GRID*               6310               0-2.999502693E+011.0073764750E+01+
*       -3.763958957E+00               0
GRID*               6311               0-2.849999984E+011.0637146201E+01+
*       -4.050000191E+00               0
GRID*               6312               0-2.698655462E+018.8477870262E+00+
*       -3.756583122E+00               0
GRID*               6313               0-2.698666673E+011.1010087683E+01+
*       -3.756624663E+00               0
GRID*               6314               0-2.570716300E+011.1573386117E+01+
*       -2.932954917E+00               0
GRID*               6315               0-2.477351917E+019.4033578068E+00+
*       -1.586125246E+00               0
GRID*               6316               0-2.478150427E+011.1755991451E+01+
*       -1.604728767E+00               0
GRID*               6317               0-2.445000076E+011.2031762319E+01+
*       -6.233674137E-12               0
GRID*               6318               0-2.477351917E+019.4033578068E+00+
*       1.5861252461E+00               0
GRID*               6319               0-2.477349993E+011.1849160942E+01+
*       1.5860733011E+00               0
GRID*               6320               0-2.570716300E+011.1573386117E+01+
*       2.9329549166E+00               0
GRID*               6321               0-2.698655462E+018.8477870262E+00+
*       3.7565831225E+00               0
GRID*               6322               0-2.700523888E+011.1200396681E+01+
*       3.7640414027E+00               0
GRID*               6323               0-2.849999984E+011.0637146201E+01+
*       4.0500001907E+00               0
GRID*               6324               0-3.001354203E+018.1017931120E+00+
*       3.7565525499E+00               0
GRID*               6325               0-3.001346054E+011.0264104671E+01+
*       3.7565853420E+00               0
GRID*               6326               0-3.129311403E+019.7007931820E+00+
*       2.9327333482E+00               0
GRID*               6327               0-3.132184201E+015.7873869764E+00+
*       -2.905112646E+00               0
GRID*               6328               0-3.003181075E+014.0315239447E+00+
*       -3.749140496E+00               0
GRID*               6329               0-3.001362216E+015.9729622035E+00+
*       -3.756520302E+00               0
GRID*               6330               0-2.849999988E+016.3460036691E+00+
*       -4.050000191E+00               0
GRID*               6331               0-2.696820607E+014.4027495124E+00+
*       -3.749146405E+00               0
GRID*               6332               0-2.696828674E+016.5315785512E+00+
*       -3.749178701E+00               0
GRID*               6333               0-2.567817309E+016.9046048629E+00+
*       -2.905119449E+00               0
GRID*               6334               0-2.476581066E+014.6792038251E+00+
*       -1.567905681E+00               0
GRID*               6335               0-2.477354015E+016.9954241071E+00+
*       -1.586180181E+00               0
GRID*               6336               0-2.445000076E+017.1780162062E+00+
*       -8.671676159E-12               0
GRID*               6337               0-2.476581066E+014.6792038251E+00+
*       1.5679056808E+00               0
GRID*               6338               0-2.476578061E+017.0871408835E+00+
*       1.5678328930E+00               0
GRID*               6339               0-2.567817309E+016.9046048629E+00+
*       2.9051194492E+00               0
GRID*               6340               0-2.696820607E+014.4027495124E+00+
*       3.7491464051E+00               0
GRID*               6341               0-2.698644951E+016.7189652688E+00+
*       3.7565438206E+00               0
GRID*               6342               0-2.849999988E+016.3460036691E+00+
*       4.0500001907E+00               0
GRID*               6343               0-3.003181075E+014.0315239447E+00+
*       3.7491404961E+00               0
GRID*               6344               0-3.003173164E+016.1603548757E+00+
*       3.7491728310E+00               0
GRID*               6345               0-3.132184201E+015.7873869764E+00+
*       2.9051126464E+00               0
GRID*               6346               0-3.221052619E+011.5309062071E+01+
*       -1.623106078E+00               0
GRID*               6347               0-3.221059978E+011.7236640699E+01+
*       -1.622955996E+00               0
GRID*               6348               0-3.123414808E+011.7702503675E+01+
*       -2.987824831E+00               0
GRID*               6349               0-3.221863020E+011.1397011594E+01+
*       -1.604452764E+00               0
GRID*               6350               0-3.221866383E+011.3305718197E+01+
*       -1.604374699E+00               0
GRID*               6351               0-3.222651965E+017.5462267719E+00+
*       -1.586043802E+00               0
GRID*               6352               0-3.222655228E+019.4250417116E+00+
*       -1.585966985E+00               0
GRID*               6353               0-3.223419572E+013.7550663326E+00+
*       -1.567886570E+00               0
GRID*               6354               0-3.223422787E+015.6047902299E+00+
*       -1.567809946E+00               0
GRID*               6355               0-3.224174207E+011.8320922364E+00+
*       -1.549791205E+00               0
GRID*               6356               0-3.134991553E+011.9229749559E+00+
*       -2.877581407E+00               0
GRID*               6357               0-3.003188904E+011.9229375853E+00+
*       -3.749108504E+00               0
GRID*               6358               0-2.849999991E+012.1085863651E+00+
*       -4.050000191E+00               0
GRID*               6359               0-2.695020571E+012.1085518170E+00+
*       -3.741742470E+00               0
GRID*               6360               0-2.565007012E+012.2941981980E+00+
*       -2.877567720E+00               0
GRID*               6361               0-2.476584123E+012.2941652084E+00+
*       -1.567979276E+00               0
GRID*               6362               0-2.445000076E+012.3850391348E+00+
*       -1.109455319E-11               0
GRID*               6363               0-2.504310918E+012.3850391348E+00+
*       1.4318913194E+00               0
GRID*               6364               0-2.565007012E+012.2941981980E+00+
*       2.8775677200E+00               0
GRID*               6365               0-2.696812833E+012.2941642930E+00+
*       3.7491150707E+00               0
GRID*               6366               0-2.849999991E+012.1085863651E+00+
*       4.0500001907E+00               0
GRID*               6367               0-3.004978971E+012.1085481758E+00+
*       3.7417443733E+00               0
GRID*               6368               0-3.134991553E+011.9229749559E+00+
*       2.8775814067E+00               0
GRID*               6369               0-3.223416383E+011.9229327792E+00+
*       1.5679625292E+00               0
GRID*               6370               0-3.223419572E+013.7550663326E+00+
*       1.5678865700E+00               0
GRID*               6371               0-3.222651965E+017.5462267719E+00+
*       1.5860438025E+00               0
GRID*               6372               0-3.222648750E+015.6965028977E+00+
*       1.5861195000E+00               0
GRID*               6373               0-3.221863020E+011.1397011594E+01+
*       1.6044527641E+00               0
GRID*               6374               0-3.221859756E+019.5181966767E+00+
*       1.6045286522E+00               0
GRID*               6375               0-3.221052619E+011.5309062071E+01+
*       1.6231060782E+00               0
GRID*               6376               0-3.221048845E+011.3400355231E+01+
*       1.6231916283E+00               0
GRID*               6377               0-3.220230367E+011.7332193587E+01+
*       1.6418132020E+00               0
GRID*               6378               0-3.123414808E+011.7702503675E+01+
*       2.9878248311E+00               0
GRID*               6379               0-2.997606428E+011.8654546676E+01+
*       3.7714477144E+00               0
GRID*               6380               0-2.849999976E+011.9411334442E+01+
*       4.0500001907E+00               0
GRID*               6381               0-2.704395888E+012.0363055486E+01+
*       3.7791370667E+00               0
GRID*               6382               0-2.576753848E+012.1119643807E+01+
*       2.9892032989E+00               0
GRID*               6383               0-2.478970712E+012.1585853201E+01+
*       1.6235381444E+00               0
GRID*               6384               0-2.445000076E+012.1956317783E+01+
*       -1.256192904E-12               0
GRID*               6385               0-2.479815880E+012.1490247519E+01+
*       -1.642685429E+00               0
GRID*               6386               0-2.576753848E+012.1119643807E+01+
*       -2.989203299E+00               0
GRID*               6387               0-2.702474946E+012.0167830685E+01+
*       -3.771694164E+00               0
GRID*               6388               0-2.849999976E+011.9411334442E+01+
*       -4.050000191E+00               0
GRID*               6389               0-2.995719966E+011.8459228754E+01+
*       -3.778785747E+00               0
GRID*               6687               03.1248727384E+011.5679451764E+01+
*       2.9743627329E+00               0
GRID*               6688               02.8499999776E+011.7192885070E+01+
*       4.0500001907E+00               0
GRID*               6689               02.5752492314E+011.8705888860E+01+
*       2.9753604740E+00               0
GRID*               6690               02.4450000763E+011.9447011710E+01+
*       -2.518669611E-12               0
GRID*               6691               02.5752492314E+011.8705888860E+01+
*       -2.975360474E+00               0
GRID*               6692               02.8499999776E+011.7192885070E+01+
*       -4.050000191E+00               0
GRID*               6693               03.1248727384E+011.5679451764E+01+
*       -2.974362733E+00               0
GRID*               6694               03.1278522898E+011.1672762179E+01+
*       2.9465533865E+00               0
GRID*               6695               02.8499999817E+011.2799457794E+01+
*       4.0500001907E+00               0
GRID*               6696               02.5722022087E+011.3925943198E+01+
*       2.9469962260E+00               0
GRID*               6697               02.4450000763E+011.4477570494E+01+
*       -5.011797634E-12               0
GRID*               6698               02.5722022087E+011.3925943198E+01+
*       -2.946996226E+00               0
GRID*               6699               02.8499999816E+011.2799457794E+01+
*       -4.050000191E+00               0
GRID*               6700               03.1278522898E+011.1672762179E+01+
*       -2.946553387E+00               0
GRID*               6701               03.1307628670E+017.7288236604E+00+
*       2.9188471174E+00               0
GRID*               6702               02.8499999856E+018.4748346080E+00+
*       4.0500001907E+00               0
GRID*               6703               02.5692474821E+019.2207964473E+00+
*       2.9189258548E+00               0
GRID*               6704               02.4450000763E+019.5859541427E+00+
*       -7.467116104E-12               0
GRID*               6705               02.5692474821E+019.2207964473E+00+
*       -2.918925855E+00               0
GRID*               6706               02.8499999856E+018.4748346080E+00+
*       -4.050000191E+00               0
GRID*               6707               03.1307628670E+017.7288236604E+00+
*       -2.918847117E+00               0
GRID*               6708               03.1335981208E+013.8459498335E+00+
*       2.8913140465E+00               0
GRID*               6709               02.8499999895E+014.2171727301E+00+
*       4.0500001907E+00               0
GRID*               6710               02.5664003266E+014.5883933840E+00+
*       2.8912972044E+00               0
GRID*               6711               02.4450000763E+014.7700782697E+00+
*       -9.878553720E-12               0
GRID*               6712               02.5664003266E+014.5883933840E+00+
*       -2.891297204E+00               0
GRID*               6713               02.8499999895E+014.2171727301E+00+
*       -4.050000191E+00               0
GRID*               6714               03.1335981208E+013.8459498335E+00+
*       -2.891314046E+00               0
GRID*               6715               03.1263633939E+011.3676105192E+01+
*       2.9605157877E+00               0
GRID*               6716               02.9994944377E+011.2236076285E+01+
*       3.7639916617E+00               0
GRID*               6717               02.9976096636E+011.4239421670E+01+
*       3.7714223243E+00               0
GRID*               6718               02.8499999796E+011.4996171432E+01+
*       4.0500001907E+00               0
GRID*               6719               02.9976021389E+011.6436135488E+01+
*       3.7714521458E+00               0
GRID*               6720               02.7005395564E+011.3362684044E+01+
*       3.7640960433E+00               0
GRID*               6721               02.7005549299E+011.5559374684E+01+
*       3.7641499013E+00               0
GRID*               6722               02.5737255081E+011.6315906786E+01+
*       2.9612426782E+00               0
GRID*               6723               02.7024725772E+011.7949367074E+01+
*       3.7716801175E+00               0
GRID*               6724               02.4781502204E+011.4201788366E+01+
*       1.6047098447E+00               0
GRID*               6725               02.4789768578E+011.6591831138E+01+
*       1.6236820092E+00               0
GRID*               6726               02.4450000763E+011.6962291102E+01+
*       -3.766248911E-12               0
GRID*               6727               02.4789764072E+011.9076540674E+01+
*       1.6236592036E+00               0
GRID*               6728               02.4781502204E+011.4201788366E+01+
*       -1.604709845E+00               0
GRID*               6729               02.4781497657E+011.6686498394E+01+
*       -1.604686042E+00               0
GRID*               6730               02.5737255081E+011.6315906786E+01+
*       -2.961242678E+00               0
GRID*               6731               02.4789764072E+011.9076540674E+01+
*       -1.623659204E+00               0
GRID*               6732               02.7005395564E+011.3362684044E+01+
*       -3.764096043E+00               0
GRID*               6733               02.7024575464E+011.5752675924E+01+
*       -3.771627732E+00               0
GRID*               6734               02.8499999796E+011.4996171432E+01+
*       -4.050000191E+00               0
GRID*               6735               02.7024725772E+011.7949367074E+01+
*       -3.771680117E+00               0
GRID*               6736               02.9994944377E+011.2236076285E+01+
*       -3.763991662E+00               0
GRID*               6737               02.9994861622E+011.4432789895E+01+
*       -3.764024502E+00               0
GRID*               6738               03.1263633939E+011.3676105192E+01+
*       -2.960515788E+00               0
GRID*               6739               02.9976021389E+011.6436135488E+01+
*       -3.771452146E+00               0
GRID*               6740               03.1293114034E+019.7007931820E+00+
*       2.9327333482E+00               0
GRID*               6741               03.0013542032E+018.1017931120E+00+
*       3.7565525499E+00               0
GRID*               6742               02.9995026935E+011.0073764750E+01+
*       3.7639589575E+00               0
GRID*               6743               02.8499999836E+011.0637146201E+01+
*       4.0500001907E+00               0
GRID*               6744               02.6986554623E+018.8477870262E+00+
*       3.7565831225E+00               0
GRID*               6745               02.6986666735E+011.1010087683E+01+
*       3.7566246634E+00               0
GRID*               6746               02.5707162995E+011.1573386117E+01+
*       2.9329549166E+00               0
GRID*               6747               02.4773519172E+019.4033578068E+00+
*       1.5861252461E+00               0
GRID*               6748               02.4781504273E+011.1755991451E+01+
*       1.6047287668E+00               0
GRID*               6749               02.4450000763E+011.2031762319E+01+
*       -6.239368583E-12               0
GRID*               6750               02.4773519172E+019.4033578068E+00+
*       -1.586125246E+00               0
GRID*               6751               02.4773499927E+011.1849160942E+01+
*       -1.586073301E+00               0
GRID*               6752               02.5707162995E+011.1573386117E+01+
*       -2.932954917E+00               0
GRID*               6753               02.6986554623E+018.8477870262E+00+
*       -3.756583122E+00               0
GRID*               6754               02.7005238881E+011.1200396681E+01+
*       -3.764041403E+00               0
GRID*               6755               02.8499999836E+011.0637146201E+01+
*       -4.050000191E+00               0
GRID*               6756               03.0013542032E+018.1017931120E+00+
*       -3.756552550E+00               0
GRID*               6757               03.0013460538E+011.0264104671E+01+
*       -3.756585342E+00               0
GRID*               6758               03.1293114034E+019.7007931820E+00+
*       -2.932733348E+00               0
GRID*               6759               03.1321842014E+015.7873869764E+00+
*       2.9051126464E+00               0
GRID*               6760               03.0031810753E+014.0315239447E+00+
*       3.7491404961E+00               0
GRID*               6761               03.0013622158E+015.9729622035E+00+
*       3.7565203023E+00               0
GRID*               6762               02.8499999875E+016.3460036691E+00+
*       4.0500001907E+00               0
GRID*               6763               02.6968206073E+014.4027495124E+00+
*       3.7491464051E+00               0
GRID*               6764               02.6968286744E+016.5315785512E+00+
*       3.7491787007E+00               0
GRID*               6765               02.5678173088E+016.9046048629E+00+
*       2.9051194492E+00               0
GRID*               6766               02.4765810661E+014.6792038251E+00+
*       1.5679056808E+00               0
GRID*               6767               02.4773540149E+016.9954241071E+00+
*       1.5861801811E+00               0
GRID*               6768               02.4450000763E+017.1780162062E+00+
*       -8.673530164E-12               0
GRID*               6769               02.4765810661E+014.6792038251E+00+
*       -1.567905681E+00               0
GRID*               6770               02.4765780607E+017.0871408835E+00+
*       -1.567832893E+00               0
GRID*               6771               02.5678173089E+016.9046048629E+00+
*       -2.905119449E+00               0
GRID*               6772               02.6968206073E+014.4027495124E+00+
*       -3.749146405E+00               0
GRID*               6773               02.6986449514E+016.7189652688E+00+
*       -3.756543821E+00               0
GRID*               6774               02.8499999875E+016.3460036691E+00+
*       -4.050000191E+00               0
GRID*               6775               03.0031810753E+014.0315239447E+00+
*       -3.749140496E+00               0
GRID*               6776               03.0031731636E+016.1603548757E+00+
*       -3.749172831E+00               0
GRID*               6777               03.1321842014E+015.7873869764E+00+
*       -2.905112646E+00               0
GRID*               6778               03.2210526190E+011.5309062071E+01+
*       1.6231060782E+00               0
GRID*               6779               03.2210599779E+011.7236640699E+01+
*       1.6229559964E+00               0
GRID*               6780               03.1234148082E+011.7702503675E+01+
*       2.9878248311E+00               0
GRID*               6781               03.2218630199E+011.1397011594E+01+
*       1.6044527641E+00               0
GRID*               6782               03.2218663827E+011.3305718197E+01+
*       1.6043746990E+00               0
GRID*               6783               03.2226519655E+017.5462267719E+00+
*       1.5860438025E+00               0
GRID*               6784               03.2226552279E+019.4250417116E+00+
*       1.5859669850E+00               0
GRID*               6785               03.2234195717E+013.7550663326E+00+
*       1.5678865700E+00               0
GRID*               6786               03.2234227870E+015.6047902299E+00+
*       1.5678099460E+00               0
GRID*               6787               03.2241742070E+011.8320922364E+00+
*       1.5497912053E+00               0
GRID*               6788               03.1349915529E+011.9229749559E+00+
*       2.8775814067E+00               0
GRID*               6789               03.0031889035E+011.9229375853E+00+
*       3.7491085037E+00               0
GRID*               6790               02.8499999914E+012.1085863651E+00+
*       4.0500001907E+00               0
GRID*               6791               02.6950205707E+012.1085518170E+00+
*       3.7417424697E+00               0
GRID*               6792               02.5650070121E+012.2941981980E+00+
*       2.8775677200E+00               0
GRID*               6793               02.4765841230E+012.2941652084E+00+
*       1.5679792756E+00               0
GRID*               6794               02.4450000763E+012.3850391348E+00+
*       -1.109350479E-11               0
GRID*               6795               02.5043109176E+012.3850391348E+00+
*       -1.431891319E+00               0
GRID*               6796               02.5650070121E+012.2941981980E+00+
*       -2.877567720E+00               0
GRID*               6797               02.6968128333E+012.2941642930E+00+
*       -3.749115071E+00               0
GRID*               6798               02.8499999914E+012.1085863651E+00+
*       -4.050000191E+00               0
GRID*               6799               03.0049789714E+012.1085481758E+00+
*       -3.741744373E+00               0
GRID*               6800               03.1349915529E+011.9229749559E+00+
*       -2.877581407E+00               0
GRID*               6801               03.2234163835E+011.9229327792E+00+
*       -1.567962529E+00               0
GRID*               6802               03.2234195717E+013.7550663326E+00+
*       -1.567886570E+00               0
GRID*               6803               03.2226519655E+017.5462267719E+00+
*       -1.586043802E+00               0
GRID*               6804               03.2226487499E+015.6965028977E+00+
*       -1.586119500E+00               0
GRID*               6805               03.2218630199E+011.1397011594E+01+
*       -1.604452764E+00               0
GRID*               6806               03.2218597558E+019.5181966767E+00+
*       -1.604528652E+00               0
GRID*               6807               03.2210526190E+011.5309062071E+01+
*       -1.623106078E+00               0
GRID*               6808               03.2210488454E+011.3400355231E+01+
*       -1.623191628E+00               0
GRID*               6809               03.2202303673E+011.7332193587E+01+
*       -1.641813202E+00               0
GRID*               6810               03.1234148082E+011.7702503675E+01+
*       -2.987824831E+00               0
GRID*               6811               02.9976064280E+011.8654546676E+01+
*       -3.771447714E+00               0
GRID*               6812               02.8499999756E+011.9411334442E+01+
*       -4.050000191E+00               0
GRID*               6813               02.7043958878E+012.0363055486E+01+
*       -3.779137067E+00               0
GRID*               6814               02.5767538481E+012.1119643807E+01+
*       -2.989203299E+00               0
GRID*               6815               02.4789707116E+012.1585853201E+01+
*       -1.623538144E+00               0
GRID*               6816               02.4450000763E+012.1956317783E+01+
*       -1.258918734E-12               0
GRID*               6817               02.4798158803E+012.1490247519E+01+
*       1.6426854288E+00               0
GRID*               6818               02.5767538481E+012.1119643807E+01+
*       2.9892032989E+00               0
GRID*               6819               02.7024749465E+012.0167830685E+01+
*       3.7716941641E+00               0
GRID*               6820               02.8499999756E+011.9411334442E+01+
*       4.0500001907E+00               0
GRID*               6821               02.9957199657E+011.8459228754E+01+
*       3.7787857468E+00               0
GRID*               6201               0-3.491095447E+010.0000000000E+00+
*       -2.167373418E+00               0
GRID*               6202               0-2.999972352E+010.0000000000E+00+
*       -7.012447748E+00               0
GRID*               6203               0-2.635733344E+010.0000000000E+00+
*       -6.824176096E+00               0
GRID*               6204               0-3.381009812E+010.0000000000E+00+
*       -6.563579520E+00               0
GRID*               6205               0-2.999973635E+010.0000000000E+00+
*       7.0123852427E+00               0
GRID*               6206               0-2.635732867E+010.0000000000E+00+
*       6.8241341456E+00               0
GRID*               6207               0-3.491095282E+010.0000000000E+00+
*       2.1652966830E+00               0
GRID*               6208               0-3.381006916E+010.0000000000E+00+
*       6.5631209121E+00               0
GRID*               6209               0-2.431810879E+010.0000000000E+00+
*       -1.431891319E+00               0
GRID*               6210               0-2.372500038E+010.0000000000E+00+
*       -6.154227929E-12               0
GRID*               6211               0-2.431810879E+010.0000000000E+00+
*       -4.168141243E+00               0
GRID*               6212               0-2.886092266E+010.0000000000E+00+
*       -8.978723721E+00               0
GRID*               6213               0-3.112791186E+010.0000000000E+00+
*       -8.978723721E+00               0
GRID*               6214               0-2.742866669E+010.0000000000E+00+
*       -5.437088143E+00               0
GRID*               6215               0-2.924986173E+010.0000000000E+00+
*       -5.531223969E+00               0
GRID*               6216               0-2.817852848E+010.0000000000E+00+
*       -6.918311922E+00               0
GRID*               6217               0-2.599677551E+010.0000000000E+00+
*       -4.843979368E+00               0
GRID*               6218               0-2.467866672E+010.0000000000E+00+
*       -6.148337972E+00               0
GRID*               6219               0-2.703972761E+010.0000000000E+00+
*       -8.884587896E+00               0
GRID*               6220               0-2.467866672E+010.0000000000E+00+
*       -8.884587896E+00               0
GRID*               6221               0-3.373047686E+010.0000000000E+00+
*       -1.083686709E+00               0
GRID*               6222               0-3.313736818E+010.0000000000E+00+
*       -2.515577810E+00               0
GRID*               6223               0-3.303309916E+010.0000000000E+00+
*       -8.754289608E+00               0
GRID*               6224               0-3.190491082E+010.0000000000E+00+
*       -6.788013634E+00               0
GRID*               6225               0-3.521051285E+010.0000000000E+00+
*       -8.754289608E+00               0
GRID*               6226               0-3.581861843E+010.0000000000E+00+
*       -6.091901893E+00               0
GRID*               6227               0-3.436052630E+010.0000000000E+00+
*       -4.365476469E+00               0
GRID*               6228               0-3.636904661E+010.0000000000E+00+
*       -3.893798842E+00               0
GRID*               6229               0-3.258694001E+010.0000000000E+00+
*       -4.713680861E+00               0
GRID*               6230               0-3.068175271E+010.0000000000E+00+
*       -4.938114975E+00               0
GRID*               6231               0-2.431810879E+010.0000000000E+00+
*       1.4318913194E+00               0
GRID*               6232               0-2.431810879E+010.0000000000E+00+
*       4.1681412431E+00               0
GRID*               6233               0-2.886092907E+010.0000000000E+00+
*       8.9786924688E+00               0
GRID*               6234               0-3.112791828E+010.0000000000E+00+
*       8.9786924688E+00               0
GRID*               6235               0-2.742866430E+010.0000000000E+00+
*       5.4370671682E+00               0
GRID*               6236               0-2.817853251E+010.0000000000E+00+
*       6.9182596942E+00               0
GRID*               6237               0-2.924986814E+010.0000000000E+00+
*       5.5311927167E+00               0
GRID*               6238               0-2.599677313E+010.0000000000E+00+
*       4.8439583922E+00               0
GRID*               6239               0-2.467866434E+010.0000000000E+00+
*       6.1483169965E+00               0
GRID*               6240               0-2.703972523E+010.0000000000E+00+
*       8.8845669202E+00               0
GRID*               6241               0-2.467866434E+010.0000000000E+00+
*       8.8845669202E+00               0
GRID*               6242               0-3.373047603E+010.0000000000E+00+
*       1.0826483415E+00               0
GRID*               6243               0-3.313736735E+010.0000000000E+00+
*       2.5145394427E+00               0
GRID*               6244               0-3.701089334E+010.0000000000E+00+
*       -1.083686709E+00               0
GRID*               6245               0-3.491095364E+010.0000000000E+00+
*       -1.038367313E-03               0
GRID*               6246               0-3.701089251E+010.0000000000E+00+
*       1.0826483415E+00               0
GRID*               6247               0-3.303308468E+010.0000000000E+00+
*       8.7540603035E+00               0
GRID*               6248               0-3.190490276E+010.0000000000E+00+
*       6.7877530774E+00               0
GRID*               6249               0-3.521049837E+010.0000000000E+00+
*       8.7540603035E+00               0
GRID*               6250               0-3.581860395E+010.0000000000E+00+
*       6.0916725891E+00               0
GRID*               6251               0-3.636904578E+010.0000000000E+00+
*       3.8927604746E+00               0
GRID*               6252               0-3.436051099E+010.0000000000E+00+
*       4.3642087976E+00               0
GRID*               6253               0-3.068175912E+010.0000000000E+00+
*       4.9380837225E+00               0
GRID*               6254               0-3.258692553E+010.0000000000E+00+
*       4.7134515573E+00               0
GRID*               6822               03.4910958895E+010.0000000000E+00+
*       -2.167374428E+00               0
GRID*               6823               02.9999736708E+010.0000000000E+00+
*       7.0123917764E+00               0
GRID*               6824               02.6357328560E+010.0000000000E+00+
*       6.8241356753E+00               0
GRID*               6825               03.4910952834E+010.0000000000E+00+
*       2.1652892347E+00               0
GRID*               6826               03.3810068825E+010.0000000000E+00+
*       6.5631166598E+00               0
GRID*               6827               02.9999721591E+010.0000000000E+00+
*       -7.012410090E+00               0
GRID*               6828               02.6357333834E+010.0000000000E+00+
*       -6.824166153E+00               0
GRID*               6829               03.3810100132E+010.0000000000E+00+
*       -6.563593420E+00               0
GRID*               6830               02.4318108794E+010.0000000000E+00+
*       1.4318913194E+00               0
GRID*               6831               02.3725000381E+010.0000000000E+00+
*       -6.154227929E-12               0
GRID*               6832               02.4318108794E+010.0000000000E+00+
*       4.1681412431E+00               0
GRID*               6833               02.8860929248E+010.0000000000E+00+
*       8.9786957356E+00               0
GRID*               6834               03.1127918452E+010.0000000000E+00+
*       8.9786957356E+00               0
GRID*               6835               02.7428664246E+010.0000000000E+00+
*       5.4370679330E+00               0
GRID*               6836               02.9249868320E+010.0000000000E+00+
*       5.5311959836E+00               0
GRID*               6837               02.8178532634E+010.0000000000E+00+
*       6.9182637259E+00               0
GRID*               6838               02.5996773074E+010.0000000000E+00+
*       4.8439591570E+00               0
GRID*               6839               02.4678664280E+010.0000000000E+00+
*       6.1483177613E+00               0
GRID*               6840               02.7039725174E+010.0000000000E+00+
*       8.8845676851E+00               0
GRID*               6841               02.4678664280E+010.0000000000E+00+
*       8.8845676851E+00               0
GRID*               6842               03.3730476036E+010.0000000000E+00+
*       1.0826446174E+00               0
GRID*               6843               03.3137367364E+010.0000000000E+00+
*       2.5145357185E+00               0
GRID*               6844               03.7010895555E+010.0000000000E+00+
*       -1.083687214E+00               0
GRID*               6845               03.6369048818E+010.0000000000E+00+
*       -3.893799347E+00               0
GRID*               6846               03.4910955865E+010.0000000000E+00+
*       -1.042596904E-03               0
GRID*               6847               03.3730479066E+010.0000000000E+00+
*       -1.083687214E+00               0
GRID*               6848               03.7010892524E+010.0000000000E+00+
*       1.0826446173E+00               0
GRID*               6849               03.3033084511E+010.0000000000E+00+
*       8.7540581773E+00               0
GRID*               6850               03.1904902767E+010.0000000000E+00+
*       6.7877542181E+00               0
GRID*               6851               03.5210498204E+010.0000000000E+00+
*       8.7540581773E+00               0
GRID*               6852               03.5818603783E+010.0000000000E+00+
*       6.0916704630E+00               0
GRID*               6853               03.6369045787E+010.0000000000E+00+
*       3.8927567504E+00               0
GRID*               6854               03.4360510830E+010.0000000000E+00+
*       4.3642029473E+00               0
GRID*               6855               03.0681759301E+010.0000000000E+00+
*       4.9380869894E+00               0
GRID*               6856               03.2586925360E+010.0000000000E+00+
*       4.7134494311E+00               0
GRID*               6857               02.4318108794E+010.0000000000E+00+
*       -1.431891319E+00               0
GRID*               6858               02.4318108794E+010.0000000000E+00+
*       -4.168141243E+00               0
GRID*               6859               02.8860921689E+010.0000000000E+00+
*       -8.978704892E+00               0
GRID*               6860               03.1127910893E+010.0000000000E+00+
*       -8.978704892E+00               0
GRID*               6861               02.7428666884E+010.0000000000E+00+
*       -5.437083172E+00               0
GRID*               6862               02.8178527712E+010.0000000000E+00+
*       -6.918288122E+00               0
GRID*               6863               02.9249860762E+010.0000000000E+00+
*       -5.531205140E+00               0
GRID*               6864               02.5996775711E+010.0000000000E+00+
*       -4.843974396E+00               0
GRID*               6865               02.4678666917E+010.0000000000E+00+
*       -6.148333000E+00               0
GRID*               6866               02.7039727811E+010.0000000000E+00+
*       -8.884582924E+00               0
GRID*               6867               02.4678666917E+010.0000000000E+00+
*       -8.884582924E+00               0
GRID*               6868               03.3137370395E+010.0000000000E+00+
*       -2.515578315E+00               0
GRID*               6869               03.3033100164E+010.0000000000E+00+
*       -8.754296558E+00               0
GRID*               6870               03.1904910862E+010.0000000000E+00+
*       -6.788001755E+00               0
GRID*               6871               03.5210513857E+010.0000000000E+00+
*       -8.754296558E+00               0
GRID*               6872               03.5818619436E+010.0000000000E+00+
*       -6.091908843E+00               0
GRID*               6873               03.4360529514E+010.0000000000E+00+
*       -4.365483924E+00               0
GRID*               6874               03.2586941013E+010.0000000000E+00+
*       -4.713687811E+00               0
GRID*               6875               03.0681751742E+010.0000000000E+00+
*       -4.938096146E+00               0
GRID*               5494               0-1.844500142E-041.1511710534E+02+
*       -7.942156263E+00               0
GRID*               5495               0-8.328991908E+001.1842400088E+02+
*       -8.473307402E+00               0
GRID*               5496               0-7.779410473E+001.1705328110E+02+
*       -8.275000095E+00               0
GRID*               5497               0-6.258695955E+001.1644970036E+02+
*       -7.920740457E+00               0
GRID*               5498               0-4.765125027E+001.1583781456E+02+
*       -7.912677320E+00               0
GRID*               5499               0-3.192025798E+001.1543659345E+02+
*       -7.929261034E+00               0
GRID*               5500               08.2899049771E+001.1847725900E+02+
*       -8.391165728E+00               0
GRID*               5501               07.7004852157E+001.1720850630E+02+
*       -7.918487975E+00               0
GRID*               5502               06.2580106369E+001.1644942895E+02+
*       -7.920760485E+00               0
GRID*               5503               04.7644597255E+001.1583757304E+02+
*       -7.912670047E+00               0
GRID*               5504               03.1911300653E+001.1543683242E+02+
*       -7.929421274E+00               0
GRID*               5505               0-8.119045303E-011.1588051509E+02+
*       -8.434016955E+00               0
GRID*               5506               08.1099307551E-011.1588043213E+02+
*       -8.433990647E+00               0
GRID*               5507               0-1.617081952E+001.1513834513E+02+
*       -7.909302572E+00               0
GRID*               5508               0-8.097727337E-011.1427030133E+02+
*       -7.617085672E+00               0
GRID*               5509               08.1010820298E-011.1427002140E+02+
*       -7.617090419E+00               0
GRID*               5510               01.6165525623E+001.1513823399E+02+
*       -7.909261170E+00               0
GRID*               5511               0-1.797495700E-041.1511709739E+02+
*       7.9421522433E+00               0
GRID*               5512               08.2907702974E+001.1847856916E+02+
*       8.3916174209E+00               0
GRID*               5513               07.7009933944E+001.1720890981E+02+
*       7.9185287454E+00               0
GRID*               5514               06.2584973964E+001.1644962371E+02+
*       7.9207471445E+00               0
GRID*               5515               04.7649264051E+001.1583774193E+02+
*       7.9126746350E+00               0
GRID*               5516               03.1917072673E+001.1543654911E+02+
*       7.9292738120E+00               0
GRID*               5517               0-8.290770304E+001.1847856916E+02+
*       8.3916174195E+00               0
GRID*               5518               0-7.700993429E+001.1720890979E+02+
*       7.9185287253E+00               0
GRID*               5519               0-6.258497587E+001.1644962374E+02+
*       7.9207471187E+00               0
GRID*               5520               0-4.764957993E+001.1583775985E+02+
*       7.9126789101E+00               0
GRID*               5521               0-3.191547445E+001.1543689292E+02+
*       7.9294057647E+00               0
GRID*               5522               08.1140536057E-011.1588047355E+02+
*       8.4340058124E+00               0
GRID*               5523               0-8.116004188E-011.1588047799E+02+
*       8.4340002989E+00               0
GRID*               5524               01.6167663689E+001.1513830903E+02+
*       7.9093016852E+00               0
GRID*               5525               08.0958940994E-011.1427029704E+02+
*       7.6170868188E+00               0
GRID*               5526               0-8.102905123E-011.1427001750E+02+
*       7.6170872607E+00               0
GRID*               5527               0-1.616975077E+001.1513828777E+02+
*       7.9092649971E+00               0
GRID*               6946               0-3.819473411E+016.9103429786E+00+
*       4.0108153403E+00               0
GRID*               6947               0-3.824922359E+011.1620338484E+01+
*       3.7722566300E+00               0
GRID*               6948               0-3.779625783E+018.2583633498E+00+
*       5.7554076933E+00               0
GRID*               6949               0-3.779625739E+015.9551714894E+00+
*       5.7554075901E+00               0
GRID*               6950               0-3.868002787E+011.0543502511E+01+
*       1.8861283057E+00               0
GRID*               6951               0-3.865278343E+018.1885047585E+00+
*       2.0054077324E+00               0
GRID*               6952               0-3.822197889E+019.2653407316E+00+
*       3.8915359961E+00               0
GRID*               6953               0-3.868002832E+011.2910169147E+01+
*       1.8861284110E+00               0
GRID*               6954               0-3.825176523E+011.3210041064E+01+
*       3.7611283245E+00               0
GRID*               6955               0-3.782350213E+011.0613361101E+01+
*       5.6361282314E+00               0
GRID*               6956               0-3.782350198E+011.3509912986E+01+
*       5.6361281996E+00               0
GRID*               6957               0-3.865278342E+015.8218381268E+00+
*       2.0054077300E+00               0
GRID*               6958               0-3.700435448E+012.5000000000E+00+
*       9.2224998474E+00               0
GRID*               6959               0-3.761245927E+012.4999999963E+00+
*       6.5601119517E+00               0
GRID*               6960               0-3.846898376E+012.3666666372E+00+
*       2.8101117382E+00               0
GRID*               6961               0-3.801093453E+013.4551714906E+00+
*       4.8155193719E+00               0
GRID*               6930               0-3.819473411E+016.9103429786E+00+
*       -4.010815340E+00               0
GRID*               6931               0-3.824922359E+011.1620338484E+01+
*       -3.772256630E+00               0
GRID*               6932               0-3.779625783E+018.2583633498E+00+
*       -5.755407693E+00               0
GRID*               6933               0-3.779625739E+015.9551714894E+00+
*       -5.755407590E+00               0
GRID*               6934               0-3.868002787E+011.0543502511E+01+
*       -1.886128306E+00               0
GRID*               6935               0-3.822197889E+019.2653407316E+00+
*       -3.891535996E+00               0
GRID*               6936               0-3.865278343E+018.1885047585E+00+
*       -2.005407732E+00               0
GRID*               6937               0-3.868002832E+011.2910169147E+01+
*       -1.886128411E+00               0
GRID*               6938               0-3.825176523E+011.3210041064E+01+
*       -3.761128324E+00               0
GRID*               6939               0-3.782350213E+011.0613361101E+01+
*       -5.636128231E+00               0
GRID*               6940               0-3.782350198E+011.3509912986E+01+
*       -5.636128200E+00               0
GRID*               6941               0-3.865278342E+015.8218381268E+00+
*       -2.005407730E+00               0
GRID*               6942               0-3.700435448E+012.5000000000E+00+
*       -9.222499847E+00               0
GRID*               6943               0-3.761245927E+012.4999999963E+00+
*       -6.560111952E+00               0
GRID*               6944               0-3.846898376E+012.3666666372E+00+
*       -2.810111738E+00               0
GRID*               6945               0-3.801093453E+013.4551714906E+00+
*       -4.815519372E+00               0
GRID*               7722               03.8194734107E+016.9103429786E+00+
*       4.0108153403E+00               0
GRID*               7723               03.8249223587E+011.1620338484E+01+
*       3.7722566300E+00               0
GRID*               7724               03.7796257827E+018.2583633498E+00+
*       5.7554076933E+00               0
GRID*               7725               03.7796257388E+015.9551714894E+00+
*       5.7554075901E+00               0
GRID*               7726               03.8680027872E+011.0543502511E+01+
*       1.8861283057E+00               0
GRID*               7727               03.8221978892E+019.2653407316E+00+
*       3.8915359961E+00               0
GRID*               7728               03.8652783429E+018.1885047585E+00+
*       2.0054077324E+00               0
GRID*               7729               03.8680028320E+011.2910169147E+01+
*       1.8861284110E+00               0
GRID*               7730               03.8251765232E+011.3210041064E+01+
*       3.7611283245E+00               0
GRID*               7731               03.7823502125E+011.0613361101E+01+
*       5.6361282314E+00               0
GRID*               7732               03.7823501983E+011.3509912986E+01+
*       5.6361281996E+00               0
GRID*               7733               03.8652783416E+015.8218381268E+00+
*       2.0054077300E+00               0
GRID*               7734               03.7004354477E+012.5000000000E+00+
*       9.2224998474E+00               0
GRID*               7735               03.7612459271E+012.4999999963E+00+
*       6.5601119517E+00               0
GRID*               7736               03.8468983755E+012.3666666372E+00+
*       2.8101117382E+00               0
GRID*               7737               03.8010934529E+013.4551714906E+00+
*       4.8155193719E+00               0
GRID*               7706               03.8194734107E+016.9103429786E+00+
*       -4.010815340E+00               0
GRID*               7707               03.8249223587E+011.1620338484E+01+
*       -3.772256630E+00               0
GRID*               7708               03.7796257827E+018.2583633498E+00+
*       -5.755407693E+00               0
GRID*               7709               03.7796257388E+015.9551714894E+00+
*       -5.755407590E+00               0
GRID*               7710               03.8680027872E+011.0543502511E+01+
*       -1.886128306E+00               0
GRID*               7711               03.8652783429E+018.1885047585E+00+
*       -2.005407732E+00               0
GRID*               7712               03.8221978892E+019.2653407316E+00+
*       -3.891535996E+00               0
GRID*               7713               03.8680028320E+011.2910169147E+01+
*       -1.886128411E+00               0
GRID*               7714               03.8251765232E+011.3210041064E+01+
*       -3.761128324E+00               0
GRID*               7715               03.7823502125E+011.0613361101E+01+
*       -5.636128231E+00               0
GRID*               7716               03.7823501983E+011.3509912986E+01+
*       -5.636128200E+00               0
GRID*               7717               03.8652783416E+015.8218381268E+00+
*       -2.005407730E+00               0
GRID*               7718               03.7004354477E+012.5000000000E+00+
*       -9.222499847E+00               0
GRID*               7719               03.7612459271E+012.4999999963E+00+
*       -6.560111952E+00               0
GRID*               7720               03.8468983755E+012.3666666372E+00+
*       -2.810111738E+00               0
GRID*               7721               03.8010934529E+013.4551714906E+00+
*       -4.815519372E+00               0
GRID*               4343               0-7.314442955E+003.8032470237E+01+
*       3.4569984921E+00               0
GRID*               4344               0-6.334707730E+004.1339637159E+01+
*       3.7612897445E+00               0
GRID*               4345               0-7.328649427E+004.0630113432E+01+
*       4.9380647270E+00               0
GRID*               4346               0-6.989426826E+004.2064544955E+01+
*       5.0772835323E+00               0
GRID*               4347               0-7.823208145E+003.8975015006E+01+
*       4.7854891190E+00               0
GRID*               4348               0-6.795921776E+003.9674958010E+01+
*       3.6296280833E+00               0
GRID*               4349               0-5.798617694E+003.8546230362E+01+
*       2.6195490714E+00               0
GRID*               4350               0-6.370334038E+003.6965871683E+01+
*       2.4805690911E+00               0
GRID*               4351               0-5.305145418E+004.0219861795E+01+
*       2.7700960548E+00               0
GRID*               4352               0-4.910427998E+004.1852643614E+01+
*       2.9122165105E+00               0
GRID*               4353               0-6.608951875E+004.4276095184E+01+
*       5.2710995010E+00               0
GRID*               4354               0-5.913553195E+004.3536906750E+01+
*       3.9666771794E+00               0
GRID*               4355               0-4.498119181E+004.4075133024E+01+
*       3.0953298495E+00               0
GRID*               4356               0-8.316352915E+003.7591533435E+01+
*       4.6428244514E+00               0
GRID*               4357               0-7.233773033E+003.4872032867E+01+
*       2.2766697133E+00               0
GRID*               4358               0-8.163199290E+003.5955387450E+01+
*       3.2717384540E+00               0
GRID*               4359               0-9.212506570E+003.5527736239E+01+
*       4.4390455699E+00               0
GRID*               4360               0-7.314591911E+003.8032881100E+01+
*       -3.457331334E+00               0
GRID*               4361               0-6.333992012E+004.1339913988E+01+
*       -3.760646032E+00               0
GRID*               4362               0-5.798711254E+003.8546593660E+01+
*       -2.619669028E+00               0
GRID*               4363               0-6.795385511E+003.9676294741E+01+
*       -3.629607074E+00               0
GRID*               4364               0-5.304642115E+004.0220084907E+01+
*       -2.769929200E+00               0
GRID*               4365               0-6.370322385E+003.6966252115E+01+
*       -2.480658234E+00               0
GRID*               4366               0-7.328203298E+004.0633563342E+01+
*       -4.939456039E+00               0
GRID*               4367               0-6.989335680E+004.2062967279E+01+
*       -5.076047773E+00               0
GRID*               4368               0-7.821234347E+003.8978384007E+01+
*       -4.783799276E+00               0
GRID*               4369               0-4.909971550E+004.1852938927E+01+
*       -2.912075042E+00               0
GRID*               4370               0-6.608632063E+004.4276437084E+01+
*       -5.270454520E+00               0
GRID*               4371               0-5.914070277E+004.3536613945E+01+
*       -3.967144132E+00               0
GRID*               4372               0-4.498625109E+004.4074721749E+01+
*       -3.095482906E+00               0
GRID*               4373               0-8.316973365E+003.7590058837E+01+
*       -4.642854781E+00               0
GRID*               4374               0-7.233927298E+003.4871631414E+01+
*       -2.276619768E+00               0
GRID*               4375               0-8.162963204E+003.5955099516E+01+
*       -3.271358757E+00               0
GRID*               4376               0-9.212568358E+003.5527943142E+01+
*       -4.439431125E+00               0
GRID*               4789               07.3146316279E+003.8032779062E+01+
*       3.4573247443E+00               0
GRID*               4790               06.3340689726E+004.1339291067E+01+
*       3.7605188232E+00               0
GRID*               4791               05.7990337401E+003.8546458302E+01+
*       2.6197713578E+00               0
GRID*               4792               06.7952290497E+003.9675862519E+01+
*       3.6292751049E+00               0
GRID*               4793               05.3047125783E+004.0220253913E+01+
*       2.7699928708E+00               0
GRID*               4794               06.3703070177E+003.6966404858E+01+
*       2.4806897128E+00               0
GRID*               4795               07.3284411223E+004.0632792005E+01+
*       4.9394644126E+00               0
GRID*               4796               06.9897518555E+004.2061596930E+01+
*       5.0762323189E+00               0
GRID*               4797               07.8213405890E+003.8978438088E+01+
*       4.7841002012E+00               0
GRID*               4798               04.9104251233E+004.1852500246E+01+
*       2.9121897951E+00               0
GRID*               4799               06.6094450419E+004.4273637054E+01+
*       5.2713015284E+00               0
GRID*               4800               05.9136483792E+004.3535814158E+01+
*       3.9665004359E+00               0
GRID*               4801               04.4981954167E+004.4075062050E+01+
*       3.0953516088E+00               0
GRID*               4802               08.3171090892E+003.7589864563E+01+
*       4.6429763918E+00               0
GRID*               4803               07.2341163658E+003.4871476803E+01+
*       2.2766493534E+00               0
GRID*               4804               08.1628682327E+003.5954943133E+01+
*       3.2711846505E+00               0
GRID*               4805               09.2125156000E+003.5528050322E+01+
*       4.4394393436E+00               0
GRID*               4806               07.3144416936E+003.8032515422E+01+
*       -3.457017599E+00               0
GRID*               4807               06.3347331043E+004.1339737182E+01+
*       -3.761348956E+00               0
GRID*               4808               07.3288120907E+004.0630154025E+01+
*       -4.938487680E+00               0
GRID*               4809               06.9893893909E+004.2064809510E+01+
*       -5.077353076E+00               0
GRID*               4810               07.8231985299E+003.8975288112E+01+
*       -4.785708851E+00               0
GRID*               4811               06.7958205920E+003.9674860878E+01+
*       -3.629485650E+00               0
GRID*               4812               05.7988310401E+003.8546235560E+01+
*       -2.619638002E+00               0
GRID*               4813               06.3703000923E+003.6966063066E+01+
*       -2.480602604E+00               0
GRID*               4814               05.3051119828E+004.0220140496E+01+
*       -2.770138104E+00               0
GRID*               4815               04.9106153032E+004.1852696362E+01+
*       -2.912305507E+00               0
GRID*               4816               06.6090568845E+004.4276053423E+01+
*       -5.271340301E+00               0
GRID*               4817               05.9135080193E+004.3536770617E+01+
*       -3.966595498E+00               0
GRID*               4818               04.4979894688E+004.4075251362E+01+
*       -3.095292480E+00               0
GRID*               4819               08.3164624400E+003.7591435168E+01+
*       -4.642981857E+00               0
GRID*               4820               07.2339500067E+003.4871893787E+01+
*       -2.276698926E+00               0
GRID*               4821               08.1631077710E+003.5955285038E+01+
*       -3.271596109E+00               0
GRID*               4822               09.2124477718E+003.5527855795E+01+
*       -4.439054859E+00               0
GRID*               4656               0-1.760205616E+001.4250000000E+02+
*       -7.051660698E-01               0
GRID*               4657               01.7415974324E+001.4250000000E+02+
*       -3.430699557E+00               0
GRID*               4658               0-1.780964020E+001.4250000000E+02+
*       -4.922457148E+00               0
GRID*               4659               0-1.747846668E+001.4250000000E+02+
*       3.4343935047E+00               0
GRID*               4660               01.7548884891E+001.4250000000E+02+
*       7.0175254948E-01               0
GRID*               4661               01.7772464462E+001.4250000000E+02+
*       4.9253476103E+00               0
GRID*               4662               0-3.495083506E+001.4250000000E+02+
*       -1.257583054E+00               0
GRID*               4663               0-3.495083506E+001.4250000000E+02+
*       5.5241698418E-01               0
GRID*               4664               0-3.505462708E+001.4250000000E+02+
*       -3.366228593E+00               0
GRID*               4665               0-3.505462708E+001.4250000000E+02+
*       -5.176228631E+00               0
GRID*               4666               0-1.770584818E+001.4250000000E+02+
*       -2.813811609E+00               0
GRID*               4667               0-9.304091976E-031.4250000000E+02+
*       -2.067932813E+00               0
GRID*               4668               0-1.968329387E-021.4250000000E+02+
*       -4.176578352E+00               0
GRID*               4669               0-3.486640930E+001.4250000000E+02+
*       -7.240000153E+00               0
GRID*               4670               0-1.762142243E+001.4250000000E+02+
*       -6.986228669E+00               0
GRID*               4671               0-1.882177754E-021.4250000000E+02+
*       -6.986228669E+00               0
GRID*               4672               01.7424589488E+001.4250000000E+02+
*       -6.240349874E+00               0
GRID*               4673               03.4866409302E+001.4250000000E+02+
*       -7.240000153E+00               0
GRID*               4674               03.4857794138E+001.4250000000E+02+
*       -4.430349836E+00               0
GRID*               4675               0-3.488904032E+001.4250000000E+02+
*       2.6221967714E+00               0
GRID*               4676               0-1.754026142E+001.4250000000E+02+
*       1.3646137175E+00               0
GRID*               4677               0-3.488904032E+001.4250000000E+02+
*       4.4321968096E+00               0
GRID*               4678               03.4857794138E+001.4250000000E+02+
*       -2.620349798E+00               0
GRID*               4679               01.7482429607E+001.4250000000E+02+
*       -1.364473504E+00               0
GRID*               4680               03.4924249422E+001.4250000000E+02+
*       -5.541237443E-01               0
GRID*               4681               0-2.658563660E-031.4250000000E+02+
*       -1.706760150E-03               0
GRID*               4682               03.5209103888E-031.4250000000E+02+
*       2.0680730271E+00               0
GRID*               4683               03.4924249422E+001.4250000000E+02+
*       1.2558762938E+00               0
GRID*               4684               03.5036039207E+001.4250000000E+02+
*       3.3676738242E+00               0
GRID*               4685               03.5036039207E+001.4250000000E+02+
*       5.1776738624E+00               0
GRID*               4686               01.7660674676E+001.4250000000E+02+
*       2.8135500799E+00               0
GRID*               4687               01.4699888963E-021.4250000000E+02+
*       4.1798705575E+00               0
GRID*               4688               03.4866409302E+001.4250000000E+02+
*       7.2400001526E+00               0
GRID*               4689               01.7602834556E+001.4250000000E+02+
*       6.9876739005E+00               0
GRID*               4690               01.6962990558E-021.4250000000E+02+
*       6.9876739005E+00               0
GRID*               4691               0-1.745583567E+001.4250000000E+02+
*       6.2421968477E+00               0
GRID*               4692               0-3.486640930E+001.4250000000E+02+
*       7.2400001526E+00               0
GRID*               4456               01.7022971577E+003.0179093090E+01+
*       2.9391517873E+00               0
GRID*               4457               0-1.707087901E+003.0179227074E+01+
*       2.9387398321E+00               0
GRID*               4458               02.2947498682E+002.9233988684E+01+
*       4.2402866674E+00               0
GRID*               4459               08.5188247160E-012.9310399341E+01+
*       4.2498484526E+00               0
GRID*               4460               04.7196948052E+003.1329139908E+01+
*       2.0189733719E+00               0
GRID*               4461               02.5075162311E+003.1549191304E+01+
*       2.0538738506E+00               0
GRID*               4462               03.8937987655E+002.9974846953E+01+
*       2.9212110721E+00               0
GRID*               4463               04.4912262024E+002.8985238544E+01+
*       4.1995581737E+00               0
GRID*               4464               0-8.588440345E-012.9310110580E+01+
*       4.2500300512E+00               0
GRID*               4465               0-2.299800401E+002.9233634456E+01+
*       4.2401514472E+00               0
GRID*               4466               0-1.730097842E-033.0211160683E+01+
*       2.9595326802E+00               0
GRID*               4467               08.6271101767E-013.1633984464E+01+
*       2.0628702160E+00               0
GRID*               4468               0-8.647916740E-013.1634345894E+01+
*       2.0627151261E+00               0
GRID*               4469               0-2.511108385E+003.1547868133E+01+
*       2.0542187170E+00               0
GRID*               4470               0-4.491665298E+002.8984908006E+01+
*       4.2001470912E+00               0
GRID*               4471               0-3.894250903E+002.9975414273E+01+
*       2.9206145925E+00               0
GRID*               4472               0-4.719995562E+003.1335958249E+01+
*       2.0166223035E+00               0
GRID*               4693               01.7042573931E+003.0179282630E+01+
*       -2.938854420E+00               0
GRID*               4694               0-1.705258674E+003.0179003225E+01+
*       -2.939062422E+00               0
GRID*               4695               02.2963572647E+002.9233812933E+01+
*       -4.240390032E+00               0
GRID*               4696               08.5269529682E-012.9310204131E+01+
*       -4.250244474E+00               0
GRID*               4697               04.7207246352E+003.1335464156E+01+
*       -2.016743511E+00               0
GRID*               4698               03.8929159575E+002.9975891213E+01+
*       -2.920341690E+00               0
GRID*               4699               02.5090975421E+003.1547881890E+01+
*       -2.054285614E+00               0
GRID*               4700               04.4892808493E+002.8985190316E+01+
*       -4.200380085E+00               0
GRID*               4701               08.6370710264E-013.1634523959E+01+
*       -2.062664094E+00               0
GRID*               4702               0-1.326463515E-033.0211136767E+01+
*       -2.959555947E+00               0
GRID*               4703               0-8.638273047E-013.1633784304E+01+
*       -2.062928863E+00               0
GRID*               4704               0-8.581212983E-012.9310221472E+01+
*       -4.249823710E+00               0
GRID*               4705               0-2.298416193E+002.9233746871E+01+
*       -4.240153157E+00               0
GRID*               4706               0-2.509686510E+003.1549218878E+01+
*       -2.053786598E+00               0
GRID*               4707               0-4.493882008E+002.8985002997E+01+
*       -4.199119496E+00               0
GRID*               4708               0-3.895288552E+002.9974505729E+01+
*       -2.921333615E+00               0
GRID*               4709               0-4.719303469E+003.1329929629E+01+
*       -2.018728112E+00               0
GRID*               4171               0-9.064173421E+003.0759579932E+01+
*       -2.954557032E+00               0
GRID*               4172               0-1.028760338E+013.2439985808E+01+
*       -4.034519420E+00               0
GRID*               4173               0-7.750269448E+002.8907357061E+01+
*       -3.966548813E+00               0
GRID*               4174               0-1.011966541E+013.0931494282E+01+
*       -4.256295607E+00               0
GRID*               4175               0-9.138236354E+002.9552000518E+01+
*       -4.237576247E+00               0
GRID*               4176               0-7.669506906E+003.0007283651E+01+
*       -2.653873640E+00               0
GRID*               4177               0-7.971277210E+003.1670290107E+01+
*       -2.036487563E+00               0
GRID*               4178               0-9.298352732E+003.2336023609E+01+
*       -2.740273557E+00               0
GRID*               4179               0-9.059046138E+003.0758444536E+01+
*       2.9508569461E+00               0
GRID*               4180               0-1.029270769E+013.2440472553E+01+
*       4.0452212605E+00               0
GRID*               4181               0-7.744856125E+002.8911965918E+01+
*       3.9546643615E+00               0
GRID*               4182               0-7.652775803E+003.0027371080E+01+
*       2.6338824334E+00               0
GRID*               4183               0-9.131410471E+002.9552433886E+01+
*       4.2259135297E+00               0
GRID*               4184               0-1.011128122E+013.0912283284E+01+
*       4.2550006877E+00               0
GRID*               4185               0-7.974631069E+003.1679363852E+01+
*       2.0360854426E+00               0
GRID*               4186               0-9.316003608E+003.2335323757E+01+
*       2.7555840096E+00               0
GRID*               4979               09.0590541142E+003.0758450631E+01+
*       -2.950860297E+00               0
GRID*               4980               01.0292708189E+013.2440476803E+01+
*       -4.045222626E+00               0
GRID*               4981               07.7448586674E+002.8911966355E+01+
*       -3.954665028E+00               0
GRID*               4982               07.6527833289E+003.0027372416E+01+
*       -2.633883779E+00               0
GRID*               4983               09.1314151286E+002.9552437505E+01+
*       -4.225914436E+00               0
GRID*               4984               01.0111284107E+013.0912286836E+01+
*       -4.255003918E+00               0
GRID*               4985               07.9746368328E+003.1679365813E+01+
*       -2.036087100E+00               0
GRID*               4986               09.3160070875E+003.2335331344E+01+
*       -2.755587096E+00               0
GRID*               4987               09.0551984751E+003.0762150988E+01+
*       2.9455771795E+00               0
GRID*               4988               07.7475393135E+002.8906760274E+01+
*       3.9660661255E+00               0
GRID*               4989               01.0285693269E+013.2438144781E+01+
*       4.0304228349E+00               0
GRID*               4990               01.0117453374E+013.0932426238E+01+
*       4.2504324798E+00               0
GRID*               4991               09.1335232750E+002.9551394890E+01+
*       4.2311366612E+00               0
GRID*               4992               07.6630756711E+003.0011079105E+01+
*       2.6490430756E+00               0
GRID*               4993               07.9638418116E+003.1673832036E+01+
*       2.0333225814E+00               0
GRID*               4994               09.2914435292E+003.2338017105E+01+
*       2.7343415123E+00               0
GRID*               4187               0-9.493874110E+003.5582609481E+01+
*       6.7693291865E+00               0
GRID*               4188               0-8.716735308E+003.7330602370E+01+
*       6.7692934030E+00               0
GRID*               4189               0-6.919018565E+004.4140464269E+01+
*       7.0559403297E+00               0
GRID*               4190               0-7.237207387E+004.2245746207E+01+
*       7.0551607657E+00               0
GRID*               4191               0-8.193278775E+003.8732089036E+01+
*       6.9102578880E+00               0
GRID*               4192               0-7.574235312E+004.0788698614E+01+
*       6.9103633158E+00               0
GRID*               4193               0-9.493930878E+003.5582488267E+01+
*       -6.768859274E+00               0
GRID*               4194               0-8.719002525E+003.7327025095E+01+
*       -6.768912197E+00               0
GRID*               4195               0-6.919504890E+004.4140606287E+01+
*       -7.055627496E+00               0
GRID*               4196               0-7.238914364E+004.2240138107E+01+
*       -7.054849318E+00               0
GRID*               4197               0-8.195487709E+003.8728358565E+01+
*       -6.909581435E+00               0
GRID*               4198               0-7.576915079E+004.0783430597E+01+
*       -6.909701321E+00               0
GRID*               4967               09.4939361318E+003.5582477461E+01+
*       6.7688581710E+00               0
GRID*               4968               08.7169512523E+003.7332098189E+01+
*       6.7689106266E+00               0
GRID*               4969               06.9195038870E+004.4140613732E+01+
*       7.0556730931E+00               0
GRID*               4970               07.2601009894E+004.2136855137E+01+
*       7.0547862474E+00               0
GRID*               4971               08.1937192837E+003.8733524438E+01+
*       6.9095807025E+00               0
GRID*               4972               07.6036246711E+004.0681423321E+01+
*       6.9096444976E+00               0
GRID*               4973               09.4939236541E+003.5582503125E+01+
*       -6.769293772E+00               0
GRID*               4974               08.7162479032E+003.7331808224E+01+
*       -6.769340400E+00               0
GRID*               4975               06.9190185697E+004.4140464233E+01+
*       -7.055940326E+00               0
GRID*               4976               07.2595952204E+004.2136753425E+01+
*       -7.055101332E+00               0
GRID*               4977               08.1928674173E+003.8733287021E+01+
*       -6.910224319E+00               0
GRID*               4978               07.6024145446E+004.0681038341E+01+
*       -6.910298629E+00               0
GRID*               4161               0-7.386055204E+002.8377610968E+01+
*       -6.634703900E+00               0
GRID*               4162               0-8.797114916E+002.8918674274E+01+
*       -6.634325743E+00               0
GRID*               4163               0-1.065362929E+013.2817798750E+01+
*       -6.634325743E+00               0
GRID*               4164               0-1.055641755E+013.1308691128E+01+
*       -6.634325742E+00               0
GRID*               4165               0-9.906764499E+002.9944684701E+01+
*       -6.634797127E+00               0
GRID*               4166               0-7.386055204E+002.8377610968E+01+
*       6.6347038997E+00               0
GRID*               4167               0-8.797114916E+002.8918674274E+01+
*       6.6343257425E+00               0
GRID*               4168               0-1.065362929E+013.2817798750E+01+
*       6.6343257427E+00               0
GRID*               4169               0-1.055641755E+013.1308691128E+01+
*       6.6343257419E+00               0
GRID*               4170               0-9.906764499E+002.9944684701E+01+
*       6.6347971273E+00               0
GRID*               4995               07.3860552045E+002.8377610968E+01+
*       -6.634703900E+00               0
GRID*               4996               08.7971149159E+002.8918674274E+01+
*       -6.634325743E+00               0
GRID*               4997               01.0653629286E+013.2817798750E+01+
*       -6.634325743E+00               0
GRID*               4998               01.0556417547E+013.1308691128E+01+
*       -6.634325742E+00               0
GRID*               4999               09.9067644995E+002.9944684701E+01+
*       -6.634797127E+00               0
GRID*               5000               07.3860552045E+002.8377610968E+01+
*       6.6347038997E+00               0
GRID*               5001               08.7971149159E+002.8918674274E+01+
*       6.6343257425E+00               0
GRID*               5002               01.0653629286E+013.2817798750E+01+
*       6.6343257427E+00               0
GRID*               5003               01.0556417547E+013.1308691128E+01+
*       6.6343257419E+00               0
GRID*               5004               09.9067644995E+002.9944684701E+01+
*       6.6347971273E+00               0
GRID*               6972               0-4.419232453E+002.8661170250E+01+
*       -6.656783674E+00               0
GRID*               6973               0-2.533063682E+002.8888671732E+01+
*       -6.656660721E+00               0
GRID*               6974               04.4193488947E+002.8660802352E+01+
*       -6.656711407E+00               0
GRID*               6975               02.5412828291E+002.8887939012E+01+
*       -6.656664062E+00               0
GRID*               6976               0-1.057295986E+002.8979919062E+01+
*       -6.664186842E+00               0
GRID*               6977               01.0653262555E+002.8979638314E+01+
*       -6.664173317E+00               0
GRID*               7108               0-4.419208918E+002.8661292493E+01+
*       6.6567597249E+00               0
GRID*               7109               0-2.533095674E+002.8889157881E+01+
*       6.6566430217E+00               0
GRID*               7110               04.4193395166E+002.8661280016E+01+
*       6.6566980595E+00               0
GRID*               7111               02.5413214245E+002.8888435468E+01+
*       6.6566467988E+00               0
GRID*               7112               0-1.057253268E+002.8980720292E+01+
*       6.6641661406E+00               0
GRID*               7113               01.0652849610E+002.8980426079E+01+
*       6.6641517663E+00               0
GRID*                  1               0-5.475901679E-028.2946023346E+01+
*       -2.137033506E+00               0
GRID*                  2               0-3.089638869E+008.5896168552E+01+
*       7.8958312515E-01               0
GRID*                  3               0-6.387492331E-018.5353322974E+01+
*       -4.040038739E+00               0
GRID*                  4               0-2.036800009E+008.7741578377E+01+
*       -2.243838959E+00               0
GRID*                  5               0-2.273764799E-018.5715977940E+01+
*       4.9157445456E-02               0
GRID*                  6               02.6543699291E+008.5501868901E+01+
*       -7.788999425E-01               0
GRID*                  7               01.4847201300E+008.7406879260E+01+
*       2.4612436883E+00               0
GRID*                  8               0-1.349335406E-019.1019168030E+01+
*       6.8787914635E-02               0
GRID*                  9               0-3.433150004E+007.5954525795E+01+
*       2.4557358370E-01               0
GRID*                 10               09.4229838187E-017.3499442979E+01+
*       -3.357338545E+00               0
GRID*                 11               0-2.253432207E-017.1543601632E+01+
*       -1.593397770E+00               0
GRID*                 12               0-3.750556817E+007.4314982553E+01+
*       -4.039880913E+00               0
GRID*                 13               0-3.538129796E+007.2250017245E+01+
*       6.3847435172E-02               0
GRID*                 14               08.8428111220E-017.5396733782E+01+
*       3.3622916225E+00               0
GRID*                 15               0-3.518423396E+007.4676079685E+01+
*       4.0211347680E+00               0
GRID*                 16               0-2.136115860E+006.9252415779E+01+
*       5.2040414484E-01               0
GRID*                 17               06.4995938564E-017.2542198716E+01+
*       3.3580724970E+00               0
GRID*                 18               0-4.205813733E+007.0784707983E+01+
*       3.4677188057E+00               0
GRID*                 19               01.9935508419E+008.8553465404E+01+
*       5.2204364917E+00               0
GRID*                 20               01.7875480447E-018.7901516181E+01+
*       4.7413915103E+00               0
GRID*                 21               01.2137970849E-018.5565407977E+01+
*       3.6185913332E+00               0
GRID*                 22               01.5968612810E+008.2177805565E+01+
*       3.6293964485E+00               0
GRID*                 23               01.7033338853E+012.8127753176E+01+
*       4.4740518186E+00               0
GRID*                 24               01.3965144002E+013.0999071318E+01+
*       5.1154167950E+00               0
GRID*                 25               01.2882811343E+012.6152295325E+01+
*       3.8350028470E+00               0
GRID*                 26               01.5268116267E+012.9735274933E+01+
*       8.4552615743E-01               0
GRID*                 27               05.1022423239E-012.6737055931E+01+
*       2.1046250466E+00               0
GRID*                 28               0-1.701814769E+012.8018967130E+01+
*       -5.028107389E+00               0
GRID*                 29               0-1.761654126E+012.7726610123E+01+
*       -2.048585219E+00               0
GRID*                 30               0-1.368485078E+013.1154570915E+01+
*       -4.918993728E+00               0
GRID*                 31               0-1.630627357E+009.9703587801E+01+
*       -5.874336174E+00               0
GRID*                 32               01.4808334122E+001.0239205936E+02+
*       -3.545824551E+00               0
GRID*                 33               0-1.014811878E+001.0664506165E+02+
*       -2.680133555E+00               0
GRID*                 34               0-7.087572579E-011.0192763230E+02+
*       2.5847512436E+00               0
GRID*                 35               01.6851827814E+001.1699720647E+02+
*       4.3795221779E+00               0
GRID*                 36               0-1.296836284E+012.6716075216E+01+
*       -4.179060107E+00               0
GRID*                 37               0-1.256440634E+013.0580691052E+01+
*       -1.971604628E+00               0
GRID*                 38               0-1.471571029E+012.3017657999E+01+
*       -1.417708745E+00               0
GRID*                 39               0-1.172854747E+012.5670907894E+01+
*       1.0280509689E+00               0
GRID*                 40               0-8.660059312E+002.6586038294E+01+
*       -1.619561680E+00               0
GRID*                 41               01.2025142775E+013.0537584294E+01+
*       2.2544175486E+00               0
GRID*                 42               01.4769023442E+012.3372287377E+01+
*       1.3802052920E+00               0
GRID*                 43               01.1854596152E+012.4962517461E+01+
*       -8.746397975E-01               0
GRID*                 44               08.5679268191E+002.6548834531E+01+
*       1.8036217484E+00               0
GRID*                 45               0-2.974739405E+001.1501291051E+02+
*       4.8005720548E+00               0
GRID*                 46               0-2.871113707E+001.1178433548E+02+
*       1.1759740876E+00               0
GRID*                 47               0-6.382053328E-011.1714700020E+02+
*       6.3849300886E+00               0
GRID*                 48               0-6.181256634E+001.1965576781E+02+
*       3.3599850952E+00               0
GRID*                 49               02.1897005654E+001.1657452403E+02+
*       1.0173866852E+00               0
GRID*                 50               05.2624880149E-011.1264329167E+02+
*       5.0024529159E+00               0
GRID*                 51               06.0648731329E-016.9070054689E+01+
*       2.2458665071E+00               0
GRID*                 52               0-3.423964314E+006.7023988376E+01+
*       2.8459237549E+00               0
GRID*                 53               0-4.932773646E-016.6001180334E+01+
*       1.4007503285E+00               0
GRID*                 54               0-3.426739973E+006.6507855258E+01+
*       -2.998680205E+00               0
GRID*                 55               0-3.863455462E-016.7443284218E+01+
*       -2.452508573E+00               0
GRID*                 56               02.4462803825E+007.2528418718E+01+
*       -2.674726880E-02               0
GRID*                 57               02.0334057399E+007.6318325074E+01+
*       -3.326694771E-01               0
GRID*                 58               0-4.080563131E+007.0294005534E+01+
*       -3.794586354E+00               0
GRID*                 59               04.5548084115E+001.1508885860E+02+
*       -3.426580278E+00               0
GRID*                 60               05.3920724235E+001.1977124976E+02+
*       2.2451181978E+00               0
GRID*                 61               03.7931974814E+001.1778905513E+02+
*       -4.472105753E+00               0
GRID*                 62               02.8447689663E+001.1113961673E+02+
*       5.4357845340E-01               0
GRID*                 63               04.8925651877E+001.1596317348E+02+
*       4.2180780461E+00               0
GRID*                 64               0-6.135062020E-015.9515930918E+01+
*       -1.125520671E+00               0
GRID*                 65               0-3.829706732E+001.1805830888E+02+
*       9.6561425117E-01               0
GRID*                 66               01.8411356016E-011.0836826254E+02+
*       4.4945011591E+00               0
GRID*                 67               01.1974163136E-017.5717891748E+01+
*       -3.622459036E+00               0
GRID*                 68               02.9618713632E+008.0972763368E+01+
*       -3.067229853E+00               0
GRID*                 69               0-6.140011069E-017.9680476779E+01+
*       -2.447886811E+00               0
GRID*                 70               0-3.355144075E+011.5140381468E+01+
*       1.3250279347E+00               0
GRID*                 71               0-3.496442927E+007.7443227600E+01+
*       -3.603108592E+00               0
GRID*                 72               06.0720993814E-027.8596725001E+01+
*       3.5270784941E+00               0
GRID*                 73               0-5.297427671E+001.1694287820E+02+
*       -2.583745471E+00               0
GRID*                 74               0-3.066653643E+008.1139353087E+01+
*       2.4032133314E+00               0
GRID*                 75               04.9683150622E+005.6438349509E+01+
*       -2.084424797E+00               0
GRID*                 76               02.6488435758E+005.7620386487E+01+
*       8.2048092677E-01               0
GRID*                 77               04.6544049014E+005.5107238974E+01+
*       2.4934741197E+00               0
GRID*                 78               05.0159195571E+005.9566854018E+01+
*       2.0641891371E+00               0
GRID*                 79               04.0887169073E+006.0015552666E+01+
*       -2.380217234E+00               0
GRID*                 80               04.2362969009E+005.3679122909E+01+
*       -1.370962984E+00               0
GRID*                 81               0-2.349831115E+009.5783371272E+01+
*       -5.834489486E+00               0
GRID*                 82               02.2002230931E-019.7429276938E+01+
*       -4.055986021E+00               0
GRID*                 83               01.4198910494E+006.2391278797E+01+
*       1.4762134093E+00               0
GRID*                 84               03.6568528813E+007.5982247916E+01+
*       2.9104213506E+00               0
GRID*                 85               0-2.146850570E+005.4763675591E+01+
*       3.1978946623E-02               0
GRID*                 86               0-3.780412124E+005.3548358971E+01+
*       1.6516698301E+00               0
GRID*                 87               04.4192036221E-015.5857437399E+01+
*       2.0534068012E+00               0
GRID*                 88               01.3677496418E+005.2586900383E+01+
*       1.1052171852E+00               0
GRID*                 89               0-9.023588079E-015.1288983113E+01+
*       1.2226156916E-01               0
GRID*                 90               0-5.274700730E+005.6061925811E+01+
*       2.0823965039E+00               0
GRID*                 91               0-1.457110335E-021.1740093812E+02+
*       -1.351878372E+00               0
GRID*                 92               0-1.147350983E+013.3033783596E+01+
*       -5.889316395E-01               0
GRID*                 93               0-1.009228821E+013.7002438177E+01+
*       8.4318820770E-01               0
GRID*                 94               0-1.310222897E+013.1270291500E+01+
*       2.3096962712E+00               0
GRID*                 95               01.9449915840E+011.9965331937E+01+
*       3.2649129339E+00               0
GRID*                 96               03.3985316493E+003.4931651086E+01+
*       6.6790477392E-02               0
GRID*                 97               01.9469182369E+012.3411124635E+01+
*       -2.460093628E+00               0
GRID*                 98               01.2113550221E+013.3588865637E+01+
*       -2.575024545E-02               0
GRID*                 99               01.2189977417E+013.0725319770E+01+
*       -2.386283256E+00               0
GRID*                100               09.4652405059E-043.7478041137E+01+
*       -1.265064184E-02               0
GRID*                101               09.3928660085E+003.6627375665E+01+
*       -2.938159729E-01               0
GRID*                102               03.8488818843E+007.0702062717E+01+
*       -3.512283421E+00               0
GRID*                103               04.1386541508E+007.0592675614E+01+
*       2.1214045073E+00               0
GRID*                104               09.6724373434E-021.1634367206E+02+
*       -6.332908418E+00               0
GRID*                105               0-6.220283379E+004.6958418123E+01+
*       1.2231310544E+00               0
GRID*                106               0-3.062064601E+004.7348276120E+01+
*       -1.302467703E-01               0
GRID*                107               0-4.345948388E+004.9597909971E+01+
*       -1.371762165E+00               0
GRID*                108               0-7.473149153E+004.5908703158E+01+
*       -2.417233332E+00               0
GRID*                109               0-4.401654639E+005.0167036750E+01+
*       1.7921610945E+00               0
GRID*                110               0-6.492170006E+005.1529784687E+01+
*       2.9256229954E+00               0
GRID*                111               01.5920209189E+012.8475796738E+01+
*       -4.754472566E+00               0
GRID*                112               01.5333196476E+012.9280116466E+01+
*       -1.817537658E+00               0
GRID*                113               01.3934874169E+013.1199305221E+01+
*       -4.904132148E+00               0
GRID*                114               01.3494589712E+012.6085443230E+01+
*       -4.272550456E+00               0
GRID*                115               0-1.500271000E+008.8973872948E+01+
*       -5.565401452E+00               0
GRID*                116               01.1858734712E-018.7678725713E+01+
*       -4.300389549E+00               0
GRID*                117               0-3.314234201E-019.5292511794E+01+
*       6.2210290006E+00               0
GRID*                118               0-8.171412078E-019.3640002250E+01+
*       6.4954042698E+00               0
GRID*                119               02.5331902530E+008.7788645597E+01+
*       -4.988140809E+00               0
GRID*                120               0-1.658828485E+012.8570202901E+01+
*       5.1737331139E+00               0
GRID*                121               0-1.557798445E+012.9966070627E+01+
*       1.9182248692E+00               0
GRID*                122               0-1.394077732E+013.1120406138E+01+
*       4.9206617160E+00               0
GRID*                123               0-1.348127626E+012.5974181815E+01+
*       4.2635778436E+00               0
GRID*                124               0-1.814645853E+012.6479127422E+01+
*       1.9499554610E+00               0
GRID*                125               0-3.713452941E+003.7107644874E+01+
*       1.5259725027E-01               0
GRID*                126               0-1.992204534E+011.9431653157E+01+
*       -2.987244419E+00               0
GRID*                127               03.4024208165E+015.1435505671E+00+
*       -2.766405583E+00               0
GRID*                128               03.5764773439E+018.8042155393E+00+
*       -1.206488326E+00               0
GRID*                129               0-3.529458877E+011.3141286126E+01+
*       -4.032313302E+00               0
GRID*                130               0-3.540291209E+019.6957604631E+00+
*       -1.872240374E+00               0
GRID*                131               0-3.912111119E+002.9984086018E+01+
*       2.7455539875E-01               0
GRID*                132               0-8.408134882E+002.5635490318E+01+
*       3.1352636571E+00               0
GRID*                133               03.5135648698E+011.3103288171E+01+
*       2.8212616698E+00               0
GRID*                134               03.7968208494E+003.0042466268E+01+
*       -1.745185178E-01               0
GRID*                135               08.5111004624E+002.5617404522E+01+
*       -3.199463543E+00               0
GRID*                136               07.2713476698E+004.3723742661E+01+
*       9.0473692265E-01               0
GRID*                137               03.3441698049E+004.6866967002E+01+
*       -5.900193718E-01               0
GRID*                138               04.9517219089E+005.1503984234E+01+
*       2.0049178013E+00               0
GRID*                139               01.9927621355E-024.8692571261E+01+
*       -7.888011667E-01               0
GRID*                140               04.6397341591E+005.0660426702E+01+
*       -2.077034395E+00               0
GRID*                141               06.0431794969E+004.7349900701E+01+
*       9.7267379715E-01               0
GRID*                142               01.2669594608E+009.0988476988E+01+
*       -6.027884260E+00               0
GRID*                143               03.1432455108E+009.4210257141E+01+
*       -4.134502057E+00               0
GRID*                144               0-5.380437327E+005.8933114556E+01+
*       -2.116307211E+00               0
GRID*                145               0-4.242882952E+006.3422531567E+01+
*       -2.437517700E+00               0
GRID*                146               0-5.045693817E+005.9696333578E+01+
*       2.1398124013E+00               0
GRID*                147               04.4883130661E+007.4862158178E+01+
*       -3.403640862E+00               0
GRID*                148               0-2.039322045E+012.1621705368E+01+
*       2.9719062301E+00               0
GRID*                149               0-6.143330744E+005.3371732095E+01+
*       -2.247921346E+00               0
GRID*                150               0-4.729278288E+006.3342751417E+01+
*       2.2782037781E+00               0
GRID*                151               0-9.405881663E-016.2895408134E+01+
*       -1.163818541E+00               0
GRID*                152               03.0726034924E+009.6131648732E+01+
*       5.4157336383E+00               0
GRID*                153               01.8980401692E+009.2556742617E+01+
*       5.5952339499E+00               0
GRID*                154               0-2.719877878E+009.2895108795E+01+
*       4.0048518210E+00               0
GRID*                155               09.4905092778E-019.3611984171E+01+
*       6.6929009348E+00               0
GRID*                156               03.8044905616E+006.6352905601E+01+
*       2.8186086081E+00               0
GRID*                157               0-2.413067309E+008.8413373429E+01+
*       5.7952525743E+00               0
GRID*                158               0-2.644893576E+011.0879862017E+01+
*       5.2351497915E+00               0
GRID*                159               03.7815822198E+006.3399525324E+01+
*       -2.572666458E+00               0
GRID*                160               03.9352359227E+006.6830583988E+01+
*       -2.629525455E+00               0
GRID*                161               01.1928512652E+006.5758350325E+01+
*       -1.384606388E+00               0
GRID*                162               02.2896659921E-015.5709357319E+01+
*       -1.916288192E+00               0
GRID*                163               04.2645259842E+006.3259735564E+01+
*       2.4126671737E+00               0
GRID*                164               0-3.870862612E-034.1787971004E+01+
*       -1.674043339E-01               0
GRID*                165               0-7.595062107E+004.3350590046E+01+
*       -1.071646359E+00               0
GRID*                166               01.8013253469E+012.6526239416E+01+
*       -2.253152507E+00               0
GRID*                167               07.7829229412E+004.0759391230E+01+
*       -2.296226920E-01               0
GRID*                168               0-7.131034337E+004.0735232299E+01+
*       8.7595957876E-01               0
GRID*                169               0-1.519896791E+012.9782381690E+01+
*       -1.021814419E+00               0
GRID*                170               0-6.555262769E-019.3721450983E+01+
*       -6.442388609E+00               0
GRID*                171               0-1.327631103E+009.1812186718E+01+
*       -5.039079477E+00               0
GRID*                172               0-9.371215123E-019.1464331191E+01+
*       6.1906149653E+00               0
GRID*                173               01.1486408753E+009.4096819422E+01+
*       -6.348725249E+00               0
GRID*                174               01.7738303480E+012.6984614020E+01+
*       1.6982464893E+00               0
GRID*                175               0-8.585820682E-021.1378587241E+02+
*       -4.468513409E+00               0
GRID*                176               02.6354855615E+018.6003005787E+00+
*       -5.623648766E+00               0
GRID*                177               0-1.572198943E+008.4421095949E+01+
*       -6.737251904E-01               0
GRID*                178               0-1.864194051E+008.5624745763E+01+
*       -1.625227807E+00               0
GRID*                179               0-3.467541250E-018.4149673160E+01+
*       -3.088536122E+00               0
GRID*                180               0-3.321751958E+008.4506442868E+01+
*       -2.447665064E+00               0
GRID*                181               0-4.839191884E+008.5981515471E+01+
*       -9.843567489E-01               0
GRID*                182               0-3.613747067E+008.5710092682E+01+
*       -3.399167681E+00               0
GRID*                183               0-1.337774621E+008.6547450676E+01+
*       -3.141938849E+00               0
GRID*                184               0-4.330628565E-018.5534650457E+01+
*       -1.995440647E+00               0
GRID*                185               0-1.132088244E+008.6728778158E+01+
*       -1.097340757E+00               0
GRID*                186               0-2.563219439E+008.6818873464E+01+
*       -7.271279167E-01               0
GRID*                187               0-1.658507674E+008.5806073246E+01+
*       4.1937028530E-01               0
GRID*                188               0-4.705563576E+008.7679424005E+01+
*       1.4710224666E+00               0
GRID*                189               0-4.179144146E+008.8602128918E+01+
*       -4.568857526E-02               0
GRID*                190               0-4.312772454E+008.6904220384E+01+
*       -2.501067791E+00               0
GRID*                191               02.0695450296E+008.6454374081E+01+
*       8.4117187290E-01               0
GRID*                192               06.7489329469E-018.9213023645E+01+
*       1.2650158015E+00               0
GRID*                193               01.2597181942E+008.8260518465E+01+
*       -3.550560139E-01               0
GRID*                194               03.0878496019E-018.6621723639E+01+
*       -1.511369451E+00               0
GRID*                195               0-2.760399393E-018.7574228819E+01+
*       1.0870236487E-01               0
GRID*                196               0-1.085866775E+008.9380373203E+01+
*       -1.087525522E+00               0
GRID*                197               0-1.612286205E+008.8457668291E+01+
*       4.2918551989E-01               0
GRID*                198               0-3.228210912E+009.0240923744E+01+
*       1.1106248613E+00               0
GRID*                199               0-1.245425811E+007.4726984387E+01+
*       -1.555882481E+00               0
GRID*                200               03.5847758059E-017.2521522305E+01+
*       -2.475368157E+00               0
GRID*                201               0-1.829246613E+007.3749063713E+01+
*       -6.739120930E-01               0
GRID*                202               0-3.591853411E+007.5134754174E+01+
*       -1.897153665E+00               0
GRID*                203               0-1.404129218E+007.3907212766E+01+
*       -3.698609729E+00               0
GRID*                204               0-1.987950019E+007.2929292092E+01+
*       -2.816639341E+00               0
GRID*                205               0-1.326924342E+007.3823375514E+01+
*       1.7130695289E+00               0
GRID*                206               0-1.274434446E+007.5675629789E+01+
*       1.8039326031E+00               0
GRID*                207               0-3.485639900E+007.4102271520E+01+
*       1.5471050943E-01               0
GRID*                208               0-3.528276596E+007.3463048465E+01+
*       2.0424911016E+00               0
GRID*                209               0-1.317071142E+007.5036406734E+01+
*       3.6917131953E+00               0
GRID*                210               0-3.475786700E+007.5315302740E+01+
*       2.1333541758E+00               0
GRID*                211               0-2.837122828E+007.0751216512E+01+
*       2.9212579001E-01               0
GRID*                212               0-7.430782371E-017.0897307248E+01+
*       1.9392383209E+00               0
GRID*                213               0-1.444085205E+007.2396107980E+01+
*       1.7109599661E+00               0
GRID*                214               0-3.871971764E+007.1517362614E+01+
*       1.7657831205E+00               0
GRID*                215               0-3.170964796E+007.0018561881E+01+
*       1.9940614753E+00               0
GRID*                216               0-1.777927174E+007.1663453349E+01+
*       3.4128956514E+00               0
GRID*                217               0-5.551579868E+007.2956001397E+01+
*       1.6051188427E-01               0
GRID*                218               0-5.499089973E+007.4808255673E+01+
*       2.5137495853E-01               0
GRID*                219               0-3.644343307E+007.3282499899E+01+
*       -1.988016739E+00               0
GRID*                220               0-5.657793379E+007.3988484051E+01+
*       -1.891352290E+00               0
GRID*                221               03.9031042068E+008.8434779359E+01+
*       1.5439094013E-01               0
GRID*                222               04.4879291064E+008.7482274180E+01+
*       -1.465680875E+00               0
GRID*                223               03.0932773715E+009.0240923744E+01+
*       -1.041836947E+00               0
GRID*                224               04.0367325150E+008.6736870825E+01+
*       2.6097701556E+00               0
GRID*                225               04.6215574146E+008.5784365646E+01+
*       9.8969834020E-01               0
GRID*                226               01.9386863076E+008.6427969527E+01+
*       4.9806218442E+00               0
GRID*                227               04.4906986926E+008.5757961092E+01+
*       5.1291483115E+00               0
GRID*                228               04.2911478710E+008.7310163897E+01+
*       3.9893665573E+00               0
GRID*                229               01.7391354860E+008.7980172332E+01+
*       3.8408400900E+00               0
GRID*                230               02.1931016636E+008.7001262599E+01+
*       6.3602182459E+00               0
GRID*                231               01.2944448166E+008.7067639674E+01+
*       4.6472263518E+00               0
GRID*                232               08.3173746725E-018.7654197721E+01+
*       3.6013175993E+00               0
GRID*                233               06.4146215386E-018.7314958135E+01+
*       5.7873002628E+00               0
GRID*                234               01.5488601726E+008.7640932746E+01+
*       6.0268227535E+00               0
GRID*                235               01.0861528232E+008.8227490793E+01+
*       4.9809140010E+00               0
GRID*                236               03.3550623043E+008.5816135183E+01+
*       3.1884439780E+00               0
GRID*                237               08.0304991925E-018.6486143618E+01+
*       3.0399175107E+00               0
GRID*                238               01.2570160969E+008.5507233885E+01+
*       5.5592956666E+00               0
GRID*                239               01.3878748188E+008.5533638439E+01+
*       1.4198456953E+00               0
GRID*                240               02.1256156050E+008.3839837233E+01+
*       1.4252482530E+00               0
GRID*                241               08.5912049474E-018.3871606771E+01+
*       3.6239938908E+00               0
GRID*                242               04.0928030905E+008.4122333977E+01+
*       3.1938465357E+00               0
GRID*                243               01.5499241428E+012.9563412247E+01+
*       4.7947343068E+00               0
GRID*                244               01.4950414228E+013.1138375641E+01+
*       5.0422870772E+00               0
GRID*                245               01.6484511653E+012.9702716571E+01+
*       4.7216045890E+00               0
GRID*                246               01.6735485891E+012.9426891663E+01+
*       3.7218611894E+00               0
GRID*                247               01.5201388466E+013.0862550734E+01+
*       4.0425436775E+00               0
GRID*                248               01.7424747919E+012.8746542932E+01+
*       3.6635036578E+00               0
GRID*                249               01.7926080121E+012.8312495041E+01+
*       4.1300233243E+00               0
GRID*                250               01.7557410993E+012.8627103813E+01+
*       4.5468323585E+00               0
GRID*                251               01.3423977672E+012.8575683321E+01+
*       4.4752098210E+00               0
GRID*                252               01.4075463805E+012.7943785129E+01+
*       2.3402645022E+00               0
GRID*                253               01.4616630135E+013.0367173126E+01+
*       2.9804714762E+00               0
GRID*                254               01.4958075098E+012.7140024250E+01+
*       4.1545273328E+00               0
GRID*                255               01.6150727560E+012.8931514055E+01+
*       2.6597889880E+00               0
GRID*                256               02.5431271267E-012.4868505685E+01+
*       3.7895221148E+00               0
GRID*                257               01.4753298653E+002.5924645779E+01+
*       5.6439077034E+00               0
GRID*                258               01.7312413850E+002.7793196025E+01+
*       3.9590106351E+00               0
GRID*                259               02.5511211620E-012.6368527966E+01+
*       4.8023125233E+00               0
GRID*                260               0-7.994035309E-042.4499977719E+01+
*       6.4872095915E+00               0
GRID*                261               01.4761292688E+002.7424668059E+01+
*       6.6566981118E+00               0
GRID*                262               0-1.867724954E+012.7682499159E+01+
*       -4.389053694E+00               0
GRID*                263               0-1.897644633E+012.7536320656E+01+
*       -2.899292610E+00               0
GRID*                264               0-1.731734448E+012.7872788626E+01+
*       -3.538346304E+00               0
GRID*                265               0-1.791848454E+012.8258102018E+01+
*       -4.407051109E+00               0
GRID*                266               0-1.821768133E+012.8111923514E+01+
*       -2.917290025E+00               0
GRID*                267               0-1.535149924E+012.9586769022E+01+
*       -4.973550559E+00               0
GRID*                268               0-1.481026762E+013.1216125440E+01+
*       -4.944075544E+00               0
GRID*                269               0-1.647691607E+012.9648323547E+01+
*       -4.998632374E+00               0
GRID*                270               0-1.672789031E+012.9372498640E+01+
*       -3.998888974E+00               0
GRID*                271               0-1.506124186E+013.0940300532E+01+
*       -3.944332144E+00               0
GRID*                272               0-9.595241088E+003.9357603992E+01+
*       -6.505426118E+00               0
GRID*                273               0-1.725571942E+012.8842215147E+01+
*       -6.264053694E+00               0
GRID*                274               0-1.867724954E+012.7682499159E+01+
*       -6.264053694E+00               0
GRID*                275               0-1.659219748E+012.6783857535E+01+
*       -6.264053694E+00               0
GRID*                276               0-1.340654857E+012.9919081629E+01+
*       -6.209496864E+00               0
GRID*                277               0-1.558907096E+013.0410017039E+01+
*       -6.209496864E+00               0
GRID*                278               0-1.507319702E+012.8351279737E+01+
*       -6.264053694E+00               0
GRID*                279               0-7.489697254E-021.0104782358E+02+
*       -4.710080363E+00               0
GRID*                280               02.3301076717E-011.0451856051E+02+
*       -3.112979053E+00               0
GRID*                281               0-1.322719618E+001.0317432473E+02+
*       -4.277234865E+00               0
GRID*                282               0-1.169692308E+001.0081561005E+02+
*       -1.644792465E+00               0
GRID*                283               03.8603807718E-011.0215984583E+02+
*       -4.805366538E-01               0
GRID*                284               0-8.617845679E-011.0428634698E+02+
*       -4.769115579E-02               0
GRID*                285               01.6564346247E+001.1518239066E+02+
*       5.9397610890E+00               0
GRID*                286               08.4250151591E-011.1605715193E+02+
*       6.1608372106E+00               0
GRID*                287               01.6631828102E+001.1677350996E+02+
*       6.7147611843E+00               0
GRID*                288               0-4.280716697E+001.0271753473E+02+
*       -3.761929475E+00               0
GRID*                289               0-4.324243947E+001.0029705294E+02+
*       -5.000000000E+00               0
GRID*                290               0-1.175515956E+001.0183715092E+02+
*       -6.687168087E+00               0
GRID*                291               09.0152846013E-021.0049976232E+02+
*       -6.687168087E+00               0
GRID*                292               03.8021442891E-011.0318138671E+02+
*       -5.522912276E+00               0
GRID*                293               01.6458832308E+001.0184399810E+02+
*       -5.522912276E+00               0
GRID*                294               0-3.616828543E+009.9147574083E+01+
*       -4.187168087E+00               0
GRID*                295               0-3.616828543E+009.9147574083E+01+
*       -6.687168087E+00               0
GRID*                296               0-2.338042761E+001.0085306666E+02+
*       -6.687168087E+00               0
GRID*                297               09.5236882492E+003.9517887669E+01+
*       5.6983939945E+00               0
GRID*                298               09.8728765381E+003.8497707507E+01+
*       6.2887989666E+00               0
GRID*                299               01.0029872564E+013.8110739138E+01+
*       5.5576975052E+00               0
GRID*                300               0-1.276638459E+012.8648383134E+01+
*       -3.075332367E+00               0
GRID*                301               0-1.081428988E+013.0670135492E+01+
*       -2.463080830E+00               0
GRID*                302               0-1.101626813E+012.8737827574E+01+
*       -3.566808569E+00               0
GRID*                303               0-1.176227948E+012.9011957815E+01+
*       -4.973855796E+00               0
GRID*                304               0-1.156030123E+013.0944265733E+01+
*       -3.870128057E+00               0
GRID*                305               0-1.332660681E+012.8935323066E+01+
*       -4.549026917E+00               0
GRID*                306               0-1.499325526E+012.7367521173E+01+
*       -4.603583748E+00               0
GRID*                307               0-1.304830459E+012.7699833780E+01+
*       -5.839530053E+00               0
GRID*                308               0-1.384203656E+012.4866866608E+01+
*       -2.798384426E+00               0
GRID*                309               0-1.501456678E+012.2014764777E+01+
*       -4.458854372E+00               0
GRID*                310               0-1.414089305E+012.3863973386E+01+
*       -5.839530053E+00               0
GRID*                311               0-1.183456717E+012.3537567820E+01+
*       -4.823782622E+00               0
GRID*                312               0-1.270824090E+012.1688359211E+01+
*       -3.443106941E+00               0
GRID*                313               0-1.300709739E+012.0685465989E+01+
*       -6.484252569E+00               0
GRID*                314               0-1.234845515E+012.6193491555E+01+
*       -1.575504569E+00               0
GRID*                315               0-1.019430339E+012.6128473094E+01+
*       -2.957553555E-01               0
GRID*                316               0-1.081421107E+012.6651056755E+01+
*       -2.899310893E+00               0
GRID*                317               0-1.214647690E+012.8125799473E+01+
*       -4.717768296E-01               0
GRID*                318               0-1.061223282E+012.8583364673E+01+
*       -1.795583154E+00               0
GRID*                319               0-1.544097878E+012.4283202969E+01+
*       -4.458854372E+00               0
GRID*                320               0-1.456730505E+012.6132411578E+01+
*       -5.839530053E+00               0
GRID*                321               0-9.629277945E+002.5163894397E+01+
*       -4.559780840E+00               0
GRID*                322               0-1.178342971E+012.5228912858E+01+
*       -5.839530053E+00               0
GRID*                323               0-1.088263874E+012.7817312498E+01+
*       -4.973855796E+00               0
GRID*                324               0-8.728486979E+002.7752294037E+01+
*       -3.694106583E+00               0
GRID*                325               0-9.697705611E+002.6330150140E+01+
*       -6.634325743E+00               0
GRID*                326               01.2453977059E+012.8344939809E+01+
*       3.0447101978E+00               0
GRID*                327               01.1290669453E+013.0922712354E+01+
*       4.0115345170E+00               0
GRID*                328               01.1719503737E+012.8730067869E+01+
*       4.8018271662E+00               0
GRID*                329               01.2995143388E+013.0768327806E+01+
*       3.6849171718E+00               0
GRID*                330               01.2260670067E+013.1153455866E+01+
*       5.4420341402E+00               0
GRID*                331               01.3825917392E+012.4762291351E+01+
*       2.6076040695E+00               0
GRID*                332               01.5041223355E+012.2192079466E+01+
*       4.4401026460E+00               0
GRID*                333               01.4098117305E+012.3582083440E+01+
*       5.6675014235E+00               0
GRID*                334               01.1796330932E+012.3253290591E+01+
*       4.6493244950E+00               0
GRID*                335               01.2739436982E+012.1863286617E+01+
*       3.4219257175E+00               0
GRID*                336               01.3011636895E+012.0683078706E+01+
*       6.4818230714E+00               0
GRID*                337               01.0411028710E+012.9728067037E+01+
*       4.0115345170E+00               0
GRID*                338               01.0839862994E+012.7535422552E+01+
*       4.8018271662E+00               0
GRID*                339               01.5467757994E+012.4458346512E+01+
*       4.4401026460E+00               0
GRID*                340               01.4524651944E+012.5848350486E+01+
*       5.6675014235E+00               0
GRID*                341               01.2368703747E+012.5557406393E+01+
*       1.4801815248E+00               0
GRID*                342               01.0211261485E+012.5755675996E+01+
*       4.6449097545E-01               0
GRID*                343               01.0725369081E+012.6350564928E+01+
*       2.8193122977E+00               0
GRID*                344               01.1939869463E+012.7750050877E+01+
*       6.8988887555E-01               0
GRID*                345               01.0296534797E+012.8543209412E+01+
*       2.0290196485E+00               0
GRID*                346               08.6824207319E+002.7733692155E+01+
*       3.7861366169E+00               0
GRID*                347               01.1740653960E+012.4947022912E+01+
*       5.6675014235E+00               0
GRID*                348               09.6977056113E+002.6330150140E+01+
*       6.6343257427E+00               0
GRID*                349               09.5832116985E+002.5145292516E+01+
*       4.6518108742E+00               0
GRID*                350               0-2.922926556E+001.1339862300E+02+
*       2.9882730712E+00               0
GRID*                351               0-3.279605531E+001.1128667595E+02+
*       4.3379870438E+00               0
GRID*                352               0-3.331418380E+001.1290096347E+02+
*       6.1502860274E+00               0
GRID*                353               0-4.743668659E+001.1288703143E+02+
*       4.7640575736E+00               0
GRID*                354               0-4.691855810E+001.1127274391E+02+
*       2.9517585900E+00               0
GRID*                355               0-5.100347634E+001.1077508438E+02+
*       6.1137715462E+00               0
GRID*                356               0-1.806472369E+001.1607995536E+02+
*       5.5927510717E+00               0
GRID*                357               0-3.409730983E+001.1840138401E+02+
*       4.8724575919E+00               0
GRID*                358               0-4.577998019E+001.1733433916E+02+
*       4.0802785750E+00               0
GRID*                359               0-3.900996031E+001.1617598352E+02+
*       6.9252861228E+00               0
GRID*                360               0-2.732728995E+001.1724302836E+02+
*       7.7174651397E+00               0
GRID*                361               0-5.504254646E+001.1849741217E+02+
*       6.2049926430E+00               0
GRID*                362               0-3.407065710E-011.1417942976E+02+
*       1.0966803864E+00               0
GRID*                363               0-3.925194197E-011.1579371727E+02+
*       2.9089793700E+00               0
GRID*                364               0-1.224245302E+001.1382810109E+02+
*       4.9015124854E+00               0
GRID*                365               0-1.172432453E+001.1221381358E+02+
*       3.0892135018E+00               0
GRID*                366               01.3579746834E+001.1460890785E+02+
*       3.0099198005E+00               0
GRID*                367               01.3057901862E+013.2088042572E+01+
*       2.7459807602E+00               0
GRID*                368               01.1572929712E+013.2200325919E+01+
*       3.0915605756E+00               0
GRID*                369               01.0540170625E+013.0649867641E+01+
*       2.5999973640E+00               0
GRID*                370               01.2323428541E+013.2473170632E+01+
*       4.5030977286E+00               0
GRID*                371               02.6303452596E-011.1388019453E+02+
*       6.4723025796E+00               0
GRID*                372               0-5.507188332E-011.1300543326E+02+
*       6.2512264580E+00               0
GRID*                373               0-1.132945900E+001.1525728752E+02+
*       6.9424650443E+00               0
GRID*                374               0-3.191925412E-011.1613204879E+02+
*       7.1635411659E+00               0
GRID*                375               0-5.597826568E-021.1489514593E+02+
*       5.6936915023E+00               0
GRID*                376               01.1057157914E+001.1482024907E+02+
*       4.6909875469E+00               0
GRID*                377               0-6.447783117E-011.1600505849E+02+
*       4.5900471164E+00               0
GRID*                378               05.2348872427E-011.1707210333E+02+
*       5.3822261333E+00               0
GRID*                379               0-1.580924277E+001.1171615405E+02+
*       6.2512264580E+00               0
GRID*                380               0-2.301212936E+001.1419024268E+02+
*       6.1502860274E+00               0
GRID*                381               0-1.408738501E+006.8047021533E+01+
*       2.5458951310E+00               0
GRID*                382               0-2.780040087E+006.8138202078E+01+
*       1.6831639499E+00               0
GRID*                383               0-7.648142733E-016.9161235234E+01+
*       1.3831353260E+00               0
GRID*                384               05.6604974321E-026.7535617512E+01+
*       1.8233084178E+00               0
GRID*                385               0-1.958620840E+006.6512584355E+01+
*       2.1233370417E+00               0
GRID*                386               0-1.314696612E+006.7626798057E+01+
*       9.6057723667E-01               0
GRID*                387               0-2.781427917E+006.7880135519E+01+
*       -1.239138030E+00               0
GRID*                388               0-1.906542760E+006.6975569738E+01+
*       -2.725594389E+00               0
GRID*                389               0-1.261230703E+006.8347849999E+01+
*       -9.660522139E-01               0
GRID*                390               0-1.960008669E+006.6254517796E+01+
*       -7.989649385E-01               0
GRID*                391               0-4.398114554E-016.6722232276E+01+
*       -5.258791220E-01               0
GRID*                392               0-5.023010050E+006.9266179075E+01+
*       3.0124949996E-01               0
GRID*                393               0-5.668322107E+006.7893898814E+01+
*       -1.458292675E+00               0
GRID*                394               0-5.666934277E+006.8151965373E+01+
*       1.4640093050E+00               0
GRID*                395               0-3.425352144E+006.6765921817E+01+
*       -7.637822530E-02               0
GRID*                396               02.2398430612E+007.4423371896E+01+
*       -1.797083729E-01               0
GRID*                397               09.0403125960E-017.3930963353E+01+
*       -9.630336233E-01               0
GRID*                398               01.1104685809E+007.2036010175E+01+
*       -8.100725192E-01               0
GRID*                399               01.6652807474E+007.3962576250E+01+
*       1.6677721769E+00               0
GRID*                400               01.4588434261E+007.5857529428E+01+
*       1.5148110727E+00               0
GRID*                401               03.2946894575E-017.3470167707E+01+
*       8.8444692646E-01               0
GRID*                402               0-6.847100181E-027.0269426130E+01+
*       3.7123434043E+00               0
GRID*                403               0-1.954071759E-016.8656549126E+01+
*       3.5712349554E+00               0
GRID*                404               0-2.601557699E+006.9513875773E+01+
*       4.1821611048E+00               0
GRID*                405               0-2.474621525E+007.1126752777E+01+
*       4.3232695537E+00               0
GRID*                406               0-1.799663210E+006.9927381336E+01+
*       2.8567926564E+00               0
GRID*                407               0-5.995233686E+006.9786973952E+01+
*       -1.856245750E+00               0
GRID*                408               0-3.108339496E+006.9773210657E+01+
*       -1.637091105E+00               0
GRID*                409               0-3.753651552E+006.8400930396E+01+
*       -3.396633280E+00               0
GRID*                410               0-5.724017018E+007.0764979808E+01+
*       7.2971145127E-02               0
GRID*                411               0-6.057858986E+007.0032325177E+01+
*       1.7749068304E+00               0
GRID*                412               03.3722544884E+001.1583169131E+02+
*       -1.204596797E+00               0
GRID*                413               04.9734404175E+001.1743005418E+02+
*       -5.907310403E-01               0
GRID*                414               03.7908864945E+001.1817288689E+02+
*       1.6312524415E+00               0
GRID*                415               05.1437757779E+001.1626903566E+02+
*       9.3238811598E-01               0
GRID*                416               06.3263297009E+001.1552620295E+02+
*       -1.289595366E+00               0
GRID*                417               06.7449617070E+001.1786739853E+02+
*       1.5462538723E+00               0
GRID*                418               02.9914490234E+001.1718178958E+02+
*       -1.727359534E+00               0
GRID*                419               04.5926349525E+001.1878015244E+02+
*       -1.113493778E+00               0
GRID*                420               04.1740029464E+001.1643895686E+02+
*       -3.949343016E+00               0
GRID*                421               01.9374416734E+001.1678586525E+02+
*       2.6984544315E+00               0
GRID*                422               03.5386276025E+001.1838422811E+02+
*       3.3123201878E+00               0
GRID*                423               02.3263592548E+001.1895905855E+02+
*       1.4136894876E+00               0
GRID*                424               02.0741003628E+001.1917039978E+02+
*       3.0947572340E+00               0
GRID*                425               03.9275451839E+001.2055742142E+02+
*       2.0275552439E+00               0
GRID*                426               06.7933081906E-011.1880654572E+02+
*       1.4137338314E+00               0
GRID*                427               04.2707192706E-011.1901788695E+02+
*       3.0948015778E+00               0
GRID*                428               02.5172347658E+001.1385707038E+02+
*       7.8048256929E-01               0
GRID*                429               01.6855088839E+001.1189145420E+02+
*       2.7730156847E+00               0
GRID*                430               0-1.317237052E-021.1146197611E+02+
*       8.5977627051E-01               0
GRID*                431               03.5411328765E+001.1626884875E+02+
*       2.6177323656E+00               0
GRID*                432               03.8686670770E+001.1355139510E+02+
*       2.3808282497E+00               0
GRID*                433               04.4728271902E+001.1416394944E+02+
*       1.0815135508E+00               0
GRID*                434               05.8242595014E+001.1385827417E+02+
*       2.6818592313E+00               0
GRID*                435               04.8003613907E+001.1144649579E+02+
*       8.4460943492E-01               0
GRID*                436               05.6553811133E+001.1342111673E+02+
*       -1.140469931E+00               0
GRID*                437               04.5668758996E-016.0515013112E+01+
*       -2.716708702E+00               0
GRID*                438               05.8144026198E-015.8929880132E+01+
*       -2.578027541E+00               0
GRID*                439               0-1.186212456E+005.9040856228E+01+
*       -2.587736691E+00               0
GRID*                440               02.7094069946E+001.1430323257E+02+
*       4.6102654810E+00               0
GRID*                441               03.2888739845E+001.1648018997E+02+
*       4.2988001120E+00               0
GRID*                442               05.7022362070E+001.1336067258E+02+
*       4.4754081732E+00               0
GRID*                443               03.5190780139E+001.1170073168E+02+
*       4.8675956082E+00               0
GRID*                444               04.6783380963E+001.1094889420E+02+
*       2.6381583769E+00               0
GRID*                445               0-2.864383709E+002.5840557503E+01+
*       2.9076700016E+00               0
GRID*                446               0-4.232088589E+002.5589618849E+01+
*       5.6461014163E+00               0
GRID*                447               0-1.477380951E+002.5924599488E+01+
*       5.6439031179E+00               0
GRID*                448               0-3.402223068E+001.1653560969E+02+
*       2.8830931530E+00               0
GRID*                449               0-1.072261975E+001.1752775767E+02+
*       2.6725682145E+00               0
GRID*                450               0-8.200030833E-011.1731641645E+02+
*       9.9150046817E-01               0
GRID*                451               03.2293175008E+001.1018694496E+02+
*       3.9882865034E+00               0
GRID*                452               04.7356752439E+001.0921912481E+02+
*       5.2370600455E+00               0
GRID*                453               02.0326065447E+001.1167547153E+02+
*       6.2512264580E+00               0
GRID*                454               03.5518118082E-011.1050577711E+02+
*       4.7484770375E+00               0
GRID*                455               03.0582498801E+001.0804943039E+02+
*       3.7343106250E+00               0
GRID*                456               01.8615389240E+001.0953795696E+02+
*       5.9972505796E+00               0
GRID*                457               03.9275321100E+001.2055741599E+02+
*       2.1755698708E-01               0
GRID*                458               02.3263461809E+001.1895905313E+02+
*       -3.963087692E-01               0
GRID*                459               01.0769676347E+001.1300543326E+02+
*       6.2512264580E+00               0
GRID*                460               03.1925756382E+002.7567869740E+01+
*       3.9366382660E+00               0
GRID*                461               03.0069337132E+002.4534433149E+01+
*       3.7889141633E+00               0
GRID*                462               05.6892851189E+002.5365246958E+01+
*       5.6209273828E+00               0
GRID*                463               04.2279508658E+002.5590573243E+01+
*       5.6432997519E+00               0
GRID*                464               01.5408064973E+007.8345327558E+01+
*       -3.344844445E+00               0
GRID*                465               01.6206130124E+007.9169094239E+01+
*       -4.380969100E+00               0
GRID*                466               01.9954814653E-017.6541658429E+01+
*       -4.658583692E+00               0
GRID*                467               0-2.471297377E-017.7699184263E+01+
*       -3.035172924E+00               0
GRID*                468               01.1739351282E+008.0326620073E+01+
*       -2.757558332E+00               0
GRID*                469               0-1.673232226E-017.8522950944E+01+
*       -4.071297579E+00               0
GRID*                470               0-1.740360799E+008.1108046152E+01+
*       -4.973943405E+00               0
GRID*                471               0-1.957577167E+007.9653904316E+01+
*       -4.973943405E+00               0
GRID*                472               0-2.830280937E-017.9993120781E+01+
*       -4.199920850E+00               0
GRID*                473               0-3.305071999E+011.3130863172E+01+
*       6.6251396735E-01               0
GRID*                474               0-3.590033217E+011.3380359976E+01+
*       2.5486422823E+00               0
GRID*                475               0-3.539961141E+011.1370841680E+01+
*       1.8861283150E+00               0
GRID*                476               0-3.240008407E+011.5409916616E+01+
*       2.1496953338E+00               0
GRID*                477               0-3.474897549E+011.3649895124E+01+
*       3.3733096814E+00               0
GRID*                478               0-7.855681870E-017.6770144301E+01+
*       -4.813736390E+00               0
GRID*                479               0-1.152439556E+007.8751436816E+01+
*       -4.226450277E+00               0
GRID*                480               0-2.055222017E+007.8561852189E+01+
*       -3.025497701E+00               0
GRID*                481               0-3.398798077E+007.8535279726E+01+
*       -5.551554296E+00               0
GRID*                482               0-5.250083150E+007.9118644437E+01+
*       -3.342175190E+00               0
GRID*                483               0-3.808862240E+008.0237269027E+01+
*       -2.764564300E+00               0
GRID*                484               0-5.152438301E+008.0210696564E+01+
*       -5.290620895E+00               0
GRID*                485               0-2.593660466E+007.7632812227E+01+
*       -4.804061168E+00               0
GRID*                486               0-1.688350648E+007.6580559674E+01+
*       -3.612783814E+00               0
GRID*                487               07.0970231653E-017.7999400926E+01+
*       -1.390278144E+00               0
GRID*                488               01.0765736856E+007.6018108411E+01+
*       -1.977564257E+00               0
GRID*                489               02.4976385515E+007.8645544221E+01+
*       -1.699949665E+00               0
GRID*                490               0-2.766400565E-017.9138600890E+01+
*       5.3959584175E-01               0
GRID*                491               01.0470633669E+007.7457525037E+01+
*       1.5972045085E+00               0
GRID*                492               01.5112961785E+007.9784744184E+01+
*       2.2992432035E-01               0
GRID*                493               0-4.419581539E+001.1964137336E+02+
*       -7.240008342E+00               0
GRID*                494               0-2.828817755E+001.1918881938E+02+
*       -7.240026914E+00               0
GRID*                495               0-3.063703731E+001.1899065339E+02+
*       -4.006899554E+00               0
GRID*                496               0-4.654467515E+001.1944320737E+02+
*       -4.006880983E+00               0
GRID*                497               0-5.062541695E+001.1714104419E+02+
*       -5.816872831E+00               0
GRID*                498               0-1.840327375E+008.0409914933E+01+
*       -2.233673962E-02               0
GRID*                499               0-5.035188509E+008.0966707181E+01+
*       -3.390142289E-01               0
GRID*                500               0-3.281548285E+007.9291290343E+01+
*       -5.999476302E-01               0
GRID*                501               03.8085793190E+005.7029367998E+01+
*       -6.319719352E-01               0
GRID*                502               03.6516242386E+005.6363812731E+01+
*       1.6569775233E+00               0
GRID*                503               04.8113599818E+005.5772794242E+01+
*       2.0452466129E-01               0
GRID*                504               04.9921173096E+005.8002601763E+01+
*       -1.011783004E-02               0
GRID*                505               03.8323815665E+005.8593620252E+01+
*       1.4423350319E+00               0
GRID*                506               04.8351622293E+005.7337046496E+01+
*       2.2788316284E+00               0
GRID*                507               04.7456936832E+005.7128272021E+01+
*       -3.562815054E+00               0
GRID*                508               04.3058946057E+005.8916873600E+01+
*       -3.710711272E+00               0
GRID*                509               04.5285159847E+005.8226951088E+01+
*       -2.232321016E+00               0
GRID*                510               06.8482163782E+005.7660952431E+01+
*       -2.965562268E+00               0
GRID*                511               06.6255949992E+005.8350874943E+01+
*       -4.443952525E+00               0
GRID*                512               06.4084173008E+005.9449554010E+01+
*       -3.113458487E+00               0
GRID*                513               03.3687802416E+005.8817969577E+01+
*       -7.798681539E-01               0
GRID*                514               04.5523182322E+005.9791203342E+01+
*       -1.580140487E-01               0
GRID*                515               04.6023059815E+005.5058736209E+01+
*       -1.727693891E+00               0
GRID*                516               04.4453509012E+005.4393180942E+01+
*       5.6125556778E-01               0
GRID*                517               03.4425702384E+005.5649754698E+01+
*       -2.752410287E-01               0
GRID*                518               06.9277888409E+005.6649888494E+01+
*       -1.150154802E+00               0
GRID*                519               06.4879897635E+005.8438490073E+01+
*       -1.298051021E+00               0
GRID*                520               06.5617797603E+005.5270275194E+01+
*       -7.934238954E-01               0
GRID*                521               06.6377123355E+005.4305460408E+01+
*       -2.657282464E+00               0
GRID*                522               07.0037214161E+005.5685073708E+01+
*       -3.014013370E+00               0
GRID*                523               06.7213658609E+005.3242541656E+01+
*       -9.346038236E-01               0
GRID*                524               0-2.999837982E+011.6896500584E+01+
*       -5.237181366E+00               0
GRID*                525               0-2.998338286E+011.8919828116E+01+
*       -5.250915575E+00               0
GRID*                526               0-2.862401602E+011.7653217237E+01+
*       -5.775000095E+00               0
GRID*                527               06.1277460586E-018.6146904032E+01+
*       5.2259001742E+00               0
GRID*                528               01.5006725648E-018.6733462079E+01+
*       4.1799914217E+00               0
GRID*                529               0-3.976430422E+009.7187465818E+01+
*       -4.167244743E+00               0
GRID*                530               0-1.990229236E+009.7743479537E+01+
*       -5.854412830E+00               0
GRID*                531               0-2.691503709E+009.8010418651E+01+
*       -3.277993010E+00               0
GRID*                532               0-1.064904403E+009.6606324105E+01+
*       -4.945237754E+00               0
GRID*                533               0-7.053025240E-019.8566432370E+01+
*       -4.965161097E+00               0
GRID*                534               04.5186564459E+005.4773172312E+01+
*       -3.063469510E+00               0
GRID*                535               05.2925715797E+005.4355398400E+01+
*       -3.714045725E+00               0
GRID*                536               04.1526473652E+005.3393559012E+01+
*       -2.706738603E+00               0
GRID*                537               04.9265624991E+005.2975785100E+01+
*       -3.357314819E+00               0
GRID*                538               02.0343673126E+006.0005832642E+01+
*       1.1483471680E+00               0
GRID*                539               02.7543039784E+006.1203415732E+01+
*       -4.520019126E-01               0
GRID*                540               01.0176686869E+005.8568158703E+01+
*       -1.525198719E-01               0
GRID*                541               04.0319242373E-016.0953604858E+01+
*       1.7534636935E-01               0
GRID*                542               01.7376053527E+005.9765741792E+01+
*       -1.752868953E+00               0
GRID*                543               02.9325518166E+005.9179691006E+01+
*       -3.205375822E+00               0
GRID*                544               02.2126151509E+005.7982107916E+01+
*       -1.605026742E+00               0
GRID*                545               06.9515910883E+005.8214140748E+01+
*       9.2415216522E-01               0
GRID*                546               02.8451293106E+007.6150286495E+01+
*       1.2888759367E+00               0
GRID*                547               05.6109414112E+007.4822116733E+01+
*       1.3266225086E+00               0
GRID*                548               04.7992178405E+007.4990155312E+01+
*       -2.949229052E-01               0
GRID*                549               04.6211657619E+007.7252521336E+01+
*       -5.236157355E-01               0
GRID*                550               05.4328893326E+007.7084482757E+01+
*       1.0979296783E+00               0
GRID*                551               02.2705669967E+007.5689490849E+01+
*       3.1363564865E+00               0
GRID*                552               03.0515666319E+007.4255333317E+01+
*       1.4418370409E+00               0
GRID*                553               0-6.998721323E-017.6136425435E+01+
*       -4.354794669E-02               0
GRID*                554               0-1.656704187E+007.5836208772E+01+
*       -1.688442726E+00               0
GRID*                555               01.4878520609E+007.4908884026E+01+
*       -1.845004011E+00               0
GRID*                556               05.3102000661E-017.4608667364E+01+
*       -3.489898791E+00               0
GRID*                557               03.6348233889E+007.8391721300E+01+
*       1.4062582501E+00               0
GRID*                558               05.0853985735E+007.9579740483E+01+
*       -1.890895924E+00               0
GRID*                559               0-1.686214505E+007.7275625398E+01+
*       1.8863260389E+00               0
GRID*                560               04.7250105301E-017.6996729392E+01+
*       3.4446850583E+00               0
GRID*                561               01.8587869375E+007.7289486458E+01+
*       3.2187499223E+00               0
GRID*                562               0-2.079820814E+005.5051851560E+01+
*       1.8998573796E+00               0
GRID*                563               0-2.896601591E+005.4444193250E+01+
*       2.7097028213E+00               0
GRID*                564               0-2.963631347E+005.4156017281E+01+
*       8.4182438834E-01               0
GRID*                565               0-2.206756988E+005.3438974556E+01+
*       1.7587489307E+00               0
GRID*                566               0-3.023537765E+005.2831316246E+01+
*       2.5685943724E+00               0
GRID*                567               0-6.584991736E-015.7211609468E+01+
*       3.0516797558E+00               0
GRID*                568               0-8.524651040E-015.5310556495E+01+
*       1.0426928739E+00               0
GRID*                569               0-1.952884640E+005.6664728564E+01+
*       2.0409658285E+00               0
GRID*                570               0-1.186212456E+005.9040856228E+01+
*       1.4622160199E+00               0
GRID*                571               0-8.579291987E-025.7686684159E+01+
*       4.6394306532E-01               0
GRID*                572               0-1.380178386E+005.7139803255E+01+
*       -5.467708620E-01               0
GRID*                573               0-1.069778595E+005.4160281300E+01+
*       -1.789876149E+00               0
GRID*                574               06.8752151103E-015.3071893697E+01+
*       -1.253257030E+00               0
GRID*                575               0-3.895504641E-015.3675287987E+01+
*       5.6859806593E-01               0
GRID*                576               0-1.524604689E+005.3026329352E+01+
*       7.7120257894E-02               0
GRID*                577               0-4.475327138E-015.2422935061E+01+
*       -1.744734838E+00               0
GRID*                578               02.3269541698E-015.1937941748E+01+
*       6.1373937720E-01               0
GRID*                579               06.8752411336E-015.3071893695E+01+
*       2.3584742148E+00               0
GRID*                580               0-1.069775993E+005.4160281299E+01+
*       1.8218550954E+00               0
GRID*                581               0-4.475301115E-015.2422935060E+01+
*       1.8669964067E+00               0
GRID*                582               0-1.584511107E+005.1701628316E+01+
*       1.8038902420E+00               0
GRID*                583               0-2.341385466E+005.2418671042E+01+
*       8.8696569961E-01               0
GRID*                584               0-3.643745894E+005.5700976670E+01+
*       2.9250661583E+00               0
GRID*                585               0-3.710775650E+005.5412800701E+01+
*       1.0571877252E+00               0
GRID*                586               0-4.527556427E+005.4805142391E+01+
*       1.8670331670E+00               0
GRID*                587               08.9377402237E-028.8501712998E+01+
*       5.7575387925E+00               0
GRID*                588               08.9377402237E-028.9091573258E+01+
*       5.8172808592E+00               0
GRID*                589               09.9677542094E-018.8827687609E+01+
*       5.9970612833E+00               0
GRID*                590               09.9677542094E-018.9417547869E+01+
*       6.0568033499E+00               0
GRID*                591               0-7.346221301E-011.1909278381E+02+
*       4.0975055332E+00               0
GRID*                592               0-7.344288564E-011.1909275847E+02+
*       5.9074810375E+00               0
GRID*                593               09.1241346554E-011.1924529961E+02+
*       5.9074602521E+00               0
GRID*                594               02.0521075514E+001.1894670623E+02+
*       7.2399953032E+00               0
GRID*                595               02.0741075227E+001.1917040275E+02+
*       4.9047562967E+00               0
GRID*                596               05.0148875306E-011.1684840682E+02+
*       7.7174651397E+00               0
GRID*                597               0-1.442842405E+001.1459263680E+02+
*       -8.795214199E-02               0
GRID*                598               01.0875647310E+001.1698773107E+02+
*       -1.672458432E-01               0
GRID*                599               01.4150989315E+001.1427027742E+02+
*       -4.041499591E-01               0
GRID*                600               0-2.330372830E+001.1954843815E+02+
*       1.3878476144E+00               0
GRID*                601               0-2.233956032E+001.1760265454E+02+
*       3.6752721699E+00               0
GRID*                602               0-1.299992874E+013.3029983579E+01+
*       -1.046578874E+00               0
GRID*                603               0-1.278208539E+013.3336142223E+01+
*       -1.913237806E+00               0
GRID*                604               0-1.246479646E+013.3820150147E+01+
*       -1.103025686E+00               0
GRID*                605               0-1.029067021E+013.3466690881E+01+
*       -1.798341844E+00               0
GRID*                606               0-1.080188034E+013.5094769714E+01+
*       -2.371100648E+00               0
GRID*                607               0-1.198471996E+013.4661862429E+01+
*       -1.161690443E+00               0
GRID*                608               0-1.078289902E+013.5018110886E+01+
*       1.2712828408E-01               0
GRID*                609               0-9.600059401E+003.5451018172E+01+
*       -1.082281920E+00               0
GRID*                610               0-1.129410915E+013.6646189720E+01+
*       -4.456305198E-01               0
GRID*                611               0-1.289319338E+013.3177558211E+01+
*       6.2150704520E-01               0
GRID*                612               0-1.237078988E+013.3973496112E+01+
*       5.6191603991E-01               0
GRID*                613               0-1.370755295E+013.2295812163E+01+
*       2.0708210006E+00               0
GRID*                614               0-1.228786940E+013.2152037548E+01+
*       8.6038231581E-01               0
GRID*                615               0-1.318514945E+013.3091750064E+01+
*       2.0112299953E+00               0
GRID*                616               0-8.859552725E+002.8672241415E+01+
*       6.6564763305E-01               0
GRID*                617               0-9.061609779E+003.0759012234E+01+
*       -1.850042913E-03               0
GRID*                618               0-8.862116367E+002.8672809113E+01+
*       -2.287059356E+00               0
GRID*                619               0-1.081172624E+013.0669567794E+01+
*       4.8962615903E-01               0
GRID*                620               0-1.201895808E+013.1807237324E+01+
*       -1.280268134E+00               0
GRID*                621               0-1.377765716E+013.1497138688E+01+
*       -8.591280782E-01               0
GRID*                622               0-1.323220891E+013.2723684960E+01+
*       -1.677915840E-01               0
GRID*                623               0-1.354537700E+013.1803437307E+01+
*       -1.737915368E+00               0
GRID*                624               0-1.404656848E+013.1841938912E+01+
*       1.2815223714E+00               0
GRID*                625               0-1.110502979E+013.2584944838E+01+
*       2.6587241719E+00               0
GRID*                626               0-1.029067022E+013.3466690886E+01+
*       1.2094102165E+00               0
GRID*                627               0-1.118795027E+013.4406403402E+01+
*       2.3602578960E+00               0
GRID*                628               0-1.217003966E+013.4318682734E+01+
*       -2.997413203E-01               0
GRID*                629               0-1.098720005E+013.4751590025E+01+
*       1.4986005358E+00               0
GRID*                630               01.7388072681E+011.8557428110E+01+
*       4.3548188079E+00               0
GRID*                631               01.7341073022E+011.7254430012E+01+
*       6.4723623409E+00               0
GRID*                632               01.9402916181E+011.8662333840E+01+
*       5.3824564670E+00               0
GRID*                633               01.7381669554E+012.0488601746E+01+
*       5.3824564670E+00               0
GRID*                634               01.5319826395E+011.9080697919E+01+
*       6.4723623409E+00               0
GRID*                635               02.1650417075E+011.9526627170E+01+
*       5.3824564670E+00               0
GRID*                636               02.2585968964E+011.6945637567E+01+
*       3.1059545799E+00               0
GRID*                637               02.4786470199E+011.6506932800E+01+
*       5.2234981130E+00               0
GRID*                638               02.2538969305E+011.5642639470E+01+
*       5.2234981130E+00               0
GRID*                639               02.2408728582E+011.3373163188E+01+
*       4.2635580808E+00               0
GRID*                640               01.9272675458E+011.6392857558E+01+
*       4.4225164348E+00               0
GRID*                641               02.1949958302E+011.7221451216E+01+
*       1.6324564670E+00               0
GRID*                642               02.1772717919E+011.3648976836E+01+
*       2.7900599678E+00               0
GRID*                643               03.7153939281E+003.6943445582E+01+
*       1.2005216284E+00               0
GRID*                644               03.7153939281E+003.6943445582E+01+
*       -1.133731151E+00               0
GRID*                645               04.0322562069E+003.8955240079E+01+
*       0.0000000000E+00               0
GRID*                646               04.6112674639E+003.7347315150E+01+
*       1.4067515443E-01               0
GRID*                647               04.2944051851E+003.5335520654E+01+
*       -9.930559966E-01               0
GRID*                648               01.9459549105E+012.1688228286E+01+
*       4.0240965305E-01               0
GRID*                649               01.8425502377E+011.9236666913E+01+
*       -1.292455163E+00               0
GRID*                650               01.8415869112E+011.7513770564E+01+
*       1.5700481175E+00               0
GRID*                651               01.6284004387E+011.9428756425E+01+
*       1.6128583066E+00               0
GRID*                652               01.6293637651E+012.1151652774E+01+
*       -1.249644974E+00               0
GRID*                653               01.0586302167E+013.2173658134E+01+
*       -1.488305271E+00               0
GRID*                654               01.2069346498E+013.2063224965E+01+
*       1.1143336516E+00               0
GRID*                655               01.0542098444E+013.0648017462E+01+
*       -3.482213742E-01               0
GRID*                656               01.0624515766E+013.0741885201E+01+
*       -2.668571777E+00               0
GRID*                657               01.2151763819E+013.2157092704E+01+
*       -1.206016751E+00               0
GRID*                658               01.2107560096E+013.0631452032E+01+
*       -6.593285389E-02               0
GRID*                659               01.0648904005E+013.2312458969E+01+
*       -2.697017652E+00               0
GRID*                660               01.2937569500E+013.2485504208E+01+
*       -2.895726979E+00               0
GRID*                661               01.1396496088E+013.4072643406E+01+
*       -3.206461375E+00               0
GRID*                662               01.1187950260E+013.4406403397E+01+
*       -2.360257884E+00               0
GRID*                663               01.2729023673E+013.2819264199E+01+
*       -2.049523488E+00               0
GRID*                664               01.3319948939E+013.3307524599E+01+
*       7.3923793161E-01               0
GRID*                665               01.3275745216E+013.1781883928E+01+
*       1.8793218286E+00               0
GRID*                666               01.3552229100E+013.3001225980E+01+
*       -1.395493585E-01               0
GRID*                667               01.3508025377E+013.1475585309E+01+
*       1.0005345385E+00               0
GRID*                668               01.1281956840E+013.4253057433E+01+
*       2.3124358899E+00               0
GRID*                669               01.0801880336E+013.5094769714E+01+
*       2.3711006476E+00               0
GRID*                670               01.2784816654E+013.4097691168E+01+
*       7.9568474319E-01               0
GRID*                671               01.0610690406E+013.3744231902E+01+
*       1.4910009012E+00               0
GRID*                672               01.2304740150E+013.4939403449E+01+
*       8.5434950093E-01               0
GRID*                673               02.0166013655E+003.8216640608E+01+
*       1.1608010688E+00               0
GRID*                674               02.0166013655E+003.8216640608E+01+
*       -1.173451711E+00               0
GRID*                675               09.0422108587E-013.6827686966E+01+
*       1.0392834279E+00               0
GRID*                676               02.9198759273E+003.7566286437E+01+
*       -1.215176408E-01               0
GRID*                677               01.2740612931E+013.2572050496E+01+
*       1.9357686402E+00               0
GRID*                678               01.0715645894E+013.5263706346E+01+
*       -2.304007283E+00               0
GRID*                679               01.0987200042E+013.4751590020E+01+
*       -1.498600523E+00               0
GRID*                680               01.0753208115E+013.5108120651E+01+
*       -1.597831092E-01               0
GRID*                681               09.2503483002E+003.5263486916E+01+
*       1.3569680375E+00               0
GRID*                682               01.0944398044E+013.6458658464E+01+
*       7.2031663721E-01               0
GRID*                683               01.8117693318E+007.1122832174E+01+
*       -2.552840595E+00               0
GRID*                684               01.9057204630E-017.0306828160E+01+
*       3.2623436872E-01               0
GRID*                685               02.2276845988E+006.9886058703E+01+
*       -6.332084571E-01               0
GRID*                686               03.1475811334E+007.1615240718E+01+
*       -1.769515345E+00               0
GRID*                687               01.5263838479E+007.0799236704E+01+
*       1.1095596191E+00               0
GRID*                688               03.8977535160E+007.3287461765E+01+
*       2.5159129289E+00               0
GRID*                689               03.2924672667E+007.1560547166E+01+
*       1.0473286192E+00               0
GRID*                690               05.0056551618E+007.3095202134E+01+
*       -1.419618011E-01               0
GRID*                691               05.8518420460E+007.2127330582E+01+
*       9.3211408696E-01               0
GRID*                692               03.1280946389E+001.1956631868E+02+
*       -3.141054988E+00               0
GRID*                693               01.9449609274E+001.1706636359E+02+
*       -5.402507085E+00               0
GRID*                694               01.2798580849E+001.1884362714E+02+
*       -4.071456321E+00               0
GRID*                695               03.1280837410E+001.1956631416E+02+
*       -4.951053541E+00               0
GRID*                696               01.2798471870E+001.1884362262E+02+
*       -5.881454874E+00               0
GRID*                697               01.5481198841E+007.2535308717E+01+
*       1.6656626141E+00               0
GRID*                698               02.1534061334E+007.4262223316E+01+
*       3.1342469238E+00               0
GRID*                699               07.6712024892E-017.3969466249E+01+
*       3.3601820598E+00               0
GRID*                700               02.8580077286E+012.5000000000E+00+
*       9.2224998474E+00               0
GRID*                701               03.0847066491E+012.5000000000E+00+
*       9.2224998474E+00               0
GRID*                702               02.9718884746E+012.5000000000E+00+
*       7.2561958882E+00               0
GRID*                703               01.6942893822E+007.3013930849E+01+
*       -1.692042907E+00               0
GRID*                704               06.8264672236E-043.8643844282E+01+
*       -1.210827242E+00               0
GRID*                705               09.0485115403E-013.6825216261E+01+
*       -1.051717928E+00               0
GRID*                706               03.4641093603E+007.1534116975E+01+
*       4.0002725206E+00               0
GRID*                707               02.3943067682E+007.1567437165E+01+
*       2.7397385022E+00               0
GRID*                708               01.7197619777E+007.2508878526E+01+
*       4.6186065154E+00               0
GRID*                709               03.2232087255E+007.4228903126E+01+
*       4.3947809422E+00               0
GRID*                710               02.3725707320E+006.9831365152E+01+
*       2.1836355072E+00               0
GRID*                711               06.2822334947E-017.0806126703E+01+
*       2.8019695021E+00               0
GRID*                712               0-4.722135017E+004.4616976702E+01+
*       1.9239360540E+00               0
GRID*                713               0-3.143025628E+004.4811905701E+01+
*       1.2472471417E+00               0
GRID*                714               0-4.641173990E+004.7153347121E+01+
*       5.4644214210E-01               0
GRID*                715               0-4.497345741E+004.6310591813E+01+
*       2.0721080868E+00               0
GRID*                716               0-2.918236351E+004.6505520812E+01+
*       1.3954191745E+00               0
GRID*                717               0-7.857939595E+004.8045120017E+01+
*       1.1541667556E+00               0
GRID*                718               0-7.986556466E+004.6410887833E+01+
*       2.4865655272E+00               0
GRID*                719               0-6.041754987E+004.8070734319E+01+
*       3.1508151414E+00               0
GRID*                720               0-7.679411202E+004.9157436213E+01+
*       3.0818508426E+00               0
GRID*                721               0-7.808028073E+004.7523204030E+01+
*       4.4142496142E+00               0
GRID*                722               0-8.131763086E+004.5256344691E+01+
*       1.7080106347E+00               0
GRID*                723               0-7.986556466E+004.6410887833E+01+
*       6.1156552722E-01               0
GRID*                724               0-5.283115884E+004.8278164047E+01+
*       -7.431555537E-02               0
GRID*                725               0-3.704006495E+004.8473093045E+01+
*       -7.510044677E-01               0
GRID*                726               0-6.846716266E+004.6433560640E+01+
*       -5.970511386E-01               0
GRID*                727               0-5.909548770E+004.7753306564E+01+
*       -1.894497748E+00               0
GRID*                728               0-5.267606877E+004.6628489639E+01+
*       -1.273740051E+00               0
GRID*                729               0-6.920772099E+004.9364865941E+01+
*       -1.432798542E-01               0
GRID*                730               0-8.484372481E+004.7520262535E+01+
*       -6.660154374E-01               0
GRID*                731               0-5.310969009E+004.8562727436E+01+
*       1.5076460745E+00               0
GRID*                732               0-5.446912323E+005.0848410718E+01+
*       2.3588920450E+00               0
GRID*                733               0-6.356226693E+004.9244101405E+01+
*       2.0743770249E+00               0
GRID*                734               0-5.132440617E+004.9675043633E+01+
*       3.4353301615E+00               0
GRID*                735               0-6.177698300E+005.0356417601E+01+
*       4.0020611119E+00               0
GRID*                736               01.5626702832E+012.8877956602E+01+
*       -3.286005112E+00               0
GRID*                737               01.6006337392E+012.9875890098E+01+
*       -2.036866031E+00               0
GRID*                738               01.6299843748E+012.9473730234E+01+
*       -3.505333485E+00               0
GRID*                739               01.5922934987E+012.9882422452E+01+
*       -4.215720035E+00               0
GRID*                740               01.5629428630E+013.0284582316E+01+
*       -2.747252581E+00               0
GRID*                741               01.6706750168E+012.9070629951E+01+
*       -6.127236283E+00               0
GRID*                742               01.4524959005E+012.8581796249E+01+
*       -6.127236283E+00               0
GRID*                743               01.6152196417E+012.9629505341E+01+
*       -5.081102577E+00               0
GRID*                744               01.4756946233E+012.9735504852E+01+
*       -6.453866294E+00               0
GRID*                745               01.4634035322E+013.0239710843E+01+
*       -3.360834903E+00               0
GRID*                746               01.4413893094E+012.7682779848E+01+
*       -3.045044057E+00               0
GRID*                747               01.3714731940E+012.8642374226E+01+
*       -4.588341302E+00               0
GRID*                748               01.4927541679E+012.9837550980E+01+
*       -4.829302357E+00               0
GRID*                749               01.4707399450E+012.7280619984E+01+
*       -4.513511511E+00               0
GRID*                750               01.3062425793E+013.0962312496E+01+
*       -3.645207702E+00               0
GRID*                751               01.3761586947E+013.0002718118E+01+
*       -2.101910457E+00               0
GRID*                752               01.2842283565E+012.8405381500E+01+
*       -3.329416856E+00               0
GRID*                753               01.3532291495E+012.9943550491E+01+
*       -6.202066074E+00               0
GRID*                754               01.3312149266E+012.7386619495E+01+
*       -5.886275228E+00               0
GRID*                755               01.5159528907E+013.0991259583E+01+
*       -5.155932367E+00               0
GRID*                756               01.4930267477E+013.1244176693E+01+
*       -4.290549826E+00               0
GRID*                757               0-4.494316692E+008.5736726942E+01+
*       -5.129148311E+00               0
GRID*                758               0-1.519318858E+008.5379957235E+01+
*       -5.770019369E+00               0
GRID*                759               0-1.950079742E+008.7190232221E+01+
*       -6.532700726E+00               0
GRID*                760               0-4.044507950E+008.7520367669E+01+
*       -4.161849037E+00               0
GRID*                761               0-1.069510116E+008.7163597961E+01+
*       -4.802720095E+00               0
GRID*                762               02.1910631914E-028.9460342106E+01+
*       2.4050897125E+00               0
GRID*                763               0-8.024593694E-018.6651523906E+01+
*       1.6254134067E+00               0
GRID*                764               0-1.455442032E+008.6898842366E+01+
*       2.7654873177E+00               0
GRID*                765               0-9.591063308E-018.7710152045E+01+
*       -3.272114254E+00               0
GRID*                766               01.3864786381E+008.6590297307E+01+
*       -2.539644746E+00               0
GRID*                767               01.0078103480E+008.5427595938E+01+
*       -2.409469341E+00               0
GRID*                768               0-2.600809430E-018.6516024344E+01+
*       -4.170214144E+00               0
GRID*                769               0-3.078146256E+008.3517760819E+01+
*       1.5963982282E+00               0
GRID*                770               0-1.647015062E+008.3427665513E+01+
*       1.2261853884E+00               0
GRID*                771               0-5.299838570E-028.5640692958E+01+
*       1.8338743893E+00               0
GRID*                772               0-1.484129580E+008.5730788264E+01+
*       2.2040872292E+00               0
GRID*                773               0-1.472636967E+008.3352380532E+01+
*       3.0109023323E+00               0
GRID*                774               0-1.410677483E-018.4331000643E+01+
*       -1.043938030E+00               0
GRID*                775               0-1.560706330E+008.2042688216E+01+
*       1.3308991274E-01               0
GRID*                776               0-4.677130362E+008.3992988969E+01+
*       4.9062809846E+00               0
GRID*                777               0-4.916565395E+008.2469377367E+01+
*       4.9062809846E+00               0
GRID*                778               0-4.935971816E+008.4751809919E+01+
*       1.5510725472E+00               0
GRID*                779               0-2.830797414E+008.5137347602E+01+
*       4.1447915626E+00               0
GRID*                780               0-3.070232447E+008.3613736000E+01+
*       4.1447915626E+00               0
GRID*                781               01.2134967246E+008.5608923420E+01+
*       -3.648712485E-01               0
GRID*                782               06.8474240056E-018.3946891752E+01+
*       1.8392769470E+00               0
GRID*                783               01.2998054561E+008.4223946123E+01+
*       -1.457966724E+00               0
GRID*                784               07.7105113210E-018.2561914455E+01+
*       7.4618147131E-01               0
GRID*                785               0-1.768535504E+008.8357725662E+01+
*       -3.904620205E+00               0
GRID*                786               0-6.908418263E-018.8326299330E+01+
*       -4.932895501E+00               0
GRID*                787               0-4.098139532E+008.9631390066E+01+
*       -2.530377639E+00               0
GRID*                788               0-3.147206298E+009.1270184893E+01+
*       -1.374064203E+00               0
GRID*                789               0-3.829875027E+009.0247537352E+01+
*       -4.191158886E+00               0
GRID*                790               0-8.176022702E-018.9996520489E+01+
*       -2.748306769E+00               0
GRID*                791               06.2867182507E-018.6561428600E+01+
*       1.2552005669E+00               0
GRID*                792               0-9.244046904E+004.0382915758E+01+
*       -5.915022917E+00               0
GRID*                793               0-9.086278018E+004.0998531223E+01+
*       -6.909596799E+00               0
GRID*                794               0-7.716098682E+001.1945239423E+02+
*       -8.473307402E+00               0
GRID*                795               0-7.166517247E+001.1808167444E+02+
*       -8.275000095E+00               0
GRID*                796               0-5.742823139E-019.4466257022E+01+
*       6.3582166352E+00               0
GRID*                797               0-4.085706039E-019.3922303676E+01+
*       6.9040877951E+00               0
GRID*                798               0-1.657117100E-019.4748558448E+01+
*       6.7669001605E+00               0
GRID*                799               0-4.292772504E-019.4777767585E+01+
*       6.8605145003E+00               0
GRID*                800               0-6.721361442E-019.3951512813E+01+
*       6.9977021349E+00               0
GRID*                801               0-1.297741292E+009.5812779698E+01+
*       6.8605145003E+00               0
GRID*                802               0-1.540600186E+009.4986524926E+01+
*       6.9977021349E+00               0
GRID*                803               02.5937800910E+008.6645257249E+01+
*       -2.883520376E+00               0
GRID*                804               09.4722050992E-018.6570984286E+01+
*       -4.514089774E+00               0
GRID*                805               01.3258888001E+008.7733685655E+01+
*       -4.644265179E+00               0
GRID*                806               01.1991283562E+008.9403906813E+01+
*       -2.459676447E+00               0
GRID*                807               0-8.173096764E-038.9348946871E+01+
*       -2.115800817E+00               0
GRID*                808               02.8081206461E+008.3237316134E+01+
*       -1.923064898E+00               0
GRID*                809               04.8720880636E+008.2290107327E+01+
*       -2.689895911E+00               0
GRID*                810               04.7183373465E+008.4554660093E+01+
*       -1.545730956E+00               0
GRID*                811               04.8290466514E+008.3147965088E+01+
*       1.1511709233E+00               0
GRID*                812               04.9827973684E+008.0883412321E+01+
*       7.0059678552E-03               0
GRID*                813               02.2793663221E+008.1575284466E+01+
*       2.8108329755E-01               0
GRID*                814               04.3002923274E+008.1485933420E+01+
*       3.3553191188E+00               0
GRID*                815               02.5482959949E+008.6109552158E+01+
*       -6.244070404E+00               0
GRID*                816               04.6728532503E+008.4018955002E+01+
*       -4.906280985E+00               0
GRID*                817               04.6577475085E+008.5698048441E+01+
*       -3.650351389E+00               0
GRID*                818               02.6088858329E+008.4966163810E+01+
*       -4.139449971E+00               0
GRID*                819               05.6898318747E-043.5413331253E+01+
*       -9.281940624E-01               0
GRID*                820               0-9.033317616E-013.6827700913E+01+
*       -1.051935295E+00               0
GRID*                821               01.4535561732E+008.1959393357E+01+
*       -2.602131680E+00               0
GRID*                822               0-1.484525691E+012.9920247201E+01+
*       3.7417146925E+00               0
GRID*                823               0-1.625697282E+012.9929625533E+01+
*       4.4253503087E+00               0
GRID*                824               0-1.451394488E+013.1279669833E+01+
*       2.9933318873E+00               0
GRID*                825               0-1.434010671E+013.0618181064E+01+
*       2.1139605702E+00               0
GRID*                826               0-1.608313465E+012.9268136764E+01+
*       3.5459789915E+00               0
GRID*                827               0-1.575182262E+013.0627559396E+01+
*       2.7975961863E+00               0
GRID*                828               0-1.526453108E+012.9845304520E+01+
*       5.0471974149E+00               0
GRID*                829               0-1.353522783E+012.9904246706E+01+
*       6.2103308580E+00               0
GRID*                830               0-1.485898160E+012.8629145087E+01+
*       6.3368665570E+00               0
GRID*                831               0-1.503478055E+012.7272192358E+01+
*       4.7186554787E+00               0
GRID*                832               0-1.371102679E+012.8547293977E+01+
*       4.5921197798E+00               0
GRID*                833               0-1.330547730E+012.7331134545E+01+
*       5.8817889218E+00               0
GRID*                834               0-1.648623425E+012.9676708423E+01+
*       5.2907328505E+00               0
GRID*                835               0-1.516248048E+013.0951810041E+01+
*       5.1641971516E+00               0
GRID*                836               0-1.493321905E+013.1204727152E+01+
*       4.2988146097E+00               0
GRID*                837               0-1.729421508E+012.8884582850E+01+
*       3.9145006579E+00               0
GRID*                838               0-1.807330193E+012.7839045110E+01+
*       2.3026118314E+00               0
GRID*                839               0-1.736737169E+012.7524665162E+01+
*       3.5618442875E+00               0
GRID*                840               0-1.740285932E+012.8788448276E+01+
*       4.7296716766E+00               0
GRID*                841               0-1.818194616E+012.7742910537E+01+
*       3.1177828501E+00               0
GRID*                842               0-1.634846923E+012.9996605886E+01+
*       2.9226809120E+00               0
GRID*                843               0-1.612873138E+013.0218867178E+01+
*       2.0872096365E+00               0
GRID*                844               0-1.678906488E+012.9582516713E+01+
*       2.2867465355E+00               0
GRID*                845               0-2.023575556E+007.7817501287E+01+
*       -1.101156613E+00               0
GRID*                846               02.1230808247E-017.2042900174E+01+
*       8.8233736371E-01               0
GRID*                847               0-1.881736508E+007.1896809438E+01+
*       -7.647751672E-01               0
GRID*                848               0-5.410174538E+007.5938033320E+01+
*       -1.604949379E+00               0
GRID*                849               0-5.568877945E+007.5118261699E+01+
*       -3.747676627E+00               0
GRID*                850               0-3.292538520E+007.7907716386E+01+
*       3.2121740497E+00               0
GRID*                851               0-1.502966325E+007.9868039044E+01+
*       2.9651459127E+00               0
GRID*                852               0-1.728851201E+007.6636402343E+01+
*       3.7741066310E+00               0
GRID*                853               0-3.249901824E+007.8546939441E+01+
*       1.3243934575E+00               0
GRID*                854               0-4.275171052E+003.4458250671E+01+
*       -1.120852142E-01               0
GRID*                855               0-3.536758162E+003.5142377997E+01+
*       9.9066464618E-01               0
GRID*                856               0-4.451865831E+003.6423517548E+01+
*       -9.501526101E-01               0
GRID*                857               0-5.190278721E+003.5739390222E+01+
*       0.0000000000E+00               0
GRID*                858               0-4.451865831E+003.6423517548E+01+
*       1.1027498604E+00               0
GRID*                859               0-5.137789714E+007.9663035343E+01+
*       1.5588876626E+00               0
GRID*                860               0-5.321037894E+007.7070621697E+01+
*       4.8006778881E-01               0
GRID*                861               0-5.262974129E+007.7808391734E+01+
*       2.3257663759E+00               0
GRID*                862               0-5.079725949E+008.0400805380E+01+
*       3.4045862498E+00               0
GRID*                863               0-5.305610825E+007.7169168679E+01+
*       4.2135469681E+00               0
GRID*                864               0-5.416315948E+007.5859999314E+01+
*       2.1367929763E+00               0
GRID*                865               0-5.458952644E+007.5220776259E+01+
*       4.0245735685E+00               0
GRID*                866               0-5.541726669E+007.4169032618E+01+
*       2.1391555507E+00               0
GRID*                867               0-3.464796466E+007.6698876697E+01+
*       -1.678767504E+00               0
GRID*                868               0-3.623499872E+007.5879105076E+01+
*       -3.821494753E+00               0
GRID*                869               0-5.441821000E+007.6682384222E+01+
*       -3.529290466E+00               0
GRID*                870               0-1.865229921E+011.7246509559E+01+
*       -1.431644861E+00               0
GRID*                871               0-1.950867315E+011.6126118042E+01+
*       -4.284074836E+00               0
GRID*                872               0-1.762311308E+011.8291503967E+01+
*       -4.217662326E+00               0
GRID*                873               02.7007350869E+014.6085863651E+00+
*       -5.775000095E+00               0
GRID*                874               02.5589352554E+014.7941966920E+00+
*       -5.195648602E+00               0
GRID*                875               02.5085414899E+016.6362977951E+00+
*       -5.195648602E+00               0
GRID*                876               02.6503413213E+016.4506874682E+00+
*       -5.775000095E+00               0
GRID*                877               0-2.283726883E+011.9068771009E+01+
*       -2.981302446E+00               0
GRID*                878               0-2.181264476E+012.2210080903E+01+
*       -3.813992960E+00               0
GRID*                879               0-2.472786825E+012.1847198755E+01+
*       -3.808050988E+00               0
GRID*                880               0-2.218602305E+011.9439332434E+01+
*       -1.493622209E+00               0
GRID*                881               0-2.407662247E+012.2217760180E+01+
*       -2.320370751E+00               0
GRID*                882               0-2.188880093E+011.9251005252E+01+
*       -5.243622209E+00               0
GRID*                883               0-2.377940036E+012.2029432998E+01+
*       -6.070370751E+00               0
GRID*                884               0-1.981679044E+012.1042496806E+01+
*       -5.243622209E+00               0
GRID*                885               0-2.170738987E+012.3820924552E+01+
*       -6.070370751E+00               0
GRID*                886               0-1.761773430E+012.0221762356E+01+
*       -5.243622209E+00               0
GRID*                887               0-1.531880204E+011.9081613166E+01+
*       -6.474040117E+00               0
GRID*                888               0-1.963898093E+011.8395494450E+01+
*       -5.243622209E+00               0
GRID*                889               0-1.734004867E+011.7255345260E+01+
*       -6.474040117E+00               0
GRID*                890               03.6567520190E+014.9384419184E+00+
*       -1.383202792E+00               0
GRID*                891               03.3287103701E+016.2536327482E+00+
*       -1.383202792E+00               0
GRID*                892               03.5830415726E+016.0485240996E+00+
*       3.7751414372E-12               0
GRID*                893               03.7437802827E+016.7687744045E+00+
*       -6.032441632E-01               0
GRID*                894               03.4894490802E+016.9738830532E+00+
*       -1.986446955E+00               0
GRID*                895               03.4157386338E+018.0839652344E+00+
*       -6.032441632E-01               0
GRID*                896               0-3.506148718E+011.5169942384E+01+
*       -3.817049884E+00               0
GRID*                897               0-3.677444778E+011.3970514889E+01+
*       -3.891156651E+00               0
GRID*                898               0-3.579767946E+011.4654456071E+01+
*       -2.016156651E+00               0
GRID*                899               0-3.534875043E+011.1418523295E+01+
*       -2.952276838E+00               0
GRID*                900               0-3.334071750E+011.0684261321E+01+
*       -2.409396880E+00               0
GRID*                901               0-3.328655584E+011.2407024152E+01+
*       -3.489433344E+00               0
GRID*                902               0-3.392229401E+011.2131315501E+01+
*       -2.016156651E+00               0
GRID*                903               0-3.397645566E+011.0408552670E+01+
*       -9.361201869E-01               0
GRID*                904               0-5.298686422E+003.1324226847E+01+
*       1.0292140612E+00               0
GRID*                905               0-3.636087251E+003.1580598569E+01+
*       1.0516437204E+00               0
GRID*                906               0-5.298686422E+003.1324226847E+01+
*       -7.546586624E-01               0
GRID*                907               0-6.685261726E+003.2664367676E+01+
*       0.0000000000E+00               0
GRID*                908               0-5.022662554E+003.2920739398E+01+
*       2.2429659258E-02               0
GRID*                909               0-1.955959838E+003.1666353693E+01+
*       1.0591464409E+00               0
GRID*                910               0-2.809599510E+003.0081656546E+01+
*       1.6066476154E+00               0
GRID*                911               0-3.636087251E+003.1580598569E+01+
*       -7.770883217E-01               0
GRID*                912               0-3.360063383E+003.3177111120E+01+
*       0.0000000000E+00               0
GRID*                913               0-8.534097097E+002.6110764306E+01+
*       7.5785098857E-01               0
GRID*                914               0-7.373222617E+002.8132378753E+01+
*       6.0082092216E-01               0
GRID*                915               0-7.247260402E+002.7657104765E+01+
*       2.9782335907E+00               0
GRID*                916               0-5.591869602E+002.4233680894E+01+
*       1.5686083038E+00               0
GRID*                917               0-5.717831817E+002.4708954882E+01+
*       -8.088043648E-01               0
GRID*                918               0-4.430995122E+002.6255295341E+01+
*       1.4115782374E+00               0
GRID*                919               03.7437802827E+011.1502107674E+01+
*       -6.032441632E-01               0
GRID*                920               03.5830415726E+011.2660672343E+01+
*       2.5415689988E-12               0
GRID*                921               03.4157386338E+019.9627802079E+00+
*       -6.032441632E-01               0
GRID*                922               03.5450211069E+011.0953751855E+01+
*       8.0738667164E-01               0
GRID*                923               03.7123240456E+011.3651643990E+01+
*       1.4106308349E+00               0
GRID*                924               03.3842823968E+011.2112316524E+01+
*       1.4106308349E+00               0
GRID*                925               0-4.999248520E+002.9831402615E+01+
*       1.5478794615E+00               0
GRID*                926               0-6.086385922E+002.9678719212E+01+
*       0.0000000000E+00               0
GRID*                927               0-4.430995122E+002.6255295341E+01+
*       -1.409625287E+00               0
GRID*                928               0-4.999248520E+002.9831402615E+01+
*       -1.273324063E+00               0
GRID*                929               0-3.343857720E+002.6407978744E+01+
*       1.3825417462E-01               0
GRID*                930               0-5.975172208E-012.8458029578E+01+
*       -4.172186879E-01               0
GRID*                931               0-2.808684896E+003.0081544621E+01+
*       -1.332253512E+00               0
GRID*                932               0-1.700943443E+002.8360570974E+01+
*       1.1895902227E+00               0
GRID*                933               0-5.984318345E-012.8458141503E+01+
*       2.5216824393E+00               0
GRID*                934               0-1.706173288E+003.0179115149E+01+
*       -1.612951684E-04               0
GRID*                935               04.9416033855E+002.9860592740E+01+
*       -1.497861021E+00               0
GRID*                936               03.5785251774E+003.1609780630E+01+
*       -1.001624652E+00               0
GRID*                937               05.2410412879E+003.1353416972E+01+
*       -9.791956207E-01               0
GRID*                938               01.8985061459E+003.1695543818E+01+
*       8.3460948261E-01               0
GRID*                939               01.6802104739E+003.3262858180E+01+
*       7.5033482150E-03               0
GRID*                940               02.7505391212E+003.0110874449E+01+
*       -1.556686469E+00               0
GRID*                941               08.5222441770E-013.1763951999E+01+
*       -5.475584683E-01               0
GRID*                942               05.6698523746E+002.4690585504E+01+
*       9.0228983583E-01               0
GRID*                943               04.4290474253E+002.6255346242E+01+
*       1.4112502329E+00               0
GRID*                944               07.3271218698E+002.8113595269E+01+
*       2.3125821455E+00               0
GRID*                945               07.3271563704E+002.8113776871E+01+
*       -5.087908880E-01               0
GRID*                946               04.4290819259E+002.6255527845E+01+
*       -1.410122801E+00               0
GRID*                947               06.0863514211E+002.9678537610E+01+
*       1.6950912413E-04               0
GRID*                948               08.5395136407E+002.6083119526E+01+
*       -6.979208973E-01               0
GRID*                949               07.2987431920E+002.7648061867E+01+
*       -3.010333534E+00               0
GRID*                950               05.6414391963E+002.4224870500E+01+
*       -1.599252810E+00               0
GRID*                951               01.7032772754E+003.0179187860E+01+
*       1.4868389504E-04               0
GRID*                952               02.7495590036E+003.0110779679E+01+
*       1.3823166348E+00               0
GRID*                953               03.5785251774E+003.1609780630E+01+
*       8.2710613440E-01               0
GRID*                954               04.9415688849E+002.9860411137E+01+
*       1.3235120124E+00               0
GRID*                955               05.2410412879E+003.1353416972E+01+
*       8.0467710291E-01               0
GRID*                956               03.2842993898E+002.6437401372E+01+
*       -8.678029724E-02               0
GRID*                957               01.6410010813E+002.4784696204E+01+
*       1.0527914849E+00               0
GRID*                958               02.1535225409E+002.8389761099E+01+
*       9.6505326441E-01               0
GRID*                959               03.2982705764E+002.8207705969E+01+
*       2.4630837946E+00               0
GRID*                960               05.0228778859E+004.4693254082E+01+
*       1.9129110209E+00               0
GRID*                961               03.0592889535E+004.6264866252E+01+
*       1.1655328737E+00               0
GRID*                962               05.3077587374E+004.5295354831E+01+
*       1.5735877541E-01               0
GRID*                963               05.2476671624E+004.2999638971E+01+
*       1.7647389881E+00               0
GRID*                964               03.2840782300E+004.4571251141E+01+
*       1.0173608409E+00               0
GRID*                965               04.1479458569E+004.9185475618E+01+
*       7.0744921474E-01               0
GRID*                966               02.4858247652E+005.0098277747E+01+
*       6.0805831730E-01               0
GRID*                967               01.6820487131E+004.7779769131E+01+
*       -6.894102693E-01               0
GRID*                968               02.9345362815E+004.7849999233E+01+
*       1.3042140351E+00               0
GRID*                969               03.7383123335E+005.0168507849E+01+
*       2.6016826217E+00               0
GRID*                970               01.2724151897E+004.8762801362E+01+
*       1.2048231377E+00               0
GRID*                971               01.6723004805E+004.7050718225E+01+
*       1.2342860121E+00               0
GRID*                972               01.0179388728E-024.7963520355E+01+
*       1.1348951146E+00               0
GRID*                973               02.9345362815E+004.7849999233E+01+
*       -1.894233407E+00               0
GRID*                974               01.2724151897E+004.8762801362E+01+
*       -1.993624304E+00               0
GRID*                975               03.9919519820E+004.8763696852E+01+
*       -1.333526883E+00               0
GRID*                976               03.5823184585E+004.9746729083E+01+
*       -2.637740918E+00               0
GRID*                977               02.3298308902E+004.9676498982E+01+
*       -1.432917781E+00               0
GRID*                978               01.6722108617E+004.7050719008E+01+
*       -1.824305452E+00               0
GRID*                979               01.0089769939E-024.7963521138E+01+
*       -1.923696350E+00               0
GRID*                980               04.4643471462E+004.6323973080E+01+
*       -2.343901874E+00               0
GRID*                981               05.1121293233E+004.8220702930E+01+
*       -3.087409385E+00               0
GRID*                982               04.6936746509E+004.7108433851E+01+
*       1.9132721267E-01               0
GRID*                983               05.8138519922E+004.6565439929E+01+
*       -1.562555289E+00               0
GRID*                984               05.3414568280E+004.9005163702E+01+
*       -5.521802988E-01               0
GRID*                985               06.4279360787E+004.4752360909E+01+
*       -1.596523726E+00               0
GRID*                986               06.6572635833E+004.5536821681E+01+
*       9.3870535990E-01               0
GRID*                987               01.6721446862E+004.5357674396E+01+
*       1.0861639572E+00               0
GRID*                988               01.0023594413E-024.6270476526E+01+
*       9.8677305978E-01               0
GRID*                989               04.4087937995E+004.6506333102E+01+
*       1.9468794582E+00               0
GRID*                990               03.4982017144E+011.5150943407E+01+
*       3.2115240685E+00               0
GRID*                991               03.3689192413E+011.6068678390E+01+
*       1.8008932336E+00               0
GRID*                992               03.3842823968E+011.4021023155E+01+
*       1.4106308349E+00               0
GRID*                993               03.3192188041E+011.4391369968E+01+
*       2.8978122013E+00               0
GRID*                994               03.3038556486E+011.6439025203E+01+
*       3.2880746000E+00               0
GRID*                995               03.5718209422E+011.4635457094E+01+
*       1.4106308349E+00               0
GRID*                996               03.6694977746E+011.3951515912E+01+
*       3.2856308349E+00               0
GRID*                997               03.3764762273E+011.3609512951E+01+
*       5.1606308349E+00               0
GRID*                998               03.2903193757E+011.1225399675E+01+
*       5.1606308349E+00               0
GRID*                999               03.6266715035E+011.1354835945E+01+
*       5.1606308349E+00               0
GRID*               1000               03.6266715035E+011.4251387833E+01+
*       5.1606308349E+00               0
GRID*               1001               03.3611130719E+011.5657168186E+01+
*       5.5508932336E+00               0
GRID*               1002               03.1821301616E+011.4897594747E+01+
*       5.2371813664E+00               0
GRID*               1003               0-3.549352515E+001.0765045985E+02+
*       -2.849575902E+00               0
GRID*               1004               0-4.672758992E+001.0723963106E+02+
*       -5.259509124E+00               0
GRID*               1005               0-2.138218354E+001.0623423286E+02+
*       -5.090066778E+00               0
GRID*               1006               0-3.265393554E+001.0503879280E+02+
*       -1.351996253E+00               0
GRID*               1007               0-4.388800030E+001.0462796400E+02+
*       -3.761929475E+00               0
GRID*               1008               03.7069813886E+009.9943748598E+01+
*       -5.000000000E+00               0
GRID*               1009               01.0154776793E+009.9362606885E+01+
*       -5.777993010E+00               0
GRID*               1010               02.9115260186E+009.8010418651E+01+
*       -3.277993010E+00               0
GRID*               1011               03.5419315701E+001.0049180986E+02+
*       -3.022912276E+00               0
GRID*               1012               08.5042786078E-019.9910668151E+01+
*       -3.800905286E+00               0
GRID*               1013               0-1.481422789E-019.8051764899E+01+
*       -5.777993010E+00               0
GRID*               1014               0-1.073467112E+009.9188920330E+01+
*       -6.687168087E+00               0
GRID*               1015               0-1.470299788E+012.8721052683E+01+
*       -3.574365333E+00               0
GRID*               1016               0-1.539225991E+012.8040703952E+01+
*       -3.516007802E+00               0
GRID*               1017               0-1.741715234E+012.8692149909E+01+
*       -3.940531443E+00               0
GRID*               1018               03.7808888606E+001.0551556144E+02+
*       -3.281134519E+00               0
GRID*               1019               02.5330662155E+001.0764206258E+02+
*       -2.848289021E+00               0
GRID*               1020               03.4983564576E+001.0291116746E+02+
*       -1.783254595E+00               0
GRID*               1021               02.2505338125E+001.0503766861E+02+
*       -1.350409097E+00               0
GRID*               1022               0-9.773768058E-011.0698806967E+02+
*       -5.090066778E+00               0
GRID*               1023               0-8.676082162E-011.0530788785E+02+
*       -5.090066778E+00               0
GRID*               1024               06.2793100557E-011.0657105769E+02+
*       -5.090066778E+00               0
GRID*               1025               01.8757536506E+001.0444455655E+02+
*       -5.522912276E+00               0
GRID*               1026               0-2.443674743E-019.9678454621E+01+
*       -7.356173886E-01               0
GRID*               1027               02.4471362350E+001.0025959633E+02+
*       4.2375621801E-02               0
GRID*               1028               03.5001350971E+001.0295198919E+02+
*       -5.522912276E+00               0
GRID*               1029               02.4035611225E+001.0267895393E+02+
*       1.2820333022E+00               0
GRID*               1030               0-2.623218489E-011.0514794742E+02+
*       3.5396262014E+00               0
GRID*               1031               0-4.153491589E-011.0750666210E+02+
*       9.0718380197E-01               0
GRID*               1032               02.8499965315E+001.0589926905E+02+
*       2.2369082600E+00               0
GRID*               1033               0-3.573301293E+001.0156805587E+02+
*       -2.949097562E+00               0
GRID*               1034               0-2.030135022E+001.0432380359E+02+
*       -5.090066778E+00               0
GRID*               1035               0-7.997787518E+001.1974772454E+02+
*       1.5480328906E+00               0
GRID*               1036               0-5.005481683E+001.1885703834E+02+
*       2.1627996732E+00               0
GRID*               1037               0-6.822012567E+001.1894899507E+02+
*       3.5084746860E-01               0
GRID*               1038               0-6.912792526E+001.2089155896E+02+
*       -1.036984265E+00               0
GRID*               1039               0-5.096261641E+001.2079960224E+02+
*       7.7496793951E-01               0
GRID*               1040               0-3.920486691E+001.2000087277E+02+
*       -4.222174825E-01               0
GRID*               1041               0-7.555873037E+001.1839127973E+02+
*       -1.423832393E+00               0
GRID*               1042               0-4.654347160E+001.1944315743E+02+
*       -2.196897344E+00               0
GRID*               1043               0-4.563567202E+001.1750059354E+02+
*       -8.090656100E-01               0
GRID*               1044               0-7.941521235E+001.1963519331E+02+
*       4.4197088323E+00               0
GRID*               1045               0-8.176440076E+001.2177571978E+02+
*       5.4547212443E+00               0
GRID*               1046               0-6.416175475E+001.2179629428E+02+
*       4.3949975073E+00               0
GRID*               1047               0-8.243129910E+001.2021571575E+02+
*       3.2335783492E+00               0
GRID*               1048               0-8.478048751E+001.2235624222E+02+
*       4.2685907612E+00               0
GRID*               1049               0-5.964879043E+001.1701381539E+02+
*       9.0386262602E-01               0
GRID*               1050               0-6.698739512E+001.1645610005E+02+
*       -8.708172352E-01               0
GRID*               1051               0-8.478100319E+001.2235630938E+02+
*       2.4586013794E+00               0
GRID*               1052               0-6.416227043E+001.2179636144E+02+
*       2.5850081255E+00               0
GRID*               1053               0-8.232757927E+001.2188831816E+02+
*       7.7305592086E-01               0
GRID*               1054               0-6.150841084E+001.1748403603E+02+
*       2.9399230894E+00               0
GRID*               1055               0-7.326616035E+001.1828276550E+02+
*       4.1371085114E+00               0
GRID*               1056               0-7.140653993E+001.1781254485E+02+
*       2.1010480481E+00               0
GRID*               1057               0-3.506147781E+001.2034716762E+02+
*       2.5850330365E+00               0
GRID*               1058               0-3.505954507E+001.2034714228E+02+
*       4.3950085408E+00               0
GRID*               1059               0-5.096207371E+001.2079957972E+02+
*       2.5849605850E+00               0
GRID*               1060               01.9000748569E+008.9388561292E+01+
*       -5.508012534E+00               0
GRID*               1061               02.3501016662E+009.1202777533E+01+
*       -6.763942130E+00               0
GRID*               1062               02.9832170622E+008.9602861837E+01+
*       -6.244070404E+00               0
GRID*               1063               02.0800918923E+008.8690041726E+01+
*       -6.244070404E+00               0
GRID*               1064               01.4469764962E+009.0289957421E+01+
*       -6.763942130E+00               0
GRID*               1065               04.4827030792E+008.7922198648E+01+
*       -6.244070404E+00               0
GRID*               1066               01.5041559851E+009.2614712585E+01+
*       -2.032857071E+00               0
GRID*               1067               02.8382178819E+009.0999451369E+01+
*       -4.561321433E+00               0
GRID*               1068               05.6601296009E-019.1003822509E+01+
*       -2.979548172E+00               0
GRID*               1069               02.2051024858E+009.2599367065E+01+
*       -5.081193158E+00               0
GRID*               1070               01.2665951265E+008.8445277706E+01+
*       -5.880913442E+00               0
GRID*               1071               05.9293673560E-028.8390317764E+01+
*       -5.537037812E+00               0
GRID*               1072               06.3347973041E-019.0045193402E+01+
*       -6.400785167E+00               0
GRID*               1073               06.9277340397E-018.9333601351E+01+
*       -5.164136905E+00               0
GRID*               1074               0-6.895670929E+006.0923622530E+01+
*       -2.910167830E+00               0
GRID*               1075               0-6.326893741E+006.3168331035E+01+
*       -3.070773075E+00               0
GRID*               1076               0-4.811660140E+006.1177823062E+01+
*       -2.276912455E+00               0
GRID*               1077               0-4.771434223E+005.9721001074E+01+
*       -3.631064137E+00               0
GRID*               1078               0-6.286667825E+006.1711509047E+01+
*       -4.424924757E+00               0
GRID*               1079               0-4.202657035E+006.1965709579E+01+
*       -3.791669382E+00               0
GRID*               1080               0-7.133849973E+005.7897271017E+01+
*       -9.502112021E-01               0
GRID*               1081               0-7.054945208E+005.8899851058E+01+
*       -2.884799368E+00               0
GRID*               1082               0-7.214951844E+005.6866774106E+01+
*       -2.801386133E+00               0
GRID*               1083               0-6.966478218E+005.8278880528E+01+
*       1.1778486040E+00               0
GRID*               1084               0-5.213065572E+005.9314724067E+01+
*       1.1752595252E-02               0
GRID*               1085               0-6.974607248E+005.9920641561E+01+
*       -1.011983940E+00               0
GRID*               1086               0-6.807235493E+006.0302251072E+01+
*       1.1160758659E+00               0
GRID*               1087               0-3.112366244E+001.0268007812E+02+
*       1.2804461465E+00               0
GRID*               1088               0-3.155893493E+001.0025959633E+02+
*       4.2375621801E-02               0
GRID*               1089               04.1758090990E+001.0756805862E+02+
*       -5.258222244E+00               0
GRID*               1090               0-1.856894334E+003.8458646579E+01+
*       1.2808005833E+00               0
GRID*               1091               0-1.856253208E+003.7292843006E+01+
*       6.9973304212E-02               0
GRID*               1092               03.0539821331E-043.8643844711E+01+
*       1.1981766373E+00               0
GRID*               1093               0-2.761189718E+003.6640022604E+01+
*       1.1216916065E+00               0
GRID*               1094               0-9.039899852E-013.6825220735E+01+
*       1.0390676604E+00               0
GRID*               1095               0-3.114097020E+001.0271977566E+02+
*       5.0423756218E+00               0
GRID*               1096               0-1.628517981E+001.0431332671E+02+
*       5.0423756218E+00               0
GRID*               1097               0-4.032126966E+001.0506577253E+02+
*       3.7380705247E+00               0
GRID*               1098               0-3.155893493E+001.0025959633E+02+
*       2.5423756218E+00               0
GRID*               1099               02.4471362350E+001.0025959633E+02+
*       2.5423756218E+00               0
GRID*               1100               02.9115260186E+009.8010418651E+01+
*       -7.779930104E-01               0
GRID*               1101               0-2.691503709E+009.8010418651E+01+
*       -7.779930104E-01               0
GRID*               1102               0-2.665930835E+001.0590039324E+02+
*       2.2353211043E+00               0
GRID*               1103               0-1.182082572E+001.0753364183E+02+
*       5.9972505796E+00               0
GRID*               1104               05.3302881275E+007.8388154595E+01+
*       2.9958315698E+00               0
GRID*               1105               05.5220259766E+007.5951894380E+01+
*       3.1829468457E+00               0
GRID*               1106               05.1477744930E+008.0243143060E+01+
*       5.2906208946E+00               0
GRID*               1107               03.4743392468E+007.7837236381E+01+
*       5.2052106753E+00               0
GRID*               1108               05.3395123422E+007.7806882845E+01+
*       5.4777361704E+00               0
GRID*               1109               01.9681037715E+007.6673836513E+01+
*       4.3025648489E+00               0
GRID*               1110               01.7003782776E-017.7981075055E+01+
*       4.6108934207E+00               0
GRID*               1111               05.8181788695E-017.6381079446E+01+
*       4.5284999849E+00               0
GRID*               1112               03.5322221838E+007.9695393138E+01+
*       3.3041601416E+00               0
GRID*               1113               03.2608594030E+007.5590241626E+01+
*       -1.868155170E+00               0
GRID*               1114               05.8486194250E+007.6524437888E+01+
*       -2.059101428E+00               0
GRID*               1115               06.0266715036E+007.4262071864E+01+
*       -1.830408598E+00               0
GRID*               1116               09.5995797119E+002.2991575351E+01+
*       -4.335724767E+00               0
GRID*               1117               01.1271327557E+012.2664131820E+01+
*       -3.173312894E+00               0
GRID*               1118               01.0182848307E+012.5289960991E+01+
*       -2.037051670E+00               0
GRID*               1119               08.3331011706E+002.3561518025E+01+
*       -1.599425258E+00               0
GRID*               1120               01.0004849015E+012.3234074495E+01+
*       -4.370133850E-01               0
GRID*               1121               08.3615143490E+002.4027233030E+01+
*       9.0211738794E-01               0
GRID*               1122               07.1504241901E+002.5625145023E+01+
*       -5.620287107E+00               0
GRID*               1123               07.1075576072E+002.7173847491E+01+
*       -6.634325743E+00               0
GRID*               1124               05.4610671526E+002.3880442734E+01+
*       -6.485961364E+00               0
GRID*               1125               05.6894303897E+002.5365211907E+01+
*       -5.620287107E+00               0
GRID*               1126               05.6465638068E+002.6913914375E+01+
*       -6.634325743E+00               0
GRID*               1127               01.2022286784E+012.7843918616E+01+
*       -1.630461527E+00               0
GRID*               1128               01.0350538940E+012.8171362146E+01+
*       -2.792873400E+00               0
GRID*               1129               01.0378952118E+012.8637077151E+01+
*       -2.913307540E-01               0
GRID*               1130               0-3.305071999E+011.6967162437E+01+
*       6.6251396734E-01               0
GRID*               1131               0-3.418991317E+011.6169490055E+01+
*       2.4634072009E+00               0
GRID*               1132               0-3.492610545E+011.5654003742E+01+
*       6.6251396734E-01               0
GRID*               1133               08.7850772883E+002.8187927576E+01+
*       -3.075161920E+00               0
GRID*               1134               08.8134904667E+002.8653642581E+01+
*       -5.736192743E-01               0
GRID*               1135               09.6388886702E+002.3451560194E+01+
*       3.6336339456E+00               0
GRID*               1136               01.0654173550E+012.2048018179E+01+
*       6.4818230714E+00               0
GRID*               1137               07.0357850065E+002.4440322449E+01+
*       3.6384125142E+00               0
GRID*               1138               08.0510698859E+002.3036780434E+01+
*       6.4866016401E+00               0
GRID*               1139               07.1502789193E+002.5625180073E+01+
*       5.6209273828E+00               0
GRID*               1140               07.1075576072E+002.7173847491E+01+
*       6.6343257427E+00               0
GRID*               1141               05.4609218818E+002.3880477784E+01+
*       6.4866016401E+00               0
GRID*               1142               05.6465638068E+002.6913914375E+01+
*       6.6343257427E+00               0
GRID*               1143               07.2214269315E+002.7473759039E+01+
*       3.7861366169E+00               0
GRID*               1144               04.3233524870E+002.5615510013E+01+
*       2.8848047044E+00               0
GRID*               1145               0-1.464723158E+008.3448355712E+01+
*       5.5592956666E+00               0
GRID*               1146               0-1.225288126E+008.4971967315E+01+
*       5.5592956666E+00               0
GRID*               1147               06.0689854243E-028.4329706910E+01+
*       4.9103888831E+00               0
GRID*               1148               0-2.015763290E+012.0526679263E+01+
*       -7.669094300E-03               0
GRID*               1149               0-1.888788676E+011.8341535664E+01+
*       1.5479304638E+00               0
GRID*               1150               0-1.651771010E+011.9163554830E+01+
*       -1.479471616E+00               0
GRID*               1151               0-1.675329765E+012.0258580935E+01+
*       1.5001037080E+00               0
GRID*               1152               0-8.052589147E+002.3036405958E+01+
*       -6.485664914E+00               0
GRID*               1153               0-1.064963405E+012.2050405462E+01+
*       -6.484252569E+00               0
GRID*               1154               0-9.383085102E+002.2621305408E+01+
*       -3.746480105E+00               0
GRID*               1155               0-7.151798181E+002.5624805598E+01+
*       -5.619990657E+00               0
GRID*               1156               0-7.107557607E+002.7173847491E+01+
*       -6.634325743E+00               0
GRID*               1157               0-5.462441143E+002.3880103309E+01+
*       -6.485664914E+00               0
GRID*               1158               0-5.646563807E+002.6913914375E+01+
*       -6.634325743E+00               0
GRID*               1159               0-5.690804380E+002.5364872482E+01+
*       -5.619990657E+00               0
GRID*               1160               0-7.267493178E+002.7492360921E+01+
*       -3.694106583E+00               0
GRID*               1161               0-4.325265683E+002.5615277509E+01+
*       -2.883349267E+00               0
GRID*               1162               0-7.083370514E+002.4458549855E+01+
*       -3.545445754E+00               0
GRID*               1163               02.9809885136E-038.0771374173E+01+
*       6.9502249410E-01               0
GRID*               1164               0-3.343800618E-018.1313250062E+01+
*       -2.292460158E+00               0
GRID*               1165               06.9809736638E+001.1845876599E+02+
*       -8.082586017E-01               0
GRID*               1166               06.1815361927E+001.1746766867E+02+
*       -4.166870577E+00               0
GRID*               1167               05.5164333502E+001.1924493223E+02+
*       -2.835819812E+00               0
GRID*               1168               01.2242103465E+001.1937226018E+02+
*       -1.580941298E+00               0
GRID*               1169               01.8893131890E+001.1759499662E+02+
*       -2.911992062E+00               0
GRID*               1170               0-5.327569028E+005.7497520183E+01+
*       -1.695535349E-02               0
GRID*               1171               0-3.763643949E+005.6848395074E+01+
*       -1.042164132E+00               0
GRID*               1172               0-4.145090657E+005.4067703843E+01+
*       -1.107971200E+00               0
GRID*               1173               0-5.709015737E+005.4716828953E+01+
*       -8.276242130E-02               0
GRID*               1174               0-5.761884036E+005.6152423326E+01+
*       -2.182114279E+00               0
GRID*               1175               0-4.887486052E+006.1519542497E+01+
*       2.2090080897E+00               0
GRID*               1176               0-3.117162325E+006.2567143481E+01+
*       3.3051866932E+00               0
GRID*               1177               0-3.275370089E+006.0743934562E+01+
*       3.2359910048E+00               0
GRID*               1178               0-2.993140992E+006.1295870856E+01+
*       4.8799693025E-01               0
GRID*               1179               0-2.834933227E+006.3119079776E+01+
*       5.5719261862E-01               0
GRID*               1180               0-1.222817264E+006.2343471840E+01+
*       1.5841755337E+00               0
GRID*               1181               0-3.516809720E+005.7313853674E+01+
*       3.0661746072E+00               0
GRID*               1182               0-2.944103466E+005.7788928365E+01+
*       4.7843791663E-01               0
GRID*               1183               0-5.160197273E+005.7879129694E+01+
*       2.1111044526E+00               0
GRID*               1184               0-3.402306263E+005.9131057557E+01+
*       3.0948825559E+00               0
GRID*               1185               0-2.829600009E+005.9606132248E+01+
*       5.0714586538E-01               0
GRID*               1186               0-2.996971765E+005.9224522737E+01+
*       -1.620913941E+00               0
GRID*               1187               0-5.054857808E+006.1137932987E+01+
*       8.0948283620E-02               0
GRID*               1188               0-3.160512747E+006.0914261345E+01+
*       -1.640062876E+00               0
GRID*               1189               0-4.486080620E+006.3382641492E+01+
*       -7.965696100E-02               0
GRID*               1190               0-2.591735559E+006.3158969851E+01+
*       -1.800668120E+00               0
GRID*               1191               0-6.649027728E+006.2125459991E+01+
*       1.1852715543E+00               0
GRID*               1192               0-3.473669043E+001.0718829127E+02+
*       1.4214893611E-01               0
GRID*               1193               0-2.874206324E+001.0804989172E+02+
*       3.7294662933E+00               0
GRID*               1194               0-1.942962793E+001.0921469857E+02+
*       -7.520797338E-01               0
GRID*               1195               0-4.401819958E+001.0975792819E+02+
*       2.0702027575E+00               0
GRID*               1196               0-1.343500074E+001.1007629901E+02+
*       2.8352376234E+00               0
GRID*               1197               02.4587871611E+001.0718782995E+02+
*       1.4699326790E-01               0
GRID*               1198               09.1497854420E-011.0889233919E+02+
*       -1.068277551E+00               0
GRID*               1199               01.5144412632E+001.0975393964E+02+
*       2.5190398063E+00               0
GRID*               1200               04.3885775832E+001.0943510749E+02+
*       1.7588492722E+00               0
GRID*               1201               0-6.728379196E+006.1304215268E+01+
*       2.9686257490E+00               0
GRID*               1202               0-6.570171431E+006.3127424187E+01+
*       3.0378214373E+00               0
GRID*               1203               0-7.854353477E-015.5598732464E+01+
*       2.9105713069E+00               0
GRID*               1204               01.1819231173E+009.9029640518E+01+
*       4.0002424409E+00               0
GRID*               1205               01.6463129009E+009.6780462835E+01+
*       6.7987380870E-01               0
GRID*               1206               04.3378166102E+009.7361604548E+01+
*       3.9578668191E+00               0
GRID*               1207               0-2.331784804E-019.3155839912E+01+
*       3.1449084576E+00               0
GRID*               1208               08.8155331426E-019.1787955323E+01+
*       2.8320109323E+00               0
GRID*               1209               07.8330837455E-019.3924627205E+01+
*       5.9081314753E+00               0
GRID*               1210               0-1.525650649E+009.4093810295E+01+
*       5.1129404108E+00               0
GRID*               1211               0-1.427405709E+009.1957138413E+01+
*       2.0368198678E+00               0
GRID*               1212               0-4.109188543E-019.2725925706E+01+
*       4.8000428855E+00               0
GRID*               1213               03.0881375386E-019.4452247982E+01+
*       6.4569649677E+00               0
GRID*               1214               02.0108272101E+009.4871816452E+01+
*       6.0543172865E+00               0
GRID*               1215               01.3705900362E+009.5712080263E+01+
*       5.8183813195E+00               0
GRID*               1216               07.2183218925E-019.5202682361E+01+
*       6.8605145003E+00               0
GRID*               1217               01.3620693632E+009.4362418549E+01+
*       7.0964504674E+00               0
GRID*               1218               02.4238456455E+009.5622250830E+01+
*       6.4578668191E+00               0
GRID*               1219               05.9405801766E+007.0999805796E+01+
*       2.8846537708E+00               0
GRID*               1220               05.7629266114E+007.3257108229E+01+
*       2.7884384240E+00               0
GRID*               1221               02.5832624223E+006.9223651421E+01+
*       3.4920129431E+00               0
GRID*               1222               02.4161806277E+006.7103766414E+01+
*       3.8406149935E+00               0
GRID*               1223               03.9715723562E+006.8472790608E+01+
*       2.4700065577E+00               0
GRID*               1224               03.6319750363E+007.0067961010E+01+
*       3.9062024895E+00               0
GRID*               1225               03.4648932417E+006.7948076003E+01+
*       4.2548045399E+00               0
GRID*               1226               0-3.725687215E+019.5812135013E+00+
*       -9.361201869E-01               0
GRID*               1227               0-3.725687215E+017.2145468664E+00+
*       -9.361201869E-01               0
GRID*               1228               0-3.679882310E+018.3030517208E+00+
*       1.0692874833E+00               0
GRID*               1229               05.9439593012E+006.6714009585E+01+
*       3.2604041662E+00               0
GRID*               1230               06.1110410958E+006.8833894592E+01+
*       2.9118021157E+00               0
GRID*               1231               05.6043619814E+006.8309179987E+01+
*       4.6966000979E+00               0
GRID*               1232               08.1717900355E-016.8462340959E+01+
*       3.5542439430E+00               0
GRID*               1233               02.4585097503E+007.0808784401E+01+
*       3.6306941045E+00               0
GRID*               1234               06.9242633153E-017.0047473939E+01+
*       3.6929251044E+00               0
GRID*               1235               07.1416236771E-017.1783545952E+01+
*       4.2490280994E+00               0
GRID*               1236               06.0831956113E+007.1189724415E+01+
*       5.5739515171E+00               0
GRID*               1237               05.4339010622E+007.0475091192E+01+
*       4.6694517530E+00               0
GRID*               1238               05.2660353862E+007.1941247157E+01+
*       4.7635217841E+00               0
GRID*               1239               0-1.145843800E+008.6989390703E+01+
*       4.7069219537E+00               0
GRID*               1240               0-2.751353089E+008.7154770990E+01+
*       3.2924178497E+00               0
GRID*               1241               0-2.492511635E+008.6395950041E+01+
*       6.6476262871E+00               0
GRID*               1242               0-2.607070529E+011.0050329232E+01+
*       4.0770378231E+00               0
GRID*               1243               0-2.707784789E+019.2821794535E+00+
*       6.3675748957E+00               0
GRID*               1244               0-2.669961742E+018.4526466687E+00+
*       5.2094629274E+00               0
GRID*               1245               0-2.509965068E+018.9524993268E+00+
*       5.2094629274E+00               0
GRID*               1246               0-2.547788115E+019.7820321116E+00+
*       6.3675748957E+00               0
GRID*               1247               0-2.747446781E+019.6773483125E+00+
*       4.6425749911E+00               0
GRID*               1248               0-2.810337994E+018.0796657491E+00+
*       5.7750000954E+00               0
GRID*               1249               0-2.818293756E+011.1991411191E+01+
*       5.7750000954E+00               0
GRID*               1250               0-2.818293758E+019.8290995977E+00+
*       5.7750000954E+00               0
GRID*               1251               0-2.747446779E+011.1839659905E+01+
*       4.6425749911E+00               0
GRID*               1252               0-2.715740554E+011.1031613302E+01+
*       6.3675748957E+00               0
GRID*               1253               0-5.352684356E+007.7814972599E+01+
*       -1.444273299E+00               0
GRID*               1254               02.3373678229E+005.6396974936E+01+
*       -1.466345580E+00               0
GRID*               1255               03.1310944854E+005.4426343147E+01+
*       -2.562067536E+00               0
GRID*               1256               03.4971035660E+005.5805956447E+01+
*       -2.918798442E+00               0
GRID*               1257               03.9351495635E+006.1707538995E+01+
*       -2.476441846E+00               0
GRID*               1258               06.0963233969E+006.3155811141E+01+
*       -3.185052777E+00               0
GRID*               1259               06.2498907406E+006.1463824812E+01+
*       -3.088828166E+00               0
GRID*               1260               04.1058445405E+006.0443785565E+01+
*       -3.774376069E+00               0
GRID*               1261               03.9522771967E+006.2135771894E+01+
*       -3.870600681E+00               0
GRID*               1262               06.2670183738E+006.1892057711E+01+
*       -4.482987000E+00               0
GRID*               1263               06.1751796943E+006.2153846945E+01+
*       -1.332502894E+00               0
GRID*               1264               06.3287470381E+006.0461860616E+01+
*       -1.236278282E+00               0
GRID*               1265               06.7923483630E+006.0237511292E+01+
*       9.8592490328E-01               0
GRID*               1266               0-2.152953176E+007.0918803583E+01+
*       -2.693992062E+00               0
GRID*               1267               0-6.113224429E-016.9893322597E+01+
*       -3.245000587E+00               0
GRID*               1268               0-2.538932398E+006.9268524549E+01+
*       -4.345594879E+00               0
GRID*               1269               0-2.411996224E+007.0881401553E+01+
*       -4.486703328E+00               0
GRID*               1270               0-4.843862688E-017.1506199602E+01+
*       -3.386109036E+00               0
GRID*               1271               0-6.081995586E+006.8684559552E+01+
*       -3.748393039E+00               0
GRID*               1272               0-5.755084007E+006.6791484414E+01+
*       -3.350439965E+00               0
GRID*               1273               0-3.915559974E+007.2304494043E+01+
*       -3.917233634E+00               0
GRID*               1274               0-2.246993067E+007.2891890062E+01+
*       -4.609350607E+00               0
GRID*               1275               0-2.233454339E+006.8868644876E+01+
*       -3.123547463E+00               0
GRID*               1276               0-2.212020819E+006.7375449411E+01+
*       -3.947641805E+00               0
GRID*               1277               0-3.610939128E+006.9944460182E+01+
*       -4.751869905E+00               0
GRID*               1278               0-3.284027549E+006.8051385044E+01+
*       -4.353916830E+00               0
GRID*               1279               0-4.076621301E+006.5183369897E+01+
*       2.5620637665E+00               0
GRID*               1280               0-5.834024932E+006.6028877437E+01+
*       1.4425267450E+00               0
GRID*               1281               0-6.486681919E+006.4188258957E+01+
*       1.1586667566E+00               0
GRID*               1282               0-6.406373767E+006.5208670705E+01+
*       3.0286702766E+00               0
GRID*               1283               0-5.753716781E+006.7049289185E+01+
*       3.3125302650E+00               0
GRID*               1284               0-7.770471841E-016.1205669526E+01+
*       -1.144669606E+00               0
GRID*               1285               0-1.349753438E+006.0730594836E+01+
*       1.4430670848E+00               0
GRID*               1286               0-4.240801399E+006.3695915249E+01+
*       3.8142701923E+00               0
GRID*               1287               0-3.588144413E+006.5536533729E+01+
*       4.0981301807E+00               0
GRID*               1288               0-5.917896879E+006.5561834538E+01+
*       4.5647366908E+00               0
GRID*               1289               0-6.405830061E+006.2165350066E+01+
*       -1.172589185E+00               0
GRID*               1290               0-6.243484251E+006.4228149032E+01+
*       -1.199193983E+00               0
GRID*               1291               0-7.001409212E+005.7472740582E+01+
*       2.9645481216E+00               0
GRID*               1292               0-6.886905756E+005.9289944465E+01+
*       2.9932560704E+00               0
GRID*               1293               0-7.080981675E+005.6461676645E+01+
*       1.1491406552E+00               0
GRID*               1294               03.8584090713E+006.5115054656E+01+
*       -2.601095957E+00               0
GRID*               1295               02.6063059803E+006.5757472628E+01+
*       -3.607392256E+00               0
GRID*               1296               02.5294791288E+006.4041943296E+01+
*       -3.578962757E+00               0
GRID*               1297               02.4872167425E+006.4578937825E+01+
*       -1.978636423E+00               0
GRID*               1298               02.5640435940E+006.6294467157E+01+
*       -2.007065921E+00               0
GRID*               1299               01.2351136515E+006.5221355796E+01+
*       -2.984932722E+00               0
GRID*               1300               06.0896607362E+006.5932175243E+01+
*       -1.334327595E+00               0
GRID*               1301               06.0128338847E+006.4216645911E+01+
*       -1.305898097E+00               0
GRID*               1302               05.9325257334E+006.5237057659E+01+
*       -3.175901617E+00               0
GRID*               1303               06.0093525849E+006.6952586991E+01+
*       -3.204331115E+00               0
GRID*               1304               01.4389050875E+005.6664871903E+01+
*       -5.479036328E-01               0
GRID*               1305               0-1.922698014E-015.7612644119E+01+
*       -1.520904432E+00               0
GRID*               1306               01.0026766626E+005.7026593332E+01+
*       -2.973411301E+00               0
GRID*               1307               03.7679652963E+006.3676883252E+01+
*       -3.955273101E+00               0
GRID*               1308               03.8447921478E+006.5392412584E+01+
*       -3.983702600E+00               0
GRID*               1309               05.9189088099E+006.5514415587E+01+
*       -4.558508259E+00               0
GRID*               1310               04.0230541020E+006.3329630444E+01+
*       -7.999964230E-02               0
GRID*               1311               06.4166515765E+006.2083952065E+01+
*       1.1601639216E+00               0
GRID*               1312               06.2543057669E+006.4146751030E+01+
*       1.1867687193E+00               0
GRID*               1313               0-3.834811463E+006.4965193413E+01+
*       -2.718098953E+00               0
GRID*               1314               0-2.183664070E+006.4701631696E+01+
*       -2.081249373E+00               0
GRID*               1315               0-2.747028483E+006.4219910561E+01+
*       -3.525952103E+00               0
GRID*               1316               0-2.338956993E+006.5762572406E+01+
*       -3.806533356E+00               0
GRID*               1317               0-1.095881090E+006.3956348844E+01+
*       -2.889102523E+00               0
GRID*               1318               0-3.622471849E+006.5047090228E+01+
*       -4.165658916E+00               0
GRID*               1319               0-4.030543338E+006.3504428383E+01+
*       -3.885077663E+00               0
GRID*               1320               0-6.163155497E+006.5248822568E+01+
*       -3.069858712E+00               0
GRID*               1321               0-5.950815883E+006.5330719384E+01+
*       -4.517418675E+00               0
GRID*               1322               0-5.835412762E+006.5770810878E+01+
*       -1.479775235E+00               0
GRID*               1323               02.7709510110E+006.3972048415E+01+
*       3.4989631149E+00               0
GRID*               1324               02.5409332997E+006.5518633434E+01+
*       3.7019338321E+00               0
GRID*               1325               04.0345082729E+006.4806320582E+01+
*       2.6156378909E+00               0
GRID*               1326               02.8422085168E+006.2825507181E+01+
*       1.9444402915E+00               0
GRID*               1327               01.3486335436E+006.3537820032E+01+
*       3.0307362327E+00               0
GRID*               1328               02.6121908055E+006.4372092199E+01+
*       2.1474110087E+00               0
GRID*               1329               04.3987508884E+006.1483189671E+01+
*       -2.542386606E-01               0
GRID*               1330               04.6402227706E+006.1413294791E+01+
*       2.2384281554E+00               0
GRID*               1331               02.6007366346E+006.2895402061E+01+
*       -5.482265245E-01               0
GRID*               1332               03.2179053033E+006.0979066408E+01+
*       1.7702012732E+00               0
GRID*               1333               04.2152759184E+006.1863218411E+01+
*       3.7775133949E+00               0
GRID*               1334               04.5909727048E+006.0016777638E+01+
*       3.6032743766E+00               0
GRID*               1335               06.3377152574E+006.3086933033E+01+
*       3.0583478115E+00               0
GRID*               1336               06.2884651916E+006.1690415881E+01+
*       4.4231940327E+00               0
GRID*               1337               06.7134120438E+006.1240492260E+01+
*       2.8841087932E+00               0
GRID*               1338               03.8152727199E+006.4925546573E+01+
*       4.0721248706E+00               0
GRID*               1339               04.0452904312E+006.3378961554E+01+
*       3.8691541534E+00               0
GRID*               1340               06.1739770125E+006.5167424566E+01+
*       3.0574334489E+00               0
GRID*               1341               05.9547414595E+006.5286650557E+01+
*       4.5139204287E+00               0
GRID*               1342               06.0242880556E+006.5693336049E+01+
*       1.3897394365E+00               0
GRID*               1343               01.1476625177E+005.0347934343E+01+
*       -2.132305466E+00               0
GRID*               1344               03.4575657865E+005.1331862063E+01+
*       -2.776422080E+00               0
GRID*               1345               01.8215735279E+005.2295098904E+01+
*       -1.185296290E+00               0
GRID*               1346               06.9383863160E-015.0639735822E+01+
*       1.5820800927E-01               0
GRID*               1347               03.0037419005E+005.1623663543E+01+
*       -4.859086048E-01               0
GRID*               1348               0-1.521068490E+004.8020423691E+01+
*       -4.595239685E-01               0
GRID*               1349               0-2.163010383E+004.9145240616E+01+
*       -1.080281666E+00               0
GRID*               1350               0-1.250304066E+004.8790545386E+01+
*       -1.996051592E+00               0
GRID*               1351               0-2.791300177E+004.8118397816E+01+
*       -1.666774394E+00               0
GRID*               1352               0-3.433242071E+004.9243214741E+01+
*       -2.287532091E+00               0
GRID*               1353               0-2.791300177E+004.8118397816E+01+
*       1.5365276234E+00               0
GRID*               1354               0-1.250304066E+004.8790545386E+01+
*       1.2072504252E+00               0
GRID*               1355               0-2.190863509E+004.9429804006E+01+
*       5.0167996392E-01               0
GRID*               1356               0-3.731859620E+004.8757656435E+01+
*       8.3095716214E-01               0
GRID*               1357               0-3.461095197E+004.9527778131E+01+
*       2.4977315558E+00               0
GRID*               1358               0-4.412155933E-014.9990777187E+01+
*       -3.332697988E-01               0
GRID*               1359               0-1.711447281E+005.0088751312E+01+
*       1.6627817931E+00               0
GRID*               1360               01.1235800730E-024.9566800973E+01+
*       1.2751639905E+00               0
GRID*               1361               0-4.499074139E-015.0865006899E+01+
*       1.7306953584E+00               0
GRID*               1362               06.8514681098E-015.1513965534E+01+
*       2.2221731664E+00               0
GRID*               1363               01.8574299658E-044.5541426402E+01+
*       -1.481221233E-01               0
GRID*               1364               0-2.700070839E-044.3848387953E+01+
*       -5.391704061E-07               0
GRID*               1365               01.6717551116E+004.5357680559E+01+
*       -1.676183868E+00               0
GRID*               1366               0-4.499248339E-015.0865006999E+01+
*       -1.608433798E+00               0
GRID*               1367               01.1218380701E-024.9566801073E+01+
*       -2.063965166E+00               0
GRID*               1368               0-1.711447281E+005.0088751312E+01+
*       -1.540520224E+00               0
GRID*               1369               0-6.028554935E+001.1435532269E+02+
*       -7.217453913E-01               0
GRID*               1370               0-6.278341749E+001.1523546526E+02+
*       -2.965746803E+00               0
GRID*               1371               0-6.563005456E+001.1608902333E+02+
*       -5.041872736E+00               0
GRID*               1372               0-5.920045300E+001.1858935250E+02+
*       -6.465008247E+00               0
GRID*               1373               0-3.064086583E+001.1899070358E+02+
*       -2.196850912E+00               0
GRID*               1374               0-2.330226113E+001.1954841892E+02+
*       -4.221710510E-01               0
GRID*               1375               0-2.655999387E+001.1717190816E+02+
*       -1.967811921E+00               0
GRID*               1376               0-4.226582988E-011.1921973354E+02+
*       -1.580917362E+00               0
GRID*               1377               0-1.922138918E+001.1772962350E+02+
*       -1.931320602E-01               0
GRID*               1378               0-5.057529354E+001.1547023052E+02+
*       -5.041872736E+00               0
GRID*               1379               04.4628566376E+001.0988934012E+02+
*       -1.236433017E+00               0
GRID*               1380               01.0327424796E+001.0713689513E+02+
*       5.9972505796E+00               0
GRID*               1381               05.8630707056E-011.0391658001E+02+
*       5.0423756218E+00               0
GRID*               1382               03.6986254510E+001.0466790164E+02+
*       3.7396576804E+00               0
GRID*               1383               08.2443005150E-011.0128364941E+02+
*       5.0423756218E+00               0
GRID*               1384               03.9803235444E+009.9615613445E+01+
*       5.0000000000E+00               0
GRID*               1385               03.9367484319E+001.0203497104E+02+
*       3.7396576804E+00               0
GRID*               1386               0-1.177763241E+001.0164132233E+02+
*       5.0423756218E+00               0
GRID*               1387               0-1.685646286E+009.8519848808E+01+
*       -6.687168087E+00               0
GRID*               1388               0-7.603214528E-019.7382693376E+01+
*       -5.777993010E+00               0
GRID*               1389               0-4.477503430E+001.1022009677E+02+
*       -9.215220806E-01               0
GRID*               1390               0-1.212067886E+013.2776764530E+01+
*       4.5869110937E+00               0
GRID*               1391               0-1.139649610E+013.4072643411E+01+
*       3.2064613873E+00               0
GRID*               1392               0-1.182921255E+013.1289065957E+01+
*       4.0391738783E+00               0
GRID*               1393               0-1.339369528E+013.2757990073E+01+
*       2.8574334866E+00               0
GRID*               1394               0-1.393149384E+013.1991238701E+01+
*       2.9121770586E+00               0
GRID*               1395               0-1.428261252E+013.1549612839E+01+
*       2.1527762854E+00               0
GRID*               1396               0-1.352150315E+013.1195348819E+01+
*       3.6151789936E+00               0
GRID*               1397               0-1.435076801E+013.1916296020E+01+
*       4.2176597810E+00               0
GRID*               1398               0-1.329175262E+012.8622236658E+01+
*       3.2866370574E+00               0
GRID*               1399               0-1.452963035E+012.7970126221E+01+
*       3.0909013564E+00               0
GRID*               1400               0-1.448056287E+013.1748230791E+01+
*       6.2103308580E+00               0
GRID*               1401               0-1.224870804E+013.1214974016E+01+
*       6.2103308580E+00               0
GRID*               1402               0-1.402286387E+013.2369093075E+01+
*       5.0708227050E+00               0
GRID*               1403               0-1.233079459E+013.2463660953E+01+
*       6.3604918470E+00               0
GRID*               1404               0-1.475693100E+012.9735650609E+01+
*       6.4538662936E+00               0
GRID*               1405               0-1.224848672E+013.1214123276E+01+
*       5.3446566007E+00               0
GRID*               1406               0-1.201873619E+012.8641011115E+01+
*       5.0161146645E+00               0
GRID*               1407               0-1.731887781E+012.1224655578E+01+
*       -2.202476582E+00               0
GRID*               1408               0-1.755446537E+012.2319681684E+01+
*       7.7709874273E-01               0
GRID*               1409               0-1.391454257E+012.0956557251E+01+
*       -6.947037793E-01               0
GRID*               1410               01.2665951265E+008.7699803177E+01+
*       -5.807014169E+00               0
GRID*               1411               05.9293673560E-028.7644843235E+01+
*       -5.463138540E+00               0
GRID*               1412               03.2882446912E+009.2813667609E+01+
*       -5.817251028E+00               0
GRID*               1413               05.9293673560E-028.6627813622E+01+
*       -5.365170894E+00               0
GRID*               1414               01.2665951265E+008.6682773563E+01+
*       -5.709046524E+00               0
GRID*               1415               0-3.193746166E-018.5465112252E+01+
*       -5.234995489E+00               0
GRID*               1416               0-4.935248972E-018.7195962466E+01+
*       -5.566189233E+00               0
GRID*               1417               0-8.721931874E-018.6033261097E+01+
*       -5.436013827E+00               0
GRID*               1418               0-1.166557694E-018.9981174968E+01+
*       -5.796642856E+00               0
GRID*               1419               0-7.501354998E-018.9037891381E+01+
*       -6.169543763E+00               0
GRID*               1420               0-1.302954071E+008.7843536083E+01+
*       -6.198695184E+00               0
GRID*               1421               0-7.501354998E-018.8292416852E+01+
*       -6.095644491E+00               0
GRID*               1422               09.9434532484E-027.2484120275E+01+
*       -4.268079423E+00               0
GRID*               1423               0-2.120056893E+007.4504767066E+01+
*       -4.750459056E+00               0
GRID*               1424               02.2637070655E-017.4096997280E+01+
*       -4.409187872E+00               0
GRID*               1425               0-3.600496043E+007.7078904184E+01+
*       -5.551554296E+00               0
GRID*               1426               0-3.727552989E+007.5514781660E+01+
*       -5.769940457E+00               0
GRID*               1427               0-5.545874116E+007.6318060806E+01+
*       -5.477736170E+00               0
GRID*               1428               0-5.885421837E+007.2223346766E+01+
*       1.8624475696E+00               0
GRID*               1429               0-5.746531510E+007.2860959266E+01+
*       -3.843891974E+00               0
GRID*               1430               0-5.640317999E+007.1828476612E+01+
*       -1.792027800E+00               0
GRID*               1431               0-1.875647570E-034.2818176397E+01+
*       1.2974714762E+00               0
GRID*               1432               01.6100578963E+004.2031753143E+01+
*       1.2286683598E+00               0
GRID*               1433               0-2.265222125E-034.2818182560E+01+
*       -1.464876349E+00               0
GRID*               1434               01.6116635367E+004.3061964698E+01+
*       -6.880365551E-02               0
GRID*               1435               0-3.480836111E+007.1176948830E+01+
*       -4.837562749E+00               0
GRID*               1436               0-3.315832954E+007.3187437339E+01+
*       -4.960210029E+00               0
GRID*               1437               0-3.809346464E+007.1272011390E+01+
*       -1.865369460E+00               0
GRID*               1438               0-5.911534667E+007.0850470757E+01+
*       -3.721244694E+00               0
GRID*               1439               0-2.016295967E+003.9382444181E+01+
*       3.7375568479E-02               0
GRID*               1440               04.1520885070E-053.9809647855E+01+
*       3.7491987293E-08               0
GRID*               1441               0-1.726046609E-034.0798809216E+01+
*       -1.288204088E+00               0
GRID*               1442               0-2.018063535E+004.0371605542E+01+
*       -1.250828557E+00               0
GRID*               1443               0-2.103295118E-034.0798809644E+01+
*       1.1207997912E+00               0
GRID*               1444               05.4974507029E+004.9426942467E+01+
*       1.4887957992E+00               0
GRID*               1445               07.1835730660E+005.0827241339E+01+
*       2.4905540422E+00               0
GRID*               1446               07.7293018600E+004.8750199573E+01+
*       1.9744320401E+00               0
GRID*               1447               07.7693876535E+004.8240861306E+01+
*       -5.626432985E-02               0
GRID*               1448               07.2236588595E+005.0317903073E+01+
*       4.5985767222E-01               0
GRID*               1449               0-1.613928759E+004.2031753143E+01+
*       1.2286683598E+00               0
GRID*               1450               0-3.628121431E+004.0615387680E+01+
*       1.4524413709E-01               0
GRID*               1451               0-9.697705611E+002.6330150140E+01+
*       6.6343257427E+00               0
GRID*               1452               0-7.107557607E+002.7173847491E+01+
*       6.6343257427E+00               0
GRID*               1453               0-8.054755331E+002.3035872331E+01+
*       6.4894078900E+00               0
GRID*               1454               0-7.153964364E+002.5624271970E+01+
*       5.6237336327E+00               0
GRID*               1455               0-5.464607327E+002.3879569681E+01+
*       6.4894078900E+00               0
GRID*               1456               0-1.094957181E+013.0094420640E+01+
*       4.0391738783E+00               0
GRID*               1457               0-1.108063756E+013.1014368018E+01+
*       2.6302766086E+00               0
GRID*               1458               0-1.039379680E+012.8214676215E+01+
*       1.9894539575E+00               0
GRID*               1459               0-1.026273106E+012.7294728837E+01+
*       3.3983512272E+00               0
GRID*               1460               0-1.241538822E+012.8470599697E+01+
*       1.6688736200E+00               0
GRID*               1461               0-8.287904254E+002.3568175317E+01+
*       1.5711517237E+00               0
GRID*               1462               0-8.413866469E+002.4043449305E+01+
*       -8.062609448E-01               0
GRID*               1463               0-1.006834118E+012.5653199106E+01+
*       2.0816573130E+00               0
GRID*               1464               0-9.948110549E+002.3585884105E+01+
*       5.1754537962E-01               0
GRID*               1465               0-9.558585400E+002.2995106566E+01+
*       4.3150723595E+00               0
GRID*               1466               0-1.121879170E+012.3012815353E+01+
*       3.2614660154E+00               0
GRID*               1467               0-5.692970564E+002.5364338855E+01+
*       5.6237336327E+00               0
GRID*               1468               0-5.646563807E+002.6913914375E+01+
*       6.6343257427E+00               0
GRID*               1469               0-7.141530963E+002.7017086933E+01+
*       4.4519575713E+00               0
GRID*               1470               0-4.325265683E+002.5615277509E+01+
*       2.8853022180E+00               0
GRID*               1471               01.4698935118E+013.1514119700E+01+
*       -3.449994224E+00               0
GRID*               1472               01.5398096271E+013.0554525322E+01+
*       -1.906696979E+00               0
GRID*               1473               01.3826486742E+013.1277126974E+01+
*       -2.191069778E+00               0
GRID*               1474               01.3251427174E+013.2023326298E+01+
*       -2.109114493E+00               0
GRID*               1475               01.3475368063E+013.1718752837E+01+
*       -2.950470551E+00               0
GRID*               1476               02.0163374882E+003.9382443753E+01+
*       -3.737553099E-02               0
GRID*               1477               02.0141926722E+004.0371605542E+01+
*       1.0834242227E+00               0
GRID*               1478               01.4019912293E+013.2408542617E+01+
*       -5.062557921E+00               0
GRID*               1479               01.4477611295E+013.1787680333E+01+
*       -6.202066074E+00               0
GRID*               1480               01.2245756468E+013.1254423557E+01+
*       -6.202066074E+00               0
GRID*               1481               01.2330794592E+013.2463660953E+01+
*       -6.360491847E+00               0
GRID*               1482               01.2245535150E+013.1253572818E+01+
*       -5.336391817E+00               0
GRID*               1483               01.2025392922E+012.8696641822E+01+
*       -5.020600971E+00               0
GRID*               1484               01.1373086774E+013.1016580092E+01+
*       -4.077467371E+00               0
GRID*               1485               05.1423188056E+001.1786721162E+02+
*       3.2315981219E+00               0
GRID*               1486               06.4952080891E+001.1596336039E+02+
*       2.5327337964E+00               0
GRID*               1487               06.9320702657E+001.1834061927E+02+
*       3.5808423715E+00               0
GRID*               1488               06.6823166478E+001.1643658113E+02+
*       4.5673222956E+00               0
GRID*               1489               02.6719399192E+001.1332043726E+02+
*       6.2512264580E+00               0
GRID*               1490               03.2514069092E+001.1549739466E+02+
*       5.9397610890E+00               0
GRID*               1491               05.6647691316E+001.1237787726E+02+
*       6.1163691502E+00               0
GRID*               1492               04.8550981124E+001.1498037816E+02+
*       5.8590390230E+00               0
GRID*               1493               03.3730479066E+011.8321335595E+00+
*       -1.083687214E+00               0
GRID*               1494               03.3123470052E+011.9229749167E+00+
*       -2.529344237E+00               0
GRID*               1495               03.3287103701E+014.4039088430E+00+
*       -1.383202792E+00               0
GRID*               1496               03.4467583530E+012.5717752835E+00+
*       -2.466890006E+00               0
GRID*               1497               03.2680094687E+014.4947502003E+00+
*       -2.828859815E+00               0
GRID*               1498               0-6.907672743E+004.5154504084E+01+
*       7.5742347797E-02               0
GRID*               1499               0-5.328563354E+004.5349433083E+01+
*       -6.009465646E-01               0
GRID*               1500               0-5.409524381E+004.2813062664E+01+
*       7.7654734736E-01               0
GRID*               1501               0-4.323610733E+004.6564624875E+01+
*       -2.114331603E+00               0
GRID*               1502               0-6.529153009E+004.5844838394E+01+
*       -3.257824883E+00               0
GRID*               1503               0-3.902269593E+004.7765459528E+01+
*       -1.955109757E+00               0
GRID*               1504               0-6.107811869E+004.7045673047E+01+
*       -3.098603037E+00               0
GRID*               1505               0-4.544211486E+004.8890276453E+01+
*       -2.575867454E+00               0
GRID*               1506               0-9.659516246E+001.3214433107E+02+
*       7.2400200338E+00               0
GRID*               1507               0-7.534105630E+004.4629646602E+01+
*       -1.744439845E+00               0
GRID*               1508               0-6.590109485E+004.4565781837E+01+
*       -2.585031397E+00               0
GRID*               1509               02.0025622429E+012.4988318012E+01+
*       5.6250000000E+00               0
GRID*               1510               0-3.223986655E+004.2275535281E+01+
*       0.0000000000E+00               0
GRID*               1511               0-5.409524381E+004.2813062664E+01+
*       -1.848193706E+00               0
GRID*               1512               0-5.184735104E+004.4506677774E+01+
*       -1.996365739E+00               0
GRID*               1513               0-2.999197379E+004.3969150392E+01+
*       -1.481720328E-01               0
GRID*               1514               0-1.530972517E+004.5598328955E+01+
*       1.3160502580E+00               0
GRID*               1515               02.2054889374E+006.7711480145E+01+
*       2.5322375576E+00               0
GRID*               1516               03.9937680175E+007.0647369166E+01+
*       -6.954394570E-01               0
GRID*               1517               05.7069559127E+007.2182024134E+01+
*       -1.884729877E+00               0
GRID*               1518               06.0242791955E+006.9936308992E+01+
*       1.0196548261E+00               0
GRID*               1519               05.8793930623E+006.9991002544E+01+
*       -1.797189138E+00               0
GRID*               1520               04.0369450368E+006.8711629801E+01+
*       -2.540604741E-01               0
GRID*               1521               03.8920589035E+006.8766323353E+01+
*       -3.070904438E+00               0
GRID*               1522               05.9225700815E+006.8055263179E+01+
*       -1.355810155E+00               0
GRID*               1523               03.8698632421E+006.6591744795E+01+
*       9.4541576353E-02               0
GRID*               1524               05.8571974009E+006.7816423986E+01+
*       1.3682568765E+00               0
GRID*               1525               04.0600141191E+007.1478174997E+01+
*       -5.506141711E+00               0
GRID*               1526               04.2385451501E+006.9951552038E+01+
*       -5.506141711E+00               0
GRID*               1527               06.0081160604E+007.1814223391E+01+
*       -5.680406045E+00               0
GRID*               1528               05.7969838256E+007.1038111111E+01+
*       -3.686547756E+00               0
GRID*               1529               06.1866470914E+007.0287600432E+01+
*       -5.680406045E+00               0
GRID*               1530               01.7312681690E+006.9072673468E+01+
*       -2.982395997E+00               0
GRID*               1531               0-3.058443835E-016.9493442925E+01+
*       -2.022953171E+00               0
GRID*               1532               02.4383762891E+006.9278344973E+01+
*       -4.187452400E+00               0
GRID*               1533               03.2076257378E-016.7648955723E+01+
*       -3.657564976E+00               0
GRID*               1534               04.0126373655E-016.9699114430E+01+
*       -3.228009574E+00               0
GRID*               1535               02.4815533083E+006.7342605608E+01+
*       -3.746073417E+00               0
GRID*               1536               03.6246862620E+006.8882257046E+01+
*       -4.520799449E+00               0
GRID*               1537               03.6678632813E+006.6946517681E+01+
*       -4.079420466E+00               0
GRID*               1538               05.9661755657E+006.8888326356E+01+
*       -3.645710098E+00               0
GRID*               1539               05.7419799434E+006.7068520684E+01+
*       -4.654226126E+00               0
GRID*               1540               06.3558388314E+006.8137815676E+01+
*       -5.639568388E+00               0
GRID*               1541               04.0325285951E-016.6600817272E+01+
*       -1.918557480E+00               0
GRID*               1542               02.5208665748E+006.8230206521E+01+
*       -2.448444904E+00               0
GRID*               1543               01.1007088353E-016.8256669454E+01+
*       -1.033210327E-01               0
GRID*               1544               08.9966928927E-016.7414202507E+01+
*       4.3063005974E-01               0
GRID*               1545               0-3.608178743E+007.0550942610E+01+
*       4.5953759971E+00               0
GRID*               1546               0-6.918236056E-016.7843163891E+01+
*       -3.674555988E+00               0
GRID*               1547               0-3.814889024E+006.8904348179E+01+
*       3.1568212803E+00               0
GRID*               1548               0-5.612371583E+006.8335014200E+01+
*       -4.705676589E+00               0
GRID*               1549               04.3797297100E+007.3558222727E+01+
*       -5.451820431E+00               0
GRID*               1550               04.1685974752E+007.2782110447E+01+
*       -3.457962142E+00               0
GRID*               1551               06.1166994165E+007.3118158841E+01+
*       -3.632226477E+00               0
GRID*               1552               01.8369228410E+007.3936146059E+01+
*       4.6207160782E+00               0
GRID*               1553               07.0657055897E-017.4795946466E+01+
*       4.3898188235E+00               0
GRID*               1554               05.8940969569E-017.3368678933E+01+
*       4.3877092608E+00               0
GRID*               1555               03.4672967243E+007.3695288448E+01+
*       -1.715194066E+00               0
GRID*               1556               02.3040273487E+007.5290024963E+01+
*       -3.513049949E+00               0
GRID*               1557               03.4156007010E+007.5252902482E+01+
*       -4.721772304E+00               0
GRID*               1558               01.2313149837E+007.5680769267E+01+
*       -4.831181391E+00               0
GRID*               1559               03.7250922146E+007.7917460773E+01+
*       -3.235435358E+00               0
GRID*               1560               02.6523798496E+007.8308205077E+01+
*       -4.553566799E+00               0
GRID*               1561               03.9848756355E+007.6606780488E+01+
*       -5.451820431E+00               0
GRID*               1562               03.2216547840E+007.9662083083E+01+
*       -5.283614927E+00               0
GRID*               1563               05.3451819944E+007.8269060199E+01+
*       -4.107280997E+00               0
GRID*               1564               01.9902766882E+012.5378577912E+01+
*       -3.105046814E+00               0
GRID*               1565               01.9174802432E+012.6936135303E+01+
*       -3.001576254E+00               0
GRID*               1566               01.8741217919E+012.4968682026E+01+
*       -2.356623068E+00               0
GRID*               1567               01.9902766882E+012.5378577912E+01+
*       -1.230046814E+00               0
GRID*               1568               01.9174802432E+012.6936135303E+01+
*       -1.126576254E+00               0
GRID*               1569               01.9606268500E+012.3098062616E+01+
*       -4.980046814E+00               0
GRID*               1570               02.0039853013E+012.5065515893E+01+
*       -5.625000000E+00               0
GRID*               1571               02.1585778048E+012.4200121393E+01+
*       -3.551127263E+00               0
GRID*               1572               02.1722864179E+012.3887059374E+01+
*       -6.071080449E+00               0
GRID*               1573               01.7119102906E+012.3391706006E+01+
*       -5.399441679E-01               0
GRID*               1574               01.6391138456E+012.4949263397E+01+
*       -4.364736077E-01               0
GRID*               1575               01.6481886040E+012.4748283933E+01+
*       -3.366322042E+00               0
GRID*               1576               01.4131806577E+012.4728865304E+01+
*       -1.446172582E+00               0
GRID*               1577               01.5753921590E+012.6305841323E+01+
*       -3.262851482E+00               0
GRID*               1578               01.9228154595E+012.5684791004E+01+
*       -6.572985188E+00               0
GRID*               1579               01.7442655849E+012.7077686729E+01+
*       -6.572985188E+00               0
GRID*               1580               01.7820769755E+012.4490958341E+01+
*       -4.980046814E+00               0
GRID*               1581               01.9091068463E+012.5997853023E+01+
*       -4.053032002E+00               0
GRID*               1582               02.2625224613E+012.3472293231E+01+
*       -2.730962238E+00               0
GRID*               1583               02.2610837341E+012.1058506748E+01+
*       -2.717727051E+00               0
GRID*               1584               02.1789979930E+012.1606548051E+01+
*       -4.980046814E+00               0
GRID*               1585               02.4946022174E+012.1667716647E+01+
*       -5.250915424E+00               0
GRID*               1586               02.4931634903E+011.9253930163E+01+
*       -5.237680237E+00               0
GRID*               1587               01.9412549445E+012.0385230189E+01+
*       -4.980046814E+00               0
GRID*               1588               02.2554204418E+011.8032612301E+01+
*       -5.237680237E+00               0
GRID*               1589               02.1959591566E+012.3938374245E+01+
*       -1.230046814E+00               0
GRID*               1590               02.1959591566E+012.1429068173E+01+
*       -1.230046814E+00               0
GRID*               1591               02.7246554289E+009.6609780160E+01+
*       6.4578668191E+00               0
GRID*               1592               04.3378166102E+009.7361604548E+01+
*       6.4578668191E+00               0
GRID*               1593               02.7151104266E+009.8385657629E+01+
*       6.4578668191E+00               0
GRID*               1594               02.1192711330E+012.4475349473E+01+
*       -4.173783063E-01               0
GRID*               1595               02.3683120527E+012.2493293010E+01+
*       8.1266850765E-01               0
GRID*               1596               0-1.926983949E+012.4050416395E+01+
*       2.4609308455E+00               0
GRID*               1597               0-1.924140496E+012.6912579306E+01+
*       9.7497773052E-01               0
GRID*               1598               0-2.036478592E+012.4483868278E+01+
*       1.4859531150E+00               0
GRID*               1599               0-2.036478592E+012.4483868278E+01+
*       3.3609531150E+00               0
GRID*               1600               0-1.924140496E+012.6912579306E+01+
*       2.8499777305E+00               0
GRID*               1601               0-2.242161061E+012.3043664612E+01+
*       1.4859531150E+00               0
GRID*               1602               0-2.307285638E+012.0163797114E+01+
*       2.9736333520E+00               0
GRID*               1603               0-2.242161061E+012.0534358539E+01+
*       1.4859531150E+00               0
GRID*               1604               0-2.165473037E+012.3580639839E+01+
*       6.7328460738E-01               0
GRID*               1605               0-2.368312053E+012.2493293010E+01+
*       -8.126685076E-01               0
GRID*               1606               0-1.693724835E+012.3797943592E+01+
*       3.6177420368E+00               0
GRID*               1607               0-1.409849327E+012.4495919907E+01+
*       1.4229345495E+00               0
GRID*               1608               0-1.581386739E+012.6226654619E+01+
*       3.1067666523E+00               0
GRID*               1609               0-1.643108441E+012.4748392711E+01+
*       2.6612335822E-01               0
GRID*               1610               0-1.828337835E+012.3597023014E+01+
*       5.2359531150E+00               0
GRID*               1611               0-1.825494382E+012.6459185925E+01+
*       5.6250000000E+00               0
GRID*               1612               0-1.715999739E+012.6025734041E+01+
*       4.7249777305E+00               0
GRID*               1613               0-1.501994555E+012.0084506388E+01+
*       -3.432894489E+00               0
GRID*               1614               0-2.141914282E+012.2485613734E+01+
*       -2.306290717E+00               0
GRID*               1615               0-3.862118564E+007.2730393834E+01+
*       3.7444267869E+00               0
GRID*               1616               0-5.975449750E+007.1079433744E+01+
*       3.6642654483E+00               0
GRID*               1617               0-5.631754581E+007.3025119595E+01+
*       3.9409734295E+00               0
GRID*               1618               0-6.144641490E+006.8929648988E+01+
*       3.6234277904E+00               0
GRID*               1619               0-3.395205932E+007.2111592337E+01+
*       4.6765898974E+00               0
GRID*               1620               0-3.051510764E+007.4057278189E+01+
*       4.9532978785E+00               0
GRID*               1621               0-4.244166368E+007.1472386515E+01+
*       5.4838594029E+00               0
GRID*               1622               0-3.900471200E+007.3418072366E+01+
*       5.7605673840E+00               0
GRID*               1623               0-2.210632990E+006.7633515970E+01+
*       3.8712635794E+00               0
GRID*               1624               0-3.798062562E+006.8985389266E+01+
*       4.5037643409E+00               0
GRID*               1625               0-3.407137853E+006.7105029463E+01+
*       4.1928668155E+00               0
GRID*               1626               0-4.422936499E+006.9940471299E+01+
*       5.4838594029E+00               0
GRID*               1627               0-6.192572516E+007.0235197061E+01+
*       5.6804060455E+00               0
GRID*               1628               0-6.013802386E+007.1767112276E+01+
*       5.6804060455E+00               0
GRID*               1629               03.3711561153E+015.0717752835E+00+
*       -5.133202792E+00               0
GRID*               1630               03.4154936518E+012.5000000000E+00+
*       -4.833687214E+00               0
GRID*               1631               03.2367447674E+014.4229749167E+00+
*       -5.195657023E+00               0
GRID*               1632               05.2501071093E+004.9939180418E+01+
*       -3.579291935E+00               0
GRID*               1633               07.6056442335E+005.0094727153E+01+
*       -4.572542238E+00               0
GRID*               1634               06.9952712833E+005.0815973437E+01+
*       -3.070284698E+00               0
GRID*               1635               07.0676649846E+004.9896124307E+01+
*       -1.581118426E+00               0
GRID*               1636               07.6780379349E+004.9174878022E+01+
*       -3.083375966E+00               0
GRID*               1637               05.1282811282E+005.1466436996E+01+
*       -3.710350524E+00               0
GRID*               1638               04.4380155300E+005.2169774806E+01+
*       -1.723998689E+00               0
GRID*               1639               06.9230844900E+005.1733193552E+01+
*       -1.287639529E+00               0
GRID*               1640               07.4116314591E+005.2539203846E+01+
*       -2.920955658E+00               0
GRID*               1641               04.3543659943E+005.1884210909E+01+
*       -3.059774309E+00               0
GRID*               1642               03.2558471574E+005.2841210167E+01+
*       -2.423386375E+00               0
GRID*               1643               04.7957280340E+005.1082205468E+01+
*       -3.605829675E-02               0
GRID*               1644               04.5940094049E+005.2591553572E+01+
*       3.1697740856E-01               0
GRID*               1645               03.1597357754E+005.2045442308E+01+
*       1.5550674933E+00               0
GRID*               1646               02.8020232714E+005.3133011646E+01+
*       -1.328728995E-01               0
GRID*               1647               01.9463261999E+005.0709965923E+01+
*       2.1518323136E+00               0
GRID*               1648               03.0110772716E+005.3847069679E+01+
*       1.7993456525E+00               0
GRID*               1649               04.8030634052E+005.3305611604E+01+
*       2.2491959605E+00               0
GRID*               1650               07.0790783649E+005.2154972318E+01+
*       7.5333656914E-01               0
GRID*               1651               03.2665918418E+016.4361871137E+00+
*       -2.842626350E+00               0
GRID*               1652               03.2353271405E+016.3644118302E+00+
*       -5.209423559E+00               0
GRID*               1653               04.2840411275E+004.8091466082E+01+
*       2.0855606196E+00               0
GRID*               1654               05.8141788988E+004.6565437071E+01+
*       2.5355558312E+00               0
GRID*               1655               06.0275727413E+004.7903811412E+01+
*       3.0699103551E+00               0
GRID*               1656               0-7.515296682E+005.5116579787E+01+
*       -1.016018270E+00               0
GRID*               1657               0-7.240567775E+005.4433943107E+01+
*       1.2903205834E+00               0
GRID*               1658               0-7.674882782E+005.3088846249E+01+
*       -8.748383417E-01               0
GRID*               1659               0-7.596398553E+005.4086082876E+01+
*       -2.867193201E+00               0
GRID*               1660               0-6.985055999E+005.4350423664E+01+
*       -4.134972119E+00               0
GRID*               1661               0-5.531988190E+005.3636072883E+01+
*       -3.515700265E+00               0
GRID*               1662               0-6.011836224E+005.2474348533E+01+
*       -3.950857792E+00               0
GRID*               1663               0-7.464904032E+005.3188699314E+01+
*       -4.570129646E+00               0
GRID*               1664               0-4.961871434E+005.3460045533E+01+
*       -2.981257582E-01               0
GRID*               1665               0-6.493423472E+005.3177159687E+01+
*       1.0749572465E+00               0
GRID*               1666               0-5.244639566E+005.1484821033E+01+
*       -1.809841756E+00               0
GRID*               1667               0-4.063180256E+005.1573134471E+01+
*       1.3995383244E-01               0
GRID*               1668               0-6.776191604E+005.1201935187E+01+
*       -4.367587511E-01               0
GRID*               1669               0-7.779377484E+005.1761115270E+01+
*       -2.612055815E+00               0
GRID*               1670               0-6.880686306E+004.9874204207E+01+
*       -2.173976224E+00               0
GRID*               1671               0-3.522844776E+005.2330357604E+01+
*       -1.062829889E+00               0
GRID*               1672               0-2.624153598E+005.0443446542E+01+
*       -6.247502980E-01               0
GRID*               1673               06.4866008310E+003.8249390726E+01+
*       -1.141262581E+00               0
GRID*               1674               05.9075895741E+003.9857315654E+01+
*       1.0523150437E+00               0
GRID*               1675               07.2915723647E+003.6183382944E+01+
*       -1.173359222E+00               0
GRID*               1676               08.5878944749E+003.8693383447E+01+
*       -2.617193324E-01               0
GRID*               1677               06.7125611077E+003.7791307872E+01+
*       1.0202184032E+00               0
GRID*               1678               08.6915106062E+004.3450275634E+01+
*       3.2585740126E-01               0
GRID*               1679               08.8956583835E+004.2553405141E+01+
*       7.3727657825E-01               0
GRID*               1680               08.6660895969E+004.3588905319E+01+
*       1.2899193584E+00               0
GRID*               1681               08.8982188209E+003.9779832375E+01+
*       -3.200507080E+00               0
GRID*               1682               09.0685214781E+003.9186174075E+01+
*       -2.393422383E+00               0
GRID*               1683               09.1324594447E+004.1143270279E+01+
*       -1.586809627E+00               0
GRID*               1684               07.5486823174E+003.9395953326E+01+
*       -1.843320146E+00               0
GRID*               1685               09.3027621019E+004.0549611979E+01+
*       -7.797249295E-01               0
GRID*               1686               05.5034547982E+004.1517463255E+01+
*       -1.427181873E+00               0
GRID*               1687               03.6281214310E+004.0615387680E+01+
*       -1.452441371E-01               0
GRID*               1688               07.5271353055E+004.2241566945E+01+
*       3.3755711534E-01               0
GRID*               1689               05.2476671624E+004.2999638971E+01+
*       -8.600020655E-01               0
GRID*               1690               05.6518019384E+004.1339491370E+01+
*       1.6194948510E+00               0
GRID*               1691               06.8030403870E+004.2531739921E+01+
*       -1.428306017E+00               0
GRID*               1692               07.0588280228E+004.1049564206E+01+
*       -1.995485824E+00               0
GRID*               1693               01.0107733636E+013.8483604196E+01+
*       -8.118215700E-01               0
GRID*               1694               09.4891360208E+004.0000565713E+01+
*       4.0801366277E-02               0
GRID*               1695               01.0294107554E+013.7934557930E+01+
*       8.7047258188E-03               0
GRID*               1696               08.3536538511E+003.7329945544E+01+
*       -1.875416786E+00               0
GRID*               1697               0-8.806515142E+004.1131190813E+01+
*       1.9099780700E+00               0
GRID*               1698               0-8.408351839E+004.1433393243E+01+
*       3.3526431529E+00               0
GRID*               1699               0-6.732871033E+004.1037434729E+01+
*       2.3186246616E+00               0
GRID*               1700               0-8.587138565E+004.2144751779E+01+
*       1.5344248969E+00               0
GRID*               1701               0-8.188975261E+004.2446954209E+01+
*       2.9770899797E+00               0
GRID*               1702               0-8.621353940E+004.1956020453E+01+
*       5.6449084944E-01               0
GRID*               1703               0-8.853367825E+004.3263699327E+01+
*       -4.093121194E-01               0
GRID*               1704               0-7.363048222E+004.2042911172E+01+
*       -9.784339004E-02               0
GRID*               1705               0-8.825501717E+004.1059149960E+01+
*       1.5307167245E-01               0
GRID*               1706               0-9.057515602E+004.2366828833E+01+
*       -8.207312964E-01               0
GRID*               1707               0-5.177510496E+004.1505383790E+01+
*       -8.743907374E-01               0
GRID*               1708               0-5.177510496E+004.1505383790E+01+
*       1.7503503162E+00               0
GRID*               1709               0-6.277495555E+004.4149027641E+01+
*       2.4922103995E+00               0
GRID*               1710               0-6.964884918E+004.2345113602E+01+
*       1.3448216928E+00               0
GRID*               1711               0-9.111946669E+004.0131370812E+01+
*       2.0030320379E+00               0
GRID*               1712               0-8.713783365E+004.0433573242E+01+
*       3.4456971208E+00               0
GRID*               1713               0-1.059257361E+013.8264973751E+01+
*       1.9866463524E+00               0
GRID*               1714               0-8.611661273E+003.8868835238E+01+
*       8.5957389323E-01               0
GRID*               1715               0-7.222738646E+003.9383851268E+01+
*       2.1664790354E+00               0
GRID*               1716               0-9.203650978E+003.8779989781E+01+
*       3.2935514946E+00               0
GRID*               1717               0-8.703365583E+003.7517454207E+01+
*       2.1500933499E+00               0
GRID*               1718               0-1.045744474E+013.8671135452E+01+
*       1.0865076874E+00               0
GRID*               1719               0-8.976817800E+004.0537532513E+01+
*       1.1028933729E+00               0
GRID*               1720               0-9.163191719E+003.9988486247E+01+
*       2.8236707712E-01               0
GRID*               1721               0-1.064381866E+013.8122089186E+01+
*       2.6598139158E-01               0
GRID*               1722               0-7.641283466E+003.6370914200E+01+
*       1.4480453391E+00               0
GRID*               1723               0-6.160656529E+003.8237311260E+01+
*       1.4644310246E+00               0
GRID*               1724               0-5.550126503E+007.4062302604E+01+
*       5.7605673840E+00               0
GRID*               1725               0-1.434232005E+007.3609139201E+01+
*       3.6896036325E+00               0
GRID*               1726               0-2.003990182E+007.4685315633E+01+
*       4.7410859837E+00               0
GRID*               1727               08.0201208441E-027.3618375148E+01+
*       4.4095548482E+00               0
GRID*               1728               01.9736207172E-017.5045642681E+01+
*       4.4116644110E+00               0
GRID*               1729               0-2.721820651E+007.5596481282E+01+
*       4.9837980676E+00               0
GRID*               1730               0-5.204683970E-017.5956808330E+01+
*       4.6543764949E+00               0
GRID*               1731               0-3.709565475E+007.4948522591E+01+
*       5.7605673840E+00               0
GRID*               1732               0-3.505005806E+007.6477207484E+01+
*       5.7605673840E+00               0
GRID*               1733               08.5120886107E+004.4793550102E+01+
*       4.5236846132E-01               0
GRID*               1734               08.6572952311E+004.3639006960E+01+
*       -6.440766462E-01               0
GRID*               1735               06.8027083212E+004.2531516864E+01+
*       2.3326278729E+00               0
GRID*               1736               0-1.529245205E+012.7221342669E+01+
*       -3.113822663E+00               0
GRID*               1737               0-1.616612578E+012.5372134061E+01+
*       -1.733146982E+00               0
GRID*               1738               0-1.408366538E+012.8249228453E+01+
*       -2.600437263E+00               0
GRID*               1739               0-1.640775459E+012.8754495906E+01+
*       -1.535199819E+00               0
GRID*               1740               0-1.495733910E+012.6400019845E+01+
*       -1.219761582E+00               0
GRID*               1741               03.6692436143E+011.2361813328E+01+
*       3.2967591499E+00               0
GRID*               1742               03.4352705021E+018.6676036893E+00+
*       5.2094235587E+00               0
GRID*               1743               03.3221638684E+011.0416055916E+01+
*       2.8700543936E+00               0
GRID*               1744               03.4778426129E+019.6745810723E+00+
*       3.3455518737E+00               0
GRID*               1745               0-1.667271322E+012.8130754556E+01+
*       4.6407052100E-01               0
GRID*               1746               0-1.788149990E+012.7102868772E+01+
*       -4.931487905E-02               0
GRID*               1747               0-1.322212888E+012.4344282946E+01+
*       -1.948288878E-01               0
GRID*               1748               0-1.493750300E+012.6075017658E+01+
*       1.4890032150E+00               0
GRID*               1749               0-1.260491186E+012.5822544854E+01+
*       2.6458144062E+00               0
GRID*               1750               05.9377702236E+003.4201878949E+01+
*       -1.345148735E-01               0
GRID*               1751               05.1902787209E+003.5739390222E+01+
*       0.0000000000E+00               0
GRID*               1752               05.0418966878E+003.3798009381E+01+
*       9.2533160049E-01               0
GRID*               1753               04.2944051851E+003.5335520654E+01+
*       1.0598464740E+00               0
GRID*               1754               0-1.689139427E+012.6637679031E+01+
*       -4.774292610E+00               0
GRID*               1755               0-1.242096116E+012.2283182198E+01+
*       5.2817607740E-01               0
GRID*               1756               0-1.144169196E+012.2259259158E+01+
*       -7.053344771E-01               0
GRID*               1757               0-1.056801823E+012.4108467766E+01+
*       -2.086010158E+00               0
GRID*               1758               0-1.502678696E+009.4752411128E+01+
*       -6.138439048E+00               0
GRID*               1759               0-1.651324440E+009.2894352052E+01+
*       -6.971194305E+00               0
GRID*               1760               0-2.498476860E+009.3925312196E+01+
*       -6.667244743E+00               0
GRID*               1761               0-1.965577954E+009.4610934067E+01+
*       -6.667244743E+00               0
GRID*               1762               0-1.118425535E+009.3579973922E+01+
*       -6.971194305E+00               0
GRID*               1763               0-1.838731109E+009.3797778995E+01+
*       -5.436784482E+00               0
GRID*               1764               0-3.743555079E+009.1666694237E+01+
*       -3.927997898E+00               0
GRID*               1765               0-4.254655085E+009.3652286514E+01+
*       -4.325702903E+00               0
GRID*               1766               0-1.987376853E+009.1939719919E+01+
*       -6.269539739E+00               0
GRID*               1767               0-4.403300829E+009.1794227438E+01+
*       -5.158458160E+00               0
GRID*               1768               0-4.185328620E+009.4533162720E+01+
*       -6.667244743E+00               0
GRID*               1769               0-4.145773841E+009.5035753803E+01+
*       -2.279557474E+00               0
GRID*               1770               0-2.860847129E+009.5858706635E+01+
*       -1.390305741E+00               0
GRID*               1771               0-7.312823216E-019.1415677374E+01+
*       -2.485145781E+00               0
GRID*               1772               0-3.038325054E+009.2653652181E+01+
*       6.7208122665E-01               0
GRID*               1773               0-3.634673835E+009.3050161526E+01+
*       -1.881852469E+00               0
GRID*               1774               0-4.457002280E+009.7554350518E+01+
*       -5.000000000E+00               0
GRID*               1775               0-2.470801095E+009.8110364236E+01+
*       -6.687168087E+00               0
GRID*               1776               0-2.830402974E+009.6150255972E+01+
*       -6.667244743E+00               0
GRID*               1777               03.3793805774E+003.4054373039E+01+
*       9.4776063197E-01               0
GRID*               1778               02.6030136485E+003.5554491940E+01+
*       1.0790039876E+00               0
GRID*               1779               01.0297334298E+011.3437442522E+02+
*       -7.240002459E+00               0
GRID*               1780               01.0894691535E+011.3283251943E+02+
*       -7.240022471E+00               0
GRID*               1781               02.7651106454E-017.1284247410E+01+
*       -3.366690736E+00               0
GRID*               1782               02.3136236170E+007.0863477953E+01+
*       -4.326133562E+00               0
GRID*               1783               09.5547985201E+002.4679577511E+01+
*       -5.349731771E+00               0
GRID*               1784               01.2046543145E+012.4913596865E+01+
*       -5.886275228E+00               0
GRID*               1785               01.1002845087E+012.5851423876E+01+
*       -3.736007000E+00               0
GRID*               1786               01.0643277770E+012.2053748340E+01+
*       -6.485992995E+00               0
GRID*               1787               01.2091324337E+012.3225594705E+01+
*       -4.872268224E+00               0
GRID*               1788               0-7.169327655E-016.4448294234E+01+
*       1.1846589383E-01               0
GRID*               1789               0-6.634668563E-016.5169346176E+01+
*       -1.808163557E+00               0
GRID*               1790               03.4978695030E-016.5879765329E+01+
*       8.0719704662E-03               0
GRID*               1791               01.2613154949E-016.4326879230E+01+
*       -1.274212464E+00               0
GRID*               1792               04.4551524580E-016.6063822743E+01+
*       -3.518883814E+00               0
GRID*               1793               0-8.187597797E-016.6230286886E+01+
*       -3.533447539E+00               0
GRID*               1794               0-1.444190935E+013.0468476302E+01+
*       -2.970404074E+00               0
GRID*               1795               0-1.581830042E+013.0254205920E+01+
*       -1.995742490E+00               0
GRID*               1796               0-1.369273942E+013.2688184777E+01+
*       -5.016431836E+00               0
GRID*               1797               0-1.388775587E+013.2396535883E+01+
*       -4.078268850E+00               0
GRID*               1798               0-1.212052346E+013.1231205664E+01+
*       -5.343822607E+00               0
GRID*               1799               0-1.212841209E+013.2764819527E+01+
*       -5.441260715E+00               0
GRID*               1800               0-1.232342854E+013.2473170632E+01+
*       -4.503097729E+00               0
GRID*               1801               0-1.388168713E+013.0181536371E+01+
*       -1.496709524E+00               0
GRID*               1802               0-1.312462856E+013.0867630983E+01+
*       -3.445299178E+00               0
GRID*               1803               0-1.435259960E+013.1765313180E+01+
*       -6.209496864E+00               0
GRID*               1804               0-1.212074477E+013.1232056404E+01+
*       -6.209496864E+00               0
GRID*               1805               0-1.184222124E+012.9995716379E+01+
*       -6.634325743E+00               0
GRID*               1806               0-1.421999849E+013.1937073849E+01+
*       -4.801245548E+00               0
GRID*               1807               02.4986709134E+006.6055627963E+01+
*       7.1700111028E-01               0
GRID*               1808               01.6556065985E+006.6177042968E+01+
*       2.1096794683E+00               0
GRID*               1809               03.9204933659E-016.5342770801E+01+
*       2.9930046923E+00               0
GRID*               1810               02.6729666458E-016.6927903781E+01+
*       3.1316858537E+00               0
GRID*               1811               0-5.356027559E+007.7772493176E+01+
*       -5.551554296E+00               0
GRID*               1812               0-5.666193214E+007.3881754038E+01+
*       -5.769940457E+00               0
GRID*               1813               0-1.533326822E+008.2116679466E+01+
*       4.3026998822E+00               0
GRID*               1814               0-7.348961812E-018.1658579326E+01+
*       3.0163048899E+00               0
GRID*               1815               07.9843064050E-018.2635905704E+01+
*       4.9157914408E+00               0
GRID*               1816               0-1.509354362E+008.0722558935E+01+
*       4.1775841101E+00               0
GRID*               1817               08.2240310023E-018.1241785174E+01+
*       4.7906756687E+00               0
GRID*               1818               0-2.130926356E+007.3072438628E+01+
*       4.5999775348E+00               0
GRID*               1819               0-1.815407593E+007.5016437151E+01+
*       -3.831169975E+00               0
GRID*               1820               0-1.460739754E+008.2740819435E+01+
*       -4.818516753E+00               0
GRID*               1821               0-3.529241195E+008.1870042310E+01+
*       -2.609137647E+00               0
GRID*               1822               0-4.935221933E+008.1664838400E+01+
*       -5.290620895E+00               0
GRID*               1823               0-4.673496563E-027.2005498144E+01+
*       4.2684463993E+00               0
GRID*               1824               0-6.361764256E+006.8085412305E+01+
*       5.6395683875E+00               0
GRID*               1825               02.6657527080E+006.8175512970E+01+
*       3.6839905986E-01               0
GRID*               1826               0-1.180729540E+007.0398008705E+01+
*       -5.364968124E-01               0
GRID*               1827               0-1.087772586E+013.7529498012E+01+
*       -5.271812900E-01               0
GRID*               1828               0-1.038549705E+013.5978078007E+01+
*       -2.452651418E+00               0
GRID*               1829               0-5.422243639E+003.8921438586E+01+
*       5.1427841451E-01               0
GRID*               1830               0-5.581645272E+003.9845236189E+01+
*       1.6051061791E+00               0
GRID*               1831               0-3.872854574E+003.8031442476E+01+
*       1.2434250148E+00               0
GRID*               1832               0-1.096460033E+013.7329701699E+01+
*       2.0371129230E+00               0
GRID*               1833               0-9.575677701E+003.7844717729E+01+
*       3.3440180652E+00               0
GRID*               1834               0-9.600059412E+003.5451018177E+01+
*       1.9254701402E+00               0
GRID*               1835               0-1.047237153E+013.5778281699E+01+
*       3.1193948554E+00               0
GRID*               1836               0-1.120787470E+013.6815126351E+01+
*       1.2217253630E+00               0
GRID*               1837               0-1.071564590E+013.5263706351E+01+
*       2.3040072955E+00               0
GRID*               1838               0-1.147942885E+013.6303010025E+01+
*       4.1631860332E-01               0
GRID*               1839               0-9.079385779E+003.2849075636E+01+
*       5.9747054202E-01               0
GRID*               1840               0-8.388774968E+003.4833402926E+01+
*       1.3135304656E+00               0
GRID*               1841               0-2.737950839E-028.3020014595E+01+
*       -4.169609970E+00               0
GRID*               1842               01.4809356816E+008.2033384606E+01+
*       -4.634708143E+00               0
GRID*               1843               01.5049081413E+008.0639264075E+01+
*       -4.509592371E+00               0
GRID*               1844               0-3.407048663E-038.1625894064E+01+
*       -4.044494197E+00               0
GRID*               1845               05.0273348088E+008.0317510520E+01+
*       -3.736594511E+00               0
GRID*               1846               05.2871182297E+007.9006830235E+01+
*       -5.952979584E+00               0
GRID*               1847               03.0016476963E+008.1183282045E+01+
*       -5.283614927E+00               0
GRID*               1848               05.0671111420E+008.0528029198E+01+
*       -5.952979584E+00               0
GRID*               1849               05.9438974788E+007.5313815506E+01+
*       -3.715826616E+00               0
GRID*               1850               05.4404600482E+007.7058437816E+01+
*       -5.764006184E+00               0
GRID*               1851               0-8.771313601E-019.2552166720E+01+
*       6.3430096175E+00               0
GRID*               1852               0-1.559943059E+009.3430764593E+01+
*       6.9977021349E+00               0
GRID*               1853               0-1.619933211E+009.2342929064E+01+
*       6.8453074826E+00               0
GRID*               1854               0-1.085228714E+009.1455835206E+01+
*       6.8453074826E+00               0
GRID*               1855               0-1.025238562E+009.2543670735E+01+
*       6.9977021349E+00               0
GRID*               1856               0-1.828499695E+009.2179719993E+01+
*       5.0977333931E+00               0
GRID*               1857               0-2.511311394E+009.3058317866E+01+
*       5.7524259105E+00               0
GRID*               1858               0-1.768509543E+009.3267555522E+01+
*       5.2501280454E+00               0
GRID*               1859               0-5.360275265E-019.1241749611E+01+
*       3.1297014399E+00               0
GRID*               1860               0-3.791833539E-018.9682923686E+01+
*       5.4660032378E+00               0
GRID*               1861               09.2930865062E-018.9786316717E+01+
*       2.6446122032E+00               0
GRID*               1862               05.2821466479E-019.0008898298E+01+
*       5.7055257285E+00               0
GRID*               1863               0-1.206533655E+008.9347501882E+01+
*       6.3442113912E+00               0
GRID*               1864               0-1.117156252E+008.8157444805E+01+
*       5.2683220423E+00               0
GRID*               1865               0-1.675094411E+008.9938852310E+01+
*       5.9929337698E+00               0
GRID*               1866               0-4.685607562E-019.0872980763E+01+
*       6.5418925867E+00               0
GRID*               1867               05.4044948068E-019.3098372433E+01+
*       6.0453191099E+00               0
GRID*               1868               04.8045932843E-019.2010536904E+01+
*       5.8929244576E+00               0
GRID*               1869               01.4235455485E+009.3084363394E+01+
*       6.1440674424E+00               0
GRID*               1870               06.5954859990E-029.3625993210E+01+
*       6.5941526023E+00               0
GRID*               1871               0-4.085706065E-019.2953446078E+01+
*       6.7987259582E+00               0
GRID*               1872               09.4902008199E-019.2411816262E+01+
*       6.3486407983E+00               0
GRID*               1873               04.7452546130E-019.2939437039E+01+
*       6.8974742907E+00               0
GRID*               1874               0-4.685607588E-019.1865610549E+01+
*       6.6463313060E+00               0
GRID*               1875               0-1.274000425E+008.9716270730E+01+
*       2.9320202445E+00               0
GRID*               1876               0-2.566472593E+009.0654241112E+01+
*       4.9000521976E+00               0
GRID*               1877               04.8773660776E+009.0439878768E+01+
*       -4.826230904E+00               0
GRID*               1878               04.4273392683E+008.8625662528E+01+
*       -3.570301308E+00               0
GRID*               1879               04.7323668973E+009.1836468300E+01+
*       -3.143481932E+00               0
GRID*               1880               0-3.033582090E-029.1400331853E+01+
*       -5.533481868E+00               0
GRID*               1881               0-1.413951051E+009.0393029833E+01+
*       -5.302240465E+00               0
GRID*               1882               06.0689854243E-028.5571154753E+01+
*       5.0242717858E+00               0
GRID*               1883               08.9377402237E-028.6739208856E+01+
*       5.5856718744E+00               0
GRID*               1884               01.9947568831E+008.3813432679E+01+
*       5.5646982242E+00               0
GRID*               1885               02.2274810720E+008.2384399291E+01+
*       5.5646982242E+00               0
GRID*               1886               04.7234228815E+008.4328927704E+01+
*       5.1291483115E+00               0
GRID*               1887               0-4.367277796E+008.8938026444E+01+
*       3.9738571912E+00               0
GRID*               1888               01.3590442699E+013.1569453047E+01+
*       -1.319815864E+00               0
GRID*               1889               01.3646629521E+013.0136429613E+01+
*       1.5499718530E+00               0
GRID*               1890               01.3561356209E+012.7348896197E+01+
*       -1.455682002E-02               0
GRID*               1891               01.3729046842E+013.0230297352E+01+
*       -7.703785495E-01               0
GRID*               1892               06.8651930304E-015.1646140269E+01+
*       -1.676774098E+00               0
GRID*               1893               01.1812998972E-015.4633122164E+01+
*       -2.764009718E+00               0
GRID*               1894               01.1274293346E+005.5441460352E+01+
*       -2.834730140E+00               0
GRID*               1895               02.2326317501E+005.4694240114E+01+
*       -1.643625588E+00               0
GRID*               1896               02.1217951406E+005.3618004960E+01+
*       -2.491347114E+00               0
GRID*               1897               09.0483500203E-015.4222168891E+01+
*       1.5793119932E+00               0
GRID*               1898               02.2460947354E-015.4707162203E+01+
*       2.8325690228E+00               0
GRID*               1899               01.6968208559E+005.3880231884E+01+
*       2.4291946365E+00               0
GRID*               1900               01.2339062161E+005.5515500392E+01+
*       2.9032894445E+00               0
GRID*               1901               03.3401484857E+005.5140401180E+01+
*       3.1233231037E+00               0
GRID*               1902               02.3373678229E+005.6396974936E+01+
*       2.2868265072E+00               0
GRID*               1903               02.0082966088E+005.5103643435E+01+
*       9.6284905601E-01               0
GRID*               1904               07.9835812053E-015.4148128851E+01+
*       -4.055355036E-01               0
GRID*               1905               0-9.589419855E-015.5236516455E+01+
*       -9.421546229E-01               0
GRID*               1906               03.3544348071E-015.5783397359E+01+
*       6.8559304411E-02               0
GRID*               1907               0-3.335527038E+018.7122920617E+00+
*       -2.395543746E+00               0
GRID*               1908               0-3.099045539E+018.5373983003E+00+
*       -5.209423559E+00               0
GRID*               1909               0-3.303809710E+019.5208667016E+00+
*       -4.686120187E+00               0
GRID*               1910               0-3.097590251E+011.0509367560E+01+
*       -5.223276693E+00               0
GRID*               1911               0-3.183695000E+011.2893878642E+01+
*       -5.223276693E+00               0
GRID*               1912               0-3.384498294E+011.3628140616E+01+
*       -5.766156651E+00               0
GRID*               1913               0-3.327165808E+011.4410368945E+01+
*       -3.503338017E+00               0
GRID*               1914               0-3.182205224E+011.4897223435E+01+
*       -5.237181366E+00               0
GRID*               1915               0-3.475118139E+017.3195833195E+00+
*       -3.464831229E+00               0
GRID*               1916               0-3.537236667E+017.1370289540E+00+
*       -2.005407670E+00               0
GRID*               1917               0-3.679882310E+018.3030517208E+00+
*       -2.941527857E+00               0
GRID*               1918               0-3.397645566E+018.5297376962E+00+
*       -9.361201868E-01               0
GRID*               1919               0-3.682606784E+011.0658049474E+01+
*       9.5000812815E-01               0
GRID*               1920               0-3.725687215E+011.1947880136E+01+
*       -9.361201869E-01               0
GRID*               1921               0-3.583041573E+011.2660672343E+01+
*       2.5415689988E-12               0
GRID*               1922               0-3.720271049E+011.3670642968E+01+
*       -2.016156651E+00               0
GRID*               1923               0-3.677190618E+011.2380812305E+01+
*       -3.902284966E+00               0
GRID*               1924               0-3.682606784E+011.0658049474E+01+
*       -2.822248502E+00               0
GRID*               1925               0-3.537236667E+017.1370289540E+00+
*       2.0054076702E+00               0
GRID*               1926               0-3.583041573E+016.0485240996E+00+
*       3.7976285933E-12               0
GRID*               1927               01.6816339101E+009.5819767039E+01+
*       -4.095244039E+00               0
GRID*               1928               04.2544384331E-029.4224222484E+01+
*       -1.993599053E+00               0
GRID*               1929               02.9033915131E+009.2653652181E+01+
*       -6.032933120E-01               0
GRID*               1930               04.5424810388E+009.4249196737E+01+
*       -2.704938298E+00               0
GRID*               1931               03.0808694381E+009.5858706635E+01+
*       -2.665680280E+00               0
GRID*               1932               0-2.133586435E+009.1346487224E+01+
*       6.8453074826E+00               0
GRID*               1933               0-3.024964618E+009.2061876026E+01+
*       5.7524259105E+00               0
GRID*               1934               0-4.520683081E+009.1178894127E+01+
*       3.0786568145E+00               0
GRID*               1935               0-4.370352001E+009.3089031482E+01+
*       5.7524259105E+00               0
GRID*               1936               0-4.330797222E+009.3591622564E+01+
*       2.6401131798E+00               0
GRID*               1937               0-2.871559334E+008.9821008342E+01+
*       6.6476262871E+00               0
GRID*               1938               02.4655729920E-019.3909135202E+01+
*       -6.395556929E+00               0
GRID*               1939               0-3.277631385E-019.3963028043E+01+
*       -6.877579965E+00               0
GRID*               1940               05.7432043766E-019.4150712262E+01+
*       -6.830748285E+00               0
GRID*               1941               05.7432043766E-019.3868811775E+01+
*       -6.799970088E+00               0
GRID*               1942               0-3.277631385E-019.3681127556E+01+
*       -6.846801768E+00               0
GRID*               1943               03.0571659196E-019.2354963986E+01+
*       -6.235136434E+00               0
GRID*               1944               0-9.915786898E-019.2766818851E+01+
*       -5.740734043E+00               0
GRID*               1945               01.2438596170E+009.3965854062E+01+
*       -5.288445333E+00               0
GRID*               1946               09.0780720411E-019.3011221930E+01+
*       -4.586790767E+00               0
GRID*               1947               01.2486380966E+009.1224655882E+01+
*       -6.763942130E+00               0
GRID*               1948               01.1894788038E+009.2778827098E+01+
*       -6.924362625E+00               0
GRID*               1949               01.2078001681E+009.2542648205E+01+
*       -6.188304754E+00               0
GRID*               1950               02.2909423734E+009.2756948750E+01+
*       -6.924362625E+00               0
GRID*               1951               01.9161909339E+009.4075559735E+01+
*       -6.924362625E+00               0
GRID*               1952               02.9134932516E+009.4132278594E+01+
*       -5.817251028E+00               0
GRID*               1953               02.1459431931E+009.4153538281E+01+
*       -5.241613653E+00               0
GRID*               1954               0-2.177519838E-019.5575363960E+01+
*       -5.249187315E+00               0
GRID*               1955               0-5.538043967E-019.4620731828E+01+
*       -4.547532749E+00               0
GRID*               1956               05.7432043766E-019.3556775344E+01+
*       -6.765969693E+00               0
GRID*               1957               0-3.277631385E-019.3369091125E+01+
*       -6.812801373E+00               0
GRID*               1958               05.7432043766E-019.3181854664E+01+
*       -6.725386449E+00               0
GRID*               1959               0-3.277631385E-019.2994170445E+01+
*       -6.772218129E+00               0
GRID*               1960               0-6.638155513E-019.1577464554E+01+
*       -6.021261359E+00               0
GRID*               1961               06.3347973041E-019.1165609690E+01+
*       -6.515663751E+00               0
GRID*               1962               06.3347973041E-019.0635053661E+01+
*       -6.460527234E+00               0
GRID*               1963               0-6.638155513E-019.1046908526E+01+
*       -5.966124843E+00               0
GRID*               1964               04.3731376194E+009.6400908752E+01+
*       -3.317251028E+00               0
GRID*               1965               04.3731376194E+009.6400908752E+01+
*       -5.817251028E+00               0
GRID*               1966               02.2571737720E+009.5626113866E+01+
*       -5.817251028E+00               0
GRID*               1967               03.4870658805E+009.7816765477E+01+
*       -5.000000000E+00               0
GRID*               1968               01.0584374348E+013.2175508312E+01+
*       1.4599134670E+00               0
GRID*               1969               09.0571262947E+003.0760300810E+01+
*       -2.641558771E-03               0
GRID*               1970               01.2598714542E+009.5569395006E+01+
*       -6.924362625E+00               0
GRID*               1971               06.8433159231E-019.5763048180E+01+
*       -5.202355635E+00               0
GRID*               1972               07.9556217119E-019.7235623764E+01+
*       -5.777993010E+00               0
GRID*               1973               04.5820358174E+009.3746605655E+01+
*       -5.817251028E+00               0
GRID*               1974               0-1.695138300E-016.0478530167E+01+
*       2.7630830599E+00               0
GRID*               1975               02.3965144157E-016.2643343466E+01+
*       1.5619743422E-01               0
GRID*               1976               0-4.257765596E-026.2091407172E+01+
*       2.9041915088E+00               0
GRID*               1977               03.3723508940E+005.7391089427E+01+
*       -3.057479604E+00               0
GRID*               1978               02.8077991446E+006.0764823986E+01+
*       -3.344056984E+00               0
GRID*               1979               01.5740643705E+006.1455480400E+01+
*       -1.772017888E+00               0
GRID*               1980               02.9314660780E-016.2204751720E+01+
*       -2.735857637E+00               0
GRID*               1981               0-1.059276282E+006.0653733232E+01+
*       -2.728845139E+00               0
GRID*               1982               0-1.222817264E+006.2343471840E+01+
*       -2.747994075E+00               0
GRID*               1983               0-7.649760551E-015.7137569428E+01+
*       -2.983120451E+00               0
GRID*               1984               01.8081257158E+003.6174862090E+01+
*       2.1614146885E-04               0
GRID*               1985               01.5453819690E+005.6738911943E+01+
*       1.4369438640E+00               0
GRID*               1986               03.2714004695E+006.0540474662E+01+
*       3.1860429352E+00               0
GRID*               1987               02.8957036830E+006.2386915435E+01+
*       3.3602819535E+00               0
GRID*               1988               01.4733862156E+006.1952687052E+01+
*       2.8920550713E+00               0
GRID*               1989               01.4204970267E+006.3147466729E+01+
*       -1.868242500E+00               0
GRID*               1990               01.6839393578E-016.3789884701E+01+
*       -2.874538798E+00               0
GRID*               1991               02.6542318008E+006.2456810315E+01+
*       -3.440281596E+00               0
GRID*               1992               06.8726863229E+005.9216720788E+01+
*       2.8587403307E+00               0
GRID*               1993               01.5981388877E+006.0367554072E+01+
*       2.7533739099E+00               0
GRID*               1994               03.3961531415E+005.8955341682E+01+
*       3.0473617738E+00               0
GRID*               1995               01.7875778475E+012.6755426718E+01+
*       -2.774530091E-01               0
GRID*               1996               01.9037327437E+012.7165322605E+01+
*       8.4912324464E-01               0
GRID*               1997               01.8190996445E+012.7700839823E+01+
*       -7.705602661E-01               0
GRID*               1998               01.8053521451E+012.7930027125E+01+
*       1.2051392322E+00               0
GRID*               1999               01.3306341322E+012.2488812072E+01+
*       -2.155873388E+00               0
GRID*               2000               01.3943558188E+012.1132234145E+01+
*       6.7050448566E-01               0
GRID*               2001               05.6898318747E-043.5413331253E+01+
*       9.1554342057E-01               0
GRID*               2002               01.6673224972E+012.7903177941E+01+
*       -2.035345083E+00               0
GRID*               2003               01.5051109959E+012.6326201921E+01+
*       -2.186661832E-01               0
GRID*               2004               01.7109469641E+012.1668809657E+01+
*       2.3225591130E+00               0
GRID*               2005               0-9.513469058E-018.7559040212E+01+
*       6.1206957552E+00               0
GRID*               2006               0-9.800344538E-018.6390986109E+01+
*       5.5592956666E+00               0
GRID*               2007               0-4.597686037E+008.6010412358E+01+
*       4.0539072718E+00               0
GRID*               2008               0-4.422641607E+008.8234562564E+01+
*       6.6476262871E+00               0
GRID*               2009               0-4.825769821E+009.0345661357E+01+
*       4.8262309040E+00               0
GRID*               2010               08.9377402237E-028.7756238469E+01+
*       5.6836395203E+00               0
GRID*               2011               0-3.643864429E-018.8164715850E+01+
*       5.8482704878E+00               0
GRID*               2012               02.4853218308E+009.4344195675E+01+
*       5.5054837941E+00               0
GRID*               2013               0-2.491629425E+008.9242055422E+01+
*       -6.532700726E+00               0
GRID*               2014               0-5.035866376E+008.7788550144E+01+
*       -5.129148311E+00               0
GRID*               2015               0-1.419657871E+009.0983327505E+01+
*       -6.269539739E+00               0
GRID*               2016               0-1.505977819E+008.9564170620E+01+
*       -6.532700726E+00               0
GRID*               2017               0-2.405309477E+009.0661212308E+01+
*       -6.269539739E+00               0
GRID*               2018               0-5.570055538E-029.6360894366E+01+
*       1.0825214899E+00               0
GRID*               2019               0-1.249927784E+009.5162192867E+01+
*       -2.556709994E-02               0
GRID*               2020               0-6.638155513E-019.2039538312E+01+
*       -6.070563563E+00               0
GRID*               2021               06.3347973041E-019.1627683447E+01+
*       -6.564965954E+00               0
GRID*               2022               0-4.821233453E+009.0515719826E+01+
*       -5.158458160E+00               0
GRID*               2023               0-1.928192554E+009.5263307819E+01+
*       -6.667244743E+00               0
GRID*               2024               0-1.081040135E+009.4232347675E+01+
*       -6.971194305E+00               0
GRID*               2025               0-1.794952142E-019.9885142089E+01+
*       5.0423756218E+00               0
GRID*               2026               01.7111851610E+009.6987150303E+01+
*       6.4578668191E+00               0
GRID*               2027               01.4688349759E+009.3575408381E+01+
*       2.7422607765E+00               0
GRID*               2028               04.5071600296E+009.5209892533E+01+
*       2.0701795498E+00               0
GRID*               2029               01.7507170981E+008.9363111002E+01+
*       6.3602182459E+00               0
GRID*               2030               01.7029617618E+009.1364749608E+01+
*       6.5476169750E+00               0
GRID*               2031               01.9457955055E+009.0555104011E+01+
*       5.4078352208E+00               0
GRID*               2032               09.4902008458E-019.1419186475E+01+
*       6.2442020790E+00               0
GRID*               2033               01.7379809295E+012.0296287188E+01+
*       -4.001647289E+00               0
GRID*               2034               01.8368869453E+011.6210772467E+01+
*       -3.812408349E+00               0
GRID*               2035               01.7323176371E+011.7270392741E+01+
*       -6.521600475E+00               0
GRID*               2036               0-1.206533655E+008.8757641622E+01+
*       6.2844693245E+00               0
GRID*               2037               0-2.022675216E+008.8989298919E+01+
*       6.6476262871E+00               0
GRID*               2038               03.3536201055E+018.2665195999E+00+
*       -2.062667722E+00               0
GRID*               2039               03.8220995925E+008.9464040508E+01+
*       2.6390800040E+00               0
GRID*               2040               04.0765149484E+009.0037333580E+01+
*       4.0186764057E+00               0
GRID*               2041               09.9677542094E-018.8082213080E+01+
*       5.9231620111E+00               0
GRID*               2042               04.6160412737E+009.3826425244E+01+
*       4.1163249790E+00               0
GRID*               2043               04.0287596120E+009.2038972186E+01+
*       4.2060751348E+00               0
GRID*               2044               03.0122727571E+009.1270184893E+01+
*       1.4428521172E+00               0
GRID*               2045               03.6979753773E+017.8572792590E+00+
*       -2.608651833E+00               0
GRID*               2046               03.4581843790E+016.9021077697E+00+
*       -4.353244163E+00               0
GRID*               2047               03.5796824123E+015.9551714893E+00+
*       -5.755407670E+00               0
GRID*               2048               03.6109471136E+016.0269467728E+00+
*       -3.388610462E+00               0
GRID*               2049               01.1118072341E+011.3186644958E+02+
*       -3.940340004E+00               0
GRID*               2050               01.1141839693E+011.2995320126E+02+
*       -4.010440848E+00               0
GRID*               2051               01.1198125130E+011.3088098793E+02+
*       -2.464276713E+00               0
GRID*               2052               0-2.206756988E+005.3438974556E+01+
*       -1.726769984E+00               0
GRID*               2053               0-1.584511107E+005.1701628316E+01+
*       -1.681628673E+00               0
GRID*               2054               0-1.095881090E+006.3956348844E+01+
*       1.7252839826E+00               0
GRID*               2055               0-2.990226151E+006.4180020486E+01+
*       3.4462951421E+00               0
GRID*               2056               0-3.442741844E+006.0362325051E+01+
*       -3.224238410E+00               0
GRID*               2057               0-3.569678018E+005.8749448047E+01+
*       -3.083129961E+00               0
GRID*               2058               01.8215735279E+005.2295098904E+01+
*       2.2905134751E+00               0
GRID*               2059               03.4649011577E+005.3555268199E+01+
*       2.9846419423E+00               0
GRID*               2060               0-1.952884640E+005.6664728564E+01+
*       -2.008986882E+00               0
GRID*               2061               0-2.079820814E+005.5051851560E+01+
*       -1.867878433E+00               0
GRID*               2062               0-3.696614192E+005.7136571042E+01+
*       -2.942021512E+00               0
GRID*               2063               0-8.919122292E-015.5524692424E+01+
*       -2.842012003E+00               0
GRID*               2064               0-2.015654841E+003.8216640608E+01+
*       -1.173451711E+00               0
GRID*               2065               0-3.872854574E+003.8031442476E+01+
*       -1.090827765E+00               0
GRID*               2066               0-4.583931919E+006.0311443740E+01+
*       3.6580081998E+00               0
GRID*               2067               0-4.425724155E+006.2134652659E+01+
*       3.7272038882E+00               0
GRID*               2068               0-6.266617298E+006.1919325430E+01+
*       4.4868215475E+00               0
GRID*               2069               0-1.836923480E+011.6210350852E+01+
*       3.8119773488E+00               0
GRID*               2070               0-1.732684494E+011.7267126761E+01+
*       6.5236165689E+00               0
GRID*               2071               0-1.987456849E+011.9490520555E+01+
*       5.2359531150E+00               0
GRID*               2072               0-1.784549691E+011.9398311574E+01+
*       4.2595696839E+00               0
GRID*               2073               0-1.346375769E+012.7726644792E+01+
*       3.1182749299E-03               0
GRID*               2074               0-1.804414630E+012.2490200548E+01+
*       -5.243622209E+00               0
GRID*               2075               0-1.478485957E+001.1278510395E+02+
*       -1.646269661E+00               0
GRID*               2076               0-3.084875680E+001.1122086523E+02+
*       -3.743765829E+00               0
GRID*               2077               0-5.065184767E+001.1265619390E+02+
*       -1.085887023E+00               0
GRID*               2078               0-3.672557017E+001.1365696236E+02+
*       -3.908130772E+00               0
GRID*               2079               0-1.751991897E+001.0957863948E+02+
*       5.9972505796E+00               0
GRID*               2080               01.8963404697E-011.1141629024E+02+
*       6.2512264580E+00               0
GRID*               2081               01.8566426300E-021.0927877568E+02+
*       5.9972505796E+00               0
GRID*               2082               0-3.350410220E+001.1492132218E+02+
*       1.0707941694E+00               0
GRID*               2083               01.3794553797E+001.1246274457E+02+
*       -1.962467478E+00               0
GRID*               2084               0-5.021465509E-021.1559340527E+02+
*       -2.910195890E+00               0
GRID*               2085               0-2.691642939E+001.1536437530E+02+
*       -3.526129440E+00               0
GRID*               2086               0-4.084270689E+001.1436360684E+02+
*       -7.038856918E-01               0
GRID*               2087               0-4.815397954E+001.1177605133E+02+
*       1.1581143881E+00               0
GRID*               2088               0-4.867210802E+001.1339033885E+02+
*       2.9704133717E+00               0
GRID*               2089               0-5.294694466E+001.1491303803E+02+
*       1.0529344699E+00               0
GRID*               2090               0-5.157185355E+001.1439913142E+02+
*       4.6368295324E+00               0
GRID*               2091               0-5.584669019E+001.1592183060E+02+
*       2.7193506305E+00               0
GRID*               2092               01.6411900033E+012.9474061493E+01+
*       -1.306612448E+00               0
GRID*               2093               01.7751928529E+012.8097122968E+01+
*       -1.524419872E+00               0
GRID*               2094               01.8006699395E+012.7862601107E+01+
*       -2.454210355E+00               0
GRID*               2095               01.6666670899E+012.9239539632E+01+
*       -2.236402930E+00               0
GRID*               2096               01.6503209874E+012.8359944477E+01+
*       1.2718863234E+00               0
GRID*               2097               01.6640684868E+012.8130757175E+01+
*       -7.038131750E-01               0
GRID*               2098               01.6253663461E+012.5178450699E+01+
*       1.5392258907E+00               0
GRID*               2099               01.5018569855E+012.6553781155E+01+
*       1.1128657247E+00               0
GRID*               2100               01.6818427844E+012.9305357582E+01+
*       7.7877906627E-01               0
GRID*               2101               01.6542136626E+012.9550303810E+01+
*       1.8492408272E+00               0
GRID*               2102               01.7777230232E+012.8174973354E+01+
*       2.2756009932E+00               0
GRID*               2103               01.6125336604E+012.9949006887E+01+
*       9.7313198674E-01               0
GRID*               2104               01.8603742925E+012.5197869328E+01+
*       -3.809235693E-01               0
GRID*               2105               01.8594109660E+012.3474972979E+01+
*       2.4815797116E+00               0
GRID*               2106               01.9893133617E+012.3655681563E+01+
*       1.6324564670E+00               0
GRID*               2107               0-2.760531494E+003.6642502781E+01+
*       -9.693113490E-01               0
GRID*               2108               01.6952398013E+012.6264509834E+01+
*       4.5991232446E+00               0
GRID*               2109               01.7385821167E+012.7556183598E+01+
*       3.0861491539E+00               0
GRID*               2110               01.6599915700E+012.6836079412E+01+
*       5.9870259093E+00               0
GRID*               2111               01.8251421970E+012.6445218418E+01+
*       5.6250000000E+00               0
GRID*               2112               01.9037327437E+012.7165322605E+01+
*       2.7241232446E+00               0
GRID*               2113               01.8684845124E+012.7736892183E+01+
*       4.1120259093E+00               0
GRID*               2114               01.5310557411E+012.6568454673E+01+
*       2.7666246681E+00               0
GRID*               2115               0-1.421339906E+011.9953664029E+01+
*       3.7641505929E+00               0
GRID*               2116               0-1.785332186E+012.1316788461E+01+
*       5.2359531150E+00               0
GRID*               2117               0-1.530559832E+011.9093394667E+01+
*       6.5236165689E+00               0
GRID*               2118               0-1.439734976E+012.3493026685E+01+
*       5.8817889218E+00               0
GRID*               2119               0-1.329732555E+012.2434819159E+01+
*       2.1459395147E+00               0
GRID*               2120               0-1.482740625E+012.5773261238E+01+
*       5.8817889218E+00               0
GRID*               2121               0-3.536758162E+003.5142377997E+01+
*       -8.380673959E-01               0
GRID*               2122               0-1.808268271E+003.6174880510E+01+
*       -2.169928355E-04               0
GRID*               2123               0-2.584494939E+003.4674755727E+01+
*       1.3102696029E-01               0
GRID*               2124               0-1.650756245E+012.9573857189E+01+
*       -1.937384958E+00               0
GRID*               2125               0-2.165416050E+012.3581038866E+01+
*       2.2989052543E+00               0
GRID*               2126               0-1.634478575E+012.9725194105E+01+
*       -1.130635912E-01               0
GRID*               2127               0-1.755357243E+012.8697308321E+01+
*       -6.264489912E-01               0
GRID*               2128               0-1.781853106E+012.8073566971E+01+
*       1.3728213489E+00               0
GRID*               2129               03.7930363907E+006.4876215463E+01+
*       1.2297107492E-01               0
GRID*               2130               03.5761375830E+007.4002031269E+01+
*       -4.648063737E+00               0
GRID*               2131               03.2564219921E+007.1921983539E+01+
*       -4.702385017E+00               0
GRID*               2132               01.1103609795E+006.6806488776E+01+
*       -3.123613883E+00               0
GRID*               2133               01.9165235909E+011.5178990767E+01+
*       -6.619066993E+00               0
GRID*               2134               02.1902958642E+011.8403173726E+01+
*       -3.750000000E+00               0
GRID*               2135               02.1712278030E+011.6222828751E+01+
*       -2.869066993E+00               0
GRID*               2136               02.2348288692E+011.3462294494E+01+
*       -4.342565106E+00               0
GRID*               2137               02.2538969305E+011.5642639470E+01+
*       -5.223498113E+00               0
GRID*               2138               03.6997886889E+001.1311423766E+02+
*       -1.441500912E+00               0
GRID*               2139               05.3178763602E+001.1186396105E+02+
*       -3.221512383E+00               0
GRID*               2140               02.6038438851E+011.1263121888E+01+
*       -4.285322496E+00               0
GRID*               2141               02.7427427735E+018.5375675934E+00+
*       -4.836824478E+00               0
GRID*               2142               02.6023665218E+018.9105485130E+00+
*       -4.271287310E+00               0
GRID*               2143               0-4.078009131E+006.4925303338E+01+
*       -3.602382137E-01               0
GRID*               2144               0-2.873964657E+006.2607033556E+01+
*       -3.384843654E+00               0
GRID*               2145               0-4.786952465E+005.8766603231E+01+
*       3.5943850575E+00               0
GRID*               2146               0-4.901455921E+005.6949399347E+01+
*       3.5656771087E+00               0
GRID*               2147               05.8144026198E-015.8929880132E+01+
*       1.4525068699E+00               0
GRID*               2148               0-5.208688768E+005.5486964272E+01+
*       3.6432917717E+00               0
GRID*               2149               0-6.935397250E+005.6897779043E+01+
*       4.5254433895E+00               0
GRID*               2150               0-7.156914250E+005.5496861859E+01+
*       3.0129992237E+00               0
GRID*               2151               0-7.090902288E+005.4921900320E+01+
*       4.5738944916E+00               0
GRID*               2152               0-2.337569164E+006.6020638965E+01+
*       3.7301551305E+00               0
GRID*               2153               04.6330684238E-016.4196229566E+01+
*       1.4384818689E+00               0
GRID*               2154               0-7.452895148E-016.7122111948E+01+
*       3.1486768662E+00               0
GRID*               2155               0-1.900488086E+012.4674157745E+01+
*       4.6166050546E-01               0
GRID*               2156               0-1.897644633E+012.7536320656E+01+
*       -1.024292610E+00               0
GRID*               2157               0-2.012919837E+012.3388842173E+01+
*       -3.368622209E+00               0
GRID*               2158               0-2.036478592E+012.4483868278E+01+
*       -3.890468850E-01               0
GRID*               2159               0-1.765061970E+012.8577392156E+01+
*       5.4098517447E+00               0
GRID*               2160               0-1.704078800E+012.9117833032E+01+
*       6.3368665570E+00               0
GRID*               2161               0-1.744324540E+012.7078461036E+01+
*       6.5729851877E+00               0
GRID*               2162               0-1.638091055E+012.7071271781E+01+
*       6.3368665570E+00               0
GRID*               2163               0-1.209515609E+012.3164452314E+01+
*       4.8792294527E+00               0
GRID*               2164               0-2.006941818E+012.2207419505E+01+
*       5.2359531150E+00               0
GRID*               2165               0-2.004098365E+012.5069582415E+01+
*       5.6250000000E+00               0
GRID*               2166               0-1.184293724E+012.9997963844E+01+
*       6.6343257427E+00               0
GRID*               2167               0-1.113909545E+012.7446365797E+01+
*       5.0161146645E+00               0
GRID*               2168               0-9.503315730E+002.4688620409E+01+
*       5.3176318286E+00               0
GRID*               2169               0-1.203988642E+012.4857966158E+01+
*       5.8817889218E+00               0
GRID*               2170               0-1.094470557E+012.5804836067E+01+
*       3.6994207503E+00               0
GRID*               2171               0-1.065376625E+012.2048236657E+01+
*       6.4974405309E+00               0
GRID*               2172               0-8.602524763E+002.7277020049E+01+
*       4.4519575713E+00               0
GRID*               2173               01.3311809797E+012.4167402419E+01+
*       2.5278274728E-01               0
GRID*               2174               02.7427427716E+011.0699879186E+01+
*       -4.836824478E+00               0
GRID*               2175               02.3906575609E+012.2395544809E+01+
*       -6.071080449E+00               0
GRID*               2176               01.9225675799E+011.5089859460E+01+
*       6.5400599678E+00               0
GRID*               2177               01.5852874598E+013.0230652541E+01+
*       1.9075983588E+00               0
GRID*               2178               01.5240275514E+013.0935014760E+01+
*       1.9822701376E+00               0
GRID*               2179               01.5484887899E+013.0640920138E+01+
*       1.0881028634E+00               0
GRID*               2180               0-1.509493795E+013.1097984007E+01+
*       -3.842329737E-01               0
GRID*               2181               0-1.283331765E+013.0925491276E+01+
*       1.6904582157E-01               0
GRID*               2182               0-1.415059844E+013.0526336595E+01+
*       6.4394092606E-01               0
GRID*               2183               0-1.101485298E+013.2170812005E+01+
*       -3.178791562E+00               0
GRID*               2184               0-1.332753364E+013.2109595951E+01+
*       -2.604574300E+00               0
GRID*               2185               0-1.444864277E+013.1644662751E+01+
*       -4.019003923E+00               0
GRID*               2186               0-1.520570134E+013.0958568139E+01+
*       -2.070414268E+00               0
GRID*               2187               07.0075170989E+002.3974572394E+01+
*       -4.335693135E+00               0
GRID*               2188               01.8016891406E+012.8238699816E+01+
*       4.9067235628E+00               0
GRID*               2189               01.2486344542E+012.1927349187E+01+
*       -4.569180591E-01               0
GRID*               2190               01.2674592932E+012.5523980345E+01+
*       -2.573595127E+00               0
GRID*               2191               01.1462062661E+012.2438959453E+01+
*       6.9040915978E-01               0
GRID*               2192               01.5300656372E+012.9507695700E+01+
*       -4.860057505E-01               0
GRID*               2193               01.3593896314E+012.7121316963E+01+
*       -1.346088728E+00               0
GRID*               2194               01.1145752178E+012.7501996505E+01+
*       -5.020600971E+00               0
GRID*               2195               08.6540075535E+002.7267977151E+01+
*       -4.484057514E+00               0
GRID*               2196               01.0493446031E+012.9821934775E+01+
*       -4.077467371E+00               0
GRID*               2197               08.6395803239E+004.2891754566E+01+
*       5.0504470009E+00               0
GRID*               2198               08.2284337002E+004.2228824927E+01+
*       3.6258993517E+00               0
GRID*               2199               07.8539883641E+004.4449666114E+01+
*       3.7948588727E+00               0
GRID*               2200               0-6.081694542E+006.3480588020E+01+
*       4.5738878516E+00               0
GRID*               2201               0-8.722256889E-016.5509234944E+01+
*       3.0075684173E+00               0
GRID*               2202               01.3005384614E+012.7417496701E+01+
*       5.6675014235E+00               0
GRID*               2203               01.5080648369E+012.8405225627E+01+
*       5.9870259093E+00               0
GRID*               2204               01.3546550944E+012.9840884698E+01+
*       6.3077083975E+00               0
GRID*               2205               02.7112134006E+019.8893909222E+00+
*       -6.561824383E+00               0
GRID*               2206               02.8184706126E+019.8266579368E+00+
*       -5.775000095E+00               0
GRID*               2207               02.8184706107E+011.1988969530E+01+
*       -5.775000095E+00               0
GRID*               2208               01.0610690406E+013.3744231902E+01+
*       -1.516751147E+00               0
GRID*               2209               01.7263315000E+012.8896608170E+01+
*       5.9870259093E+00               0
GRID*               2210               01.5729217575E+013.0332267241E+01+
*       6.3077083975E+00               0
GRID*               2211               01.3618788768E+013.1336169441E+01+
*       2.6867158332E+00               0
GRID*               2212               01.4588789382E+013.1566912953E+01+
*       4.1172154564E+00               0
GRID*               2213               01.4027902476E+013.2318786084E+01+
*       4.1764803834E+00               0
GRID*               2214               01.5129512124E+013.1074430628E+01+
*       2.9608884293E-01               0
GRID*               2215               01.1599245771E+013.3769049508E+01+
*       3.1226480099E+00               0
GRID*               2216               08.8115626471E+002.8655492760E+01+
*       2.3745994639E+00               0
GRID*               2217               01.1842077009E+012.9995269246E+01+
*       6.6343257427E+00               0
GRID*               2218               01.0962436265E+012.8800623928E+01+
*       6.6343257427E+00               0
GRID*               2219               02.7030665587E+018.1376878304E+00+
*       -6.561824383E+00               0
GRID*               2220               02.8103237707E+018.0749548451E+00+
*       -5.775000095E+00               0
GRID*               2221               0-1.815225953E+001.2025363236E+02+
*       -7.240026914E+00               0
GRID*               2222               0-1.351873870E+001.1790625409E+02+
*       -7.691454304E+00               0
GRID*               2223               0-3.666277090E-011.1869105032E+02+
*       -5.881481027E+00               0
GRID*               2224               0-2.365465673E+001.1684144112E+02+
*       -7.691454304E+00               0
GRID*               2225               0-6.416267007E+001.2179641349E+02+
*       7.7501634451E-01               0
GRID*               2226               0-2.307961122E+001.1578136198E+02+
*       6.9252861228E+00               0
GRID*               2227               0-3.896185221E+001.1450524668E+02+
*       6.1502860274E+00               0
GRID*               2228               0-2.600351649E+001.1664327513E+02+
*       -4.458326945E+00               0
GRID*               2229               05.4330833072E-031.1506477223E+02+
*       -5.400710914E+00               0
GRID*               2230               0-2.360453332E+001.1517062745E+02+
*       -6.916454209E+00               0
GRID*               2231               0-2.451744622E+001.1389172763E+02+
*       -5.984256705E+00               0
GRID*               2232               01.0614889227E+013.7142170443E+01+
*       -1.762426806E+00               0
GRID*               2233               01.0447246372E+013.7536776540E+01+
*       -8.911270969E-01               0
GRID*               2234               09.5756770700E+003.7844740322E+01+
*       -3.344027619E+00               0
GRID*               2235               09.4080342142E+003.8239346418E+01+
*       -2.472727910E+00               0
GRID*               2236               01.0858163602E+013.6627595095E+01+
*       -9.470392456E-01               0
GRID*               2237               09.2503483002E+003.5263486916E+01+
*       -1.650784010E+00               0
GRID*               2238               01.0472371519E+013.5778281694E+01+
*       -3.119394843E+00               0
GRID*               2239               08.0390638675E+003.4645871670E+01+
*       7.4502837534E-01               0
GRID*               2240               08.0390638675E+003.4645871670E+01+
*       -1.038844348E+00               0
GRID*               2241               06.6852617264E+003.2664367676E+01+
*       0.0000000000E+00               0
GRID*               2242               07.2915723647E+003.6183382944E+01+
*       8.7954324882E-01               0
GRID*               2243               01.2490059856E+013.4596223755E+01+
*       -7.599622196E-03               0
GRID*               2244               01.1129717750E+013.6115478769E+01+
*       -1.416324859E-01               0
GRID*               2245               0-5.723357421E+001.1596133685E+02+
*       4.8574019912E+00               0
GRID*               2246               04.8778972085E+001.0971359112E+02+
*       -5.258222244E+00               0
GRID*               2247               04.1148292598E+001.1293848866E+02+
*       -5.463290139E+00               0
GRID*               2248               01.7944959507E+001.1228699557E+02+
*       -5.984256705E+00               0
GRID*               2249               02.9975430510E+001.1121246796E+02+
*       -3.742478948E+00               0
GRID*               2250               02.2344751023E+001.1443736550E+02+
*       -3.947546844E+00               0
GRID*               2251               02.7427427755E+016.4087366544E+00+
*       -4.836824478E+00               0
GRID*               2252               0-4.091033381E+005.1857697861E+01+
*       1.7219154623E+00               0
GRID*               2253               0-3.334159022E+005.1140655135E+01+
*       2.6388400047E+00               0
GRID*               2254               0-4.024739450E+005.2402215493E+01+
*       2.7808585342E+00               0
GRID*               2255               0-4.335360707E+005.0711554383E+01+
*       2.8511041664E+00               0
GRID*               2256               0-5.883435368E+005.3795855249E+01+
*       2.5040097497E+00               0
GRID*               2257               0-4.669963863E+005.4600450450E+01+
*       3.0634548600E+00               0
GRID*               2258               0-5.278698501E+005.2334379888E+01+
*       3.4850681058E+00               0
GRID*               2259               0-5.136291065E+005.2539071829E+01+
*       2.2886464128E+00               0
GRID*               2260               0-3.922819560E+005.3343667030E+01+
*       2.8480915231E+00               0
GRID*               2261               0-7.993882908E+005.0330803299E+01+
*       2.0054127262E+00               0
GRID*               2262               0-4.948192831E+005.8159209172E+01+
*       -3.541061175E+00               0
GRID*               2263               0-5.329639539E+005.5378517942E+01+
*       -3.606868243E+00               0
GRID*               2264               0-6.782707348E+005.6092868723E+01+
*       -4.226140097E+00               0
GRID*               2265               0-7.647882963E+005.0863731708E+01+
*       -4.314992260E+00               0
GRID*               2266               02.5115697706E+001.1838006057E+02+
*       -6.761052972E+00               0
GRID*               2267               06.6333321663E-011.1765736903E+02+
*       -7.691454304E+00               0
GRID*               2268               01.8464560302E+001.2015731960E+02+
*       -7.240000760E+00               0
GRID*               2269               06.1916958260E+001.1516201353E+02+
*       -5.463290139E+00               0
GRID*               2270               05.9053850347E+001.1430311711E+02+
*       -3.385990518E+00               0
GRID*               2271               04.6862197242E+001.1454322072E+02+
*       -5.463290139E+00               0
GRID*               2272               06.0367963474E+001.1375747923E+02+
*       -5.422700379E+00               0
GRID*               2273               06.5623416578E+001.1611757041E+02+
*       -3.644107840E+00               0
GRID*               2274               08.1494363005E+001.1800840736E+02+
*       -6.455817796E+00               0
GRID*               2275               04.7452546389E-019.3908294637E+01+
*       7.0028361276E+00               0
GRID*               2276               0-2.153249363E-019.7066748777E+01+
*       -5.777993010E+00               0
GRID*               2277               0-1.500251649E+009.6243795944E+01+
*       -6.667244743E+00               0
GRID*               2278               0-2.045248165E+009.6559740543E+01+
*       -6.667244743E+00               0
GRID*               2279               0-4.685607572E-019.1403536791E+01+
*       6.5970291033E+00               0
GRID*               2280               09.4902008357E-019.1949742504E+01+
*       6.2993385956E+00               0
GRID*               2281               0-8.420621925E-019.3318659633E+01+
*       6.9977021349E+00               0
GRID*               2282               0-2.247257963E+008.7814968836E+01+
*       6.6476262871E+00               0
GRID*               2283               0-5.200903390E-019.8610072049E+01+
*       4.4028901221E+00               0
GRID*               2284               09.1717047481E-039.6567581834E+01+
*       6.8605145003E+00               0
GRID*               2285               03.4329924594E-019.5656728726E+01+
*       6.8605145003E+00               0
GRID*               2286               0-1.716735494E-019.5604418451E+01+
*       6.8605145003E+00               0
GRID*               2287               08.7902775227E-029.4815479682E+01+
*       6.8605145003E+00               0
GRID*               2288               0-3.933544446E+009.7462303983E+01+
*       5.0000000000E+00               0
GRID*               2289               0-4.161453803E+009.5743334580E+01+
*       3.2524259105E+00               0
GRID*               2290               0-2.491968521E+009.4614078199E+01+
*       5.7524259105E+00               0
GRID*               2291               0-3.305071999E+011.5039569803E+01+
*       6.6251396734E-01               0
GRID*               2292               02.1380936588E+009.4225393828E+01+
*       7.0964504674E+00               0
GRID*               2293               01.3495075628E+009.3602156360E+01+
*       7.0964504674E+00               0
GRID*               2294               02.6125882795E+009.3697773051E+01+
*       6.5476169750E+00               0
GRID*               2295               01.8240021835E+009.3074535583E+01+
*       6.5476169750E+00               0
GRID*               2296               0-2.967226574E+009.6942036079E+01+
*       4.3605145003E+00               0
GRID*               2297               02.7046307369E+009.1049747570E+01+
*       6.5476169750E+00               0
GRID*               2298               02.7523860732E+008.9048108964E+01+
*       6.3602182459E+00               0
GRID*               2299               04.8353501797E+009.0531977140E+01+
*       5.1584581598E+00               0
GRID*               2300               05.8028227698E-019.5006572265E+01+
*       -6.924362625E+00               0
GRID*               2301               01.1597299398E-019.6672801023E+01+
*       -5.777993010E+00               0
GRID*               2302               0-1.538847618E+012.9874226158E+01+
*       4.4820522507E-01               0
GRID*               2303               0-1.653429402E+012.9817038574E+01+
*       1.3569560529E+00               0
GRID*               2304               0-1.588782636E+013.0475853555E+01+
*       1.1979507678E+00               0
GRID*               2305               0-1.569831809E+013.0384009087E+01+
*       -2.720688763E-01               0
GRID*               2306               0-1.464994862E+013.1127963992E+01+
*       1.3936864688E+00               0
GRID*               2307               0-1.552049026E+013.0897502402E+01+
*       1.9570405844E+00               0
GRID*               2308               0-1.686222149E+012.8222599025E+01+
*       1.9340901651E+00               0
GRID*               2309               0-1.876929330E+012.3579131640E+01+
*       -2.517914819E+00               0
GRID*               2310               0-1.365326596E+012.7818489260E+01+
*       1.4731379190E+00               0
GRID*               2311               0-8.733590510E+002.8196967427E+01+
*       3.0430603016E+00               0
GRID*               2312               0-1.301122959E+012.0683297184E+01+
*       6.4974405309E+00               0
GRID*               2313               0-6.959574483E+002.3982742239E+01+
*       4.3070397186E+00               0
GRID*               2314               02.0915911574E+011.4769889843E+01+
*       -6.240834945E-02               0
GRID*               2315               02.2655587599E+011.2081542493E+01+
*       -7.453565328E-02               0
GRID*               2316               0-2.091627692E+011.4769468228E+01+
*       6.1977348768E-02               0
GRID*               2317               0-2.242161061E+011.8049637931E+01+
*       1.4859531150E+00               0
GRID*               2318               0-2.218602305E+011.6954611826E+01+
*       -1.493622209E+00               0
GRID*               2319               01.6379359929E+012.9701640727E+01+
*       2.4919460371E-02               0
GRID*               2320               01.4897231962E+013.1380729247E+01+
*       1.1748761331E+00               0
GRID*               2321               01.5162052228E+013.0846851395E+01+
*       -1.035443065E+00               0
GRID*               2322               01.8363104013E+012.7555410414E+01+
*       -3.949561441E+00               0
GRID*               2323               01.6966731329E+012.7501018077E+01+
*       -3.503812537E+00               0
GRID*               2324               01.5765432371E+013.0132876475E+01+
*       -1.147607162E+00               0
GRID*               2325               0-2.652006724E+005.0728009931E+01+
*       9.5721133185E-01               0
GRID*               2326               0-8.766990338E+004.4681385568E+01+
*       -2.046167563E+00               0
GRID*               2327               0-8.827946815E+004.3402329011E+01+
*       -1.373374077E+00               0
GRID*               2328               0-8.612989352E+004.5886030351E+01+
*       -1.208616666E+00               0
GRID*               2329               0-8.673945829E+004.4606973795E+01+
*       -5.358231794E-01               0
GRID*               2330               0-8.797973790E+004.4513530972E+01+
*       -2.954256606E+00               0
GRID*               2331               0-8.612989352E+004.5886030351E+01+
*       -3.083616666E+00               0
GRID*               2332               0-8.444286688E+004.8029600801E+01+
*       -2.696711807E+00               0
GRID*               2333               0-7.691809039E+004.9051709730E+01+
*       -3.979995174E+00               0
GRID*               2334               0-6.720671504E+004.6930812087E+01+
*       -3.700516699E+00               0
GRID*               2335               0-7.860511703E+004.6908139280E+01+
*       -4.366900033E+00               0
GRID*               2336               0-7.668993208E+004.5822165586E+01+
*       -3.924208217E+00               0
GRID*               2337               0-7.078949404E+004.9166570690E+01+
*       -3.378081513E+00               0
GRID*               2338               02.7153057240E+007.4180800578E+01+
*       -3.380489704E+00               0
GRID*               2339               02.3955901331E+007.2100752848E+01+
*       -3.434810983E+00               0
GRID*               2340               01.3063711573E+006.4074814561E+01+
*       4.5803510863E-02               0
GRID*               2341               08.4358518115E-026.3704284176E+01+
*       3.0452999577E+00               0
GRID*               2342               06.7708337605E+005.5984333226E+01+
*       1.1387946566E+00               0
GRID*               2343               03.6135596615E+005.1753640829E+01+
*       2.7403637831E+00               0
GRID*               2344               0-3.476387324E+011.1646550332E+01+
*       3.3594050083E+00               0
GRID*               2345               05.0501110529E+005.5684289462E+01+
*       -3.639363426E+00               0
GRID*               2346               07.0005941352E+005.3152208945E+01+
*       2.7456914281E+00               0
GRID*               2347               04.9771081433E+005.1011751355E+01+
*       3.1612997932E+00               0
GRID*               2348               05.5228369373E+004.8934709589E+01+
*       2.6451777912E+00               0
GRID*               2349               07.2089593003E+005.0335008460E+01+
*       3.6469360341E+00               0
GRID*               2350               04.7683697945E+005.8518651617E+01+
*       3.5239435499E+00               0
GRID*               2351               04.5876124667E+005.6288844096E+01+
*       3.7385860412E+00               0
GRID*               2352               07.0326929593E+005.7183643837E+01+
*       2.7753270960E+00               0
GRID*               2353               06.7851431967E+005.6135441437E+01+
*       4.2350815088E+00               0
GRID*               2354               06.8519356314E+005.4953836315E+01+
*       2.9899695873E+00               0
GRID*               2355               06.9304198612E+005.3956599688E+01+
*       9.9761472836E-01               0
GRID*               2356               07.8980045243E+004.6606629123E+01+
*       4.8633689858E-01               0
GRID*               2357               07.5400601488E+004.7456400535E+01+
*       -2.591493416E+00               0
GRID*               2358               07.6686770196E+004.5822168351E+01+
*       -2.048892188E+00               0
GRID*               2359               05.0845038919E+005.3725002451E+01+
*       3.8491475745E+00               0
GRID*               2360               04.7826589279E+005.4855657742E+01+
*       3.6920656941E+00               0
GRID*               2361               0-3.590287377E+011.4970062560E+01+
*       2.5375139673E+00               0
GRID*               2362               0-3.475151709E+011.5239597708E+01+
*       3.3621813664E+00               0
GRID*               2363               0-4.078060901E+005.4355879812E+01+
*       -3.007828580E+00               0
GRID*               2364               0-4.204997075E+005.2743002808E+01+
*       -2.866720131E+00               0
GRID*               2365               0-1.530906341E+004.7291373567E+01+
*       -1.594419152E+00               0
GRID*               2366               0-5.817423406E+005.3220893710E+01+
*       4.0649050175E+00               0
GRID*               2367               0-7.765648888E+005.3230791297E+01+
*       3.4346124695E+00               0
GRID*               2368               0-6.058656472E+005.1877152195E+01+
*       4.1361297757E+00               0
GRID*               2369               0-7.332135354E+005.3578158805E+01+
*       4.6451192498E+00               0
GRID*               2370               0-7.607017501E+005.0077285344E+01+
*       4.5710171152E+00               0
GRID*               2371               0-7.921489207E+005.1250652430E+01+
*       3.4945789987E+00               0
GRID*               2372               0-4.370409567E+004.7923468817E+01+
*       2.2132165357E+00               0
GRID*               2373               0-8.819152450E+004.3452430653E+01+
*       5.6062192806E-01               0
GRID*               2374               0-5.380618391E+005.1392928351E+01+
*       3.4178351169E+00               0
GRID*               2375               0-7.650162436E+004.9869763843E+01+
*       -4.088660403E+00               0
GRID*               2376               0-6.993718407E+005.0430480198E+01+
*       -3.497955238E+00               0
GRID*               2377               0-3.303855649E+011.6439025203E+01+
*       3.2880746000E+00               0
GRID*               2378               0-5.357671667E+005.2041097024E+01+
*       -3.133820770E+00               0
GRID*               2379               0-4.458980489E+005.0154185962E+01+
*       -2.695741179E+00               0
GRID*               2380               0-3.238508710E+011.7433244148E+01+
*       2.1634295424E+00               0
GRID*               2381               01.6046283165E+012.7023294393E+01+
*       -6.127236283E+00               0
GRID*               2382               01.7092805305E+012.6048515732E+01+
*       -4.876576254E+00               0
GRID*               2383               01.4833473426E+012.5828117639E+01+
*       -5.886275228E+00               0
GRID*               2384               01.6960177255E+012.8837379768E+01+
*       -3.704870384E+00               0
GRID*               2385               01.2120678857E+013.2776764530E+01+
*       -4.586911094E+00               0
GRID*               2386               01.4215758100E+011.9952026234E+01+
*       -3.769598160E+00               0
GRID*               2387               01.7391302818E+012.2211498095E+01+
*       -4.980046814E+00               0
GRID*               2388               01.4404006490E+012.3548657393E+01+
*       -5.886275228E+00               0
GRID*               2389               01.1842952476E+012.9997818087E+01+
*       -6.634325743E+00               0
GRID*               2390               01.3000741115E+012.0688808867E+01+
*       -6.485992995E+00               0
GRID*               2391               0-8.975334374E+001.2548874056E+02+
*       -7.240020034E+00               0
GRID*               2392               0-8.104877333E+001.2408287925E+02+
*       -7.239992697E+00               0
GRID*               2393               0-9.949987203E+001.2479763528E+02+
*       -5.430019996E+00               0
GRID*               2394               0-1.053328842E+011.2353780022E+02+
*       -7.240000153E+00               0
GRID*               2395               0-9.079530162E+001.2339177397E+02+
*       -5.429992658E+00               0
GRID*               2396               0-1.771634912E+012.8545971405E+01+
*       -2.450770358E+00               0
GRID*               2397               0-7.781042409E-019.4625582642E+01+
*       -6.971194305E+00               0
GRID*               2398               0-1.625256660E+009.5656542786E+01+
*       -6.667244743E+00               0
GRID*               2399               01.6762733031E+007.9144474923E+01+
*       5.5135392470E+00               0
GRID*               2400               03.0908280135E+007.5450044876E+01+
*       4.4793242183E+00               0
GRID*               2401               01.7045421290E+007.5157287809E+01+
*       4.7052593543E+00               0
GRID*               2402               05.0883818209E+007.4198549590E+01+
*       4.6673064373E+00               0
GRID*               2403               02.7626365500E+008.2701611043E+01+
*       -5.283614927E+00               0
GRID*               2404               01.2543213600E+008.3688241032E+01+
*       -4.818516753E+00               0
GRID*               2405               0-1.697985811E+001.1197644305E+02+
*       -5.984256705E+00               0
GRID*               2406               0-8.567723374E-011.1357672363E+02+
*       -5.984256705E+00               0
GRID*               2407               0-5.503350424E-011.1021546703E+02+
*       -3.574323482E+00               0
GRID*               2408               07.7091413057E-011.1357672363E+02+
*       -5.984256705E+00               0
GRID*               2409               03.0912474397E+001.1422821673E+02+
*       -5.463290139E+00               0
GRID*               2410               01.3300191151E+001.0871659019E+02+
*       -5.090066778E+00               0
GRID*               2411               09.4039173267E-021.1203496717E+02+
*       -5.984256705E+00               0
GRID*               2412               0-3.704376623E-011.0846456179E+02+
*       -5.090066778E+00               0
GRID*               2413               0-2.162462647E+001.0840603767E+02+
*       -5.090066778E+00               0
GRID*               2414               04.1076635040E-021.1687230509E+02+
*       -3.842393395E+00               0
GRID*               2415               0-4.697003284E+001.0941143587E+02+
*       -5.259509124E+00               0
GRID*               2416               0-5.665114475E+001.1237936759E+02+
*       6.1137715462E+00               0
GRID*               2417               0-3.920432420E+001.2000085025E+02+
*       1.3877751630E+00               0
GRID*               2418               0-4.228050153E-011.1921975277E+02+
*       2.2910130304E-01               0
GRID*               2419               0-6.078631171E+001.1389146759E+02+
*       5.9865435050E+00               0
GRID*               2420               01.2242234204E+001.1937226560E+02+
*       2.2905695924E-01               0
GRID*               2421               03.9275523437E+001.2055742439E+02+
*       3.8375543067E+00               0
GRID*               2422               03.6777987258E+001.1865338625E+02+
*       4.8240342308E+00               0
GRID*               2423               0-1.752734862E+008.3944469250E+01+
*       -5.770019369E+00               0
GRID*               2424               0-4.727732696E+008.4301238958E+01+
*       -5.129148311E+00               0
GRID*               2425               0-5.292193235E+007.8970296478E+01+
*       5.9529795841E+00               0
GRID*               2426               0-3.279120929E+007.9708844186E+01+
*       4.9516066657E+00               0
GRID*               2427               08.2879113740E-018.0387265283E+01+
*       3.5782374713E+00               0
GRID*               2428               01.9582404652E+012.1297968386E+01+
*       5.3824564670E+00               0
GRID*               2429               01.7808204193E+012.2754868792E+01+
*       5.3824564670E+00               0
GRID*               2430               01.9893133617E+012.3655681563E+01+
*       3.5074564670E+00               0
GRID*               2431               01.5732892267E+013.0360455709E+01+
*       1.8392474548E-01               0
GRID*               2432               01.8115343627E+012.7766466534E+01+
*       -3.269381373E+00               0
GRID*               2433               01.7068821487E+012.8741245195E+01+
*       -4.520041403E+00               0
GRID*               2434               09.6977056113E+002.6330150140E+01+
*       -6.634325743E+00               0
GRID*               2435               01.7583468252E+012.6947026051E+01+
*       6.4196976535E+00               0
GRID*               2436               01.7316581873E+012.8530189075E+01+
*       -5.200221471E+00               0
GRID*               2437               01.0518956611E+012.3828963427E+01+
*       1.9178079373E+00               0
GRID*               2438               01.9998113415E-011.2000474730E+02+
*       -7.240026914E+00               0
GRID*               2439               02.3257663924E+001.1571626533E+02+
*       -4.879744348E+00               0
GRID*               2440               08.6220542070E-011.1485562346E+02+
*       -6.916454209E+00               0
GRID*               2441               06.7361834825E+001.1870212542E+02+
*       -6.455817796E+00               0
GRID*               2442               06.6980599432E+001.1724247734E+02+
*       -6.455817796E+00               0
GRID*               2443               04.3478447712E+001.1902351187E+02+
*       -6.761052972E+00               0
GRID*               2444               04.3097212319E+001.1756386379E+02+
*       -6.761052972E+00               0
GRID*               2445               0-2.056640867E+009.9366403119E+01+
*       -6.687168087E+00               0
GRID*               2446               08.6033186582E-017.2262168084E+01+
*       -4.248661123E+00               0
GRID*               2447               0-8.423132820E+001.2225206450E+02+
*       -7.048173506E+00               0
GRID*               2448               0-1.849076687E-017.5206221664E+01+
*       -4.541748118E+00               0
GRID*               2449               03.2430081855E-017.4956525449E+01+
*       -4.519902531E+00               0
GRID*               2450               01.6425933589E+007.4571544882E+01+
*       -4.698621145E+00               0
GRID*               2451               01.8031302409E+007.3320673670E+01+
*       -4.624912579E+00               0
GRID*               2452               04.1891073528E+007.5083383077E+01+
*       -5.451820431E+00               0
GRID*               2453               05.6446917655E+007.5535040405E+01+
*       -5.764006184E+00               0
GRID*               2454               01.1118014928E+011.3186688564E+02+
*       -5.750395403E+00               0
GRID*               2455               01.1141782280E+011.2995363732E+02+
*       -5.820496247E+00               0
GRID*               2456               0-4.924479204E+008.2373402187E+01+
*       2.3578876503E+00               0
GRID*               2457               0-5.046681121E+008.3345114913E+01+
*       -1.145829332E+00               0
GRID*               2458               08.6970730487E+004.3421050724E+01+
*       2.1980084014E+00               0
GRID*               2459               08.8542678577E+004.2712804611E+01+
*       1.7800075171E+00               0
GRID*               2460               02.4443434467E+008.0935015205E+01+
*       5.5646982242E+00               0
GRID*               2461               0-3.058739834E+008.1235328268E+01+
*       4.9516066657E+00               0
GRID*               2462               0-5.071812140E+008.0496780560E+01+
*       5.9529795841E+00               0
GRID*               2463               0-5.535730526E+006.9308831093E+01+
*       -6.604576727E+00               0
GRID*               2464               0-6.005354530E+006.9658376445E+01+
*       -5.647293177E+00               0
GRID*               2465               0-4.257710807E+007.0586526567E+01+
*       -5.647293177E+00               0
GRID*               2466               0-3.193746166E-018.4223664409E+01+
*       -5.121112586E+00               0
GRID*               2467               09.6232625181E-018.4891890847E+01+
*       -5.770019369E+00               0
GRID*               2468               0-9.322484562E-017.7556803939E+01+
*       4.7367699307E+00               0
GRID*               2469               01.0898932308E+011.3281852839E+02+
*       2.3943315984E+00               0
GRID*               2470               01.1119505306E+011.3185712301E+02+
*       8.8512492163E-01               0
GRID*               2471               01.1198273773E+011.3085503470E+02+
*       2.3363430038E+00               0
GRID*               2472               0-6.964527059E+004.2345252017E+01+
*       -2.416146195E+00               0
GRID*               2473               0-8.385590029E+004.1520890274E+01+
*       -3.207962072E+00               0
GRID*               2474               0-9.016125076E+004.2526228303E+01+
*       -1.863462235E+00               0
GRID*               2475               0-8.858930267E+004.3234474416E+01+
*       -2.281463119E+00               0
GRID*               2476               0-8.228395220E+004.2229136387E+01+
*       -3.625962956E+00               0
GRID*               2477               0-5.581645272E+003.9845236189E+01+
*       -7.291466003E-01               0
GRID*               2478               0-6.732513174E+004.1037573143E+01+
*       -1.442343227E+00               0
GRID*               2479               06.5272966043E+001.2241097988E+02+
*       -7.240023596E+00               0
GRID*               2480               05.1632144104E+001.2153806357E+02+
*       -7.240023596E+00               0
GRID*               2481               08.8238951365E+001.2111892083E+02+
*       -6.870866566E+00               0
GRID*               2482               07.7205352921E+001.2152609947E+02+
*       -5.060889971E+00               0
GRID*               2483               07.4598129426E+001.2024600452E+02+
*       -6.870866566E+00               0
GRID*               2484               06.9970210467E+001.1998230878E+02+
*       -2.835859435E+00               0
GRID*               2485               07.7206505068E+001.2152618788E+02+
*       -3.250908205E+00               0
GRID*               2486               06.9969058319E+001.1998222037E+02+
*       -4.645841201E+00               0
GRID*               2487               0-3.405989736E+001.2070618633E+02+
*       -7.240008342E+00               0
GRID*               2488               0-5.257979306E+001.2143585848E+02+
*       -7.240008342E+00               0
GRID*               2489               03.6827310307E+001.2080077090E+02+
*       -7.240000760E+00               0
GRID*               2490               01.0903068553E+011.3280502425E+02+
*       -2.410468600E+00               0
GRID*               2491               01.1119504936E+011.3185712582E+02+
*       -9.248754748E-01               0
GRID*               2492               01.0550785061E+011.3371709406E+02+
*       -8.984172305E-01               0
GRID*               2493               09.5798857148E+001.2405433722E+02+
*       -5.429988667E+00               0
GRID*               2494               01.0299294896E+011.2563206157E+02+
*       -4.394508408E+00               0
GRID*               2495               01.0157974263E+011.2522152217E+02+
*       -6.023744823E+00               0
GRID*               2496               0-5.228346472E-011.1996175535E+02+
*       7.2400160886E+00               0
GRID*               2497               01.1240076747E+001.2011429648E+02+
*       7.2399953032E+00               0
GRID*               2498               0-3.116563838E+001.2053282625E+02+
*       7.2400117702E+00               0
GRID*               2499               0-4.419525309E+001.1964135682E+02+
*       7.2400117702E+00               0
GRID*               2500               03.9068787995E+001.0681806298E+02+
*       5.2370600455E+00               0
GRID*               2501               02.4571777052E+001.1517062745E+02+
*       -6.916454209E+00               0
GRID*               2502               0-5.096527297E+001.2079971246E+02+
*       4.3950042225E+00               0
GRID*               2503               0-7.654810473E-011.1485562346E+02+
*       -6.916454209E+00               0
GRID*               2504               08.8730657606E+001.1955228646E+02+
*       -6.870866566E+00               0
GRID*               2505               0-7.112586891E+001.1745974311E+02+
*       -5.240180042E+00               0
GRID*               2506               0-7.658890147E+001.1859012365E+02+
*       -3.637972194E+00               0
GRID*               2507               0-6.936176113E+001.1705062124E+02+
*       -3.223128412E+00               0
GRID*               2508               02.1996097089E+001.4073073448E+02+
*       -2.184304667E-05               0
GRID*               2509               02.1996097089E+001.4073073448E+02+
*       1.8099781951E+00               0
GRID*               2510               04.6207325578E-011.4073073448E+02+
*       1.2558544508E+00               0
GRID*               2511               07.6421261606E+001.3823786543E+02+
*       5.6429997825E+00               0
GRID*               2512               08.7560713985E+001.3701595476E+02+
*       5.6429648922E+00               0
GRID*               2513               08.3296332455E+001.3737800905E+02+
*       4.1777322131E+00               0
GRID*               2514               09.4435784835E+001.3615609837E+02+
*       4.1776973228E+00               0
GRID*               2515               03.8459578824E+001.3923709904E+02+
*       7.2400007605E+00               0
GRID*               2516               05.3264428332E+001.3849980799E+02+
*       7.2400235954E+00               0
GRID*               2517               03.8464665135E+001.4057820963E+02+
*       5.4300007223E+00               0
GRID*               2518               05.2294527642E+001.4115888940E+02+
*       7.2400001526E+00               0
GRID*               2519               05.3269514643E+001.3984091858E+02+
*       5.4300235572E+00               0
GRID*               2520               0-3.127902933E+011.0133820530E+01+
*       5.2232766933E+00               0
GRID*               2521               0-3.433815214E+011.0639572949E+01+
*       5.2232766933E+00               0
GRID*               2522               0-3.192305856E+011.2444616676E+01+
*       5.2232766933E+00               0
GRID*               2523               0-4.266111237E-011.1801599707E+02+
*       7.7174651397E+00               0
GRID*               2524               01.1198125500E+011.3088098512E+02+
*       -6.542763167E-01               0
GRID*               2525               01.1139431727E+011.2993487293E+02+
*       8.1041339972E-01               0
GRID*               2526               02.2840207924E+011.1662229557E+01+
*       -3.137390693E+00               0
GRID*               2527               02.3461444953E+019.0338425337E+00+
*       -4.596853620E+00               0
GRID*               2528               02.3276824628E+019.4531554698E+00+
*       -1.533998581E+00               0
GRID*               2529               02.2701186541E+001.1624489836E+02+
*       -2.389229325E+00               0
GRID*               2530               0-2.630356759E+011.6299592786E+01+
*       5.7750000954E+00               0
GRID*               2531               0-2.630356757E+011.8496306424E+01+
*       5.7750000954E+00               0
GRID*               2532               0-2.492981384E+011.9252808319E+01+
*       5.2376802370E+00               0
GRID*               2533               0-8.335815001E+001.2208721413E+02+
*       -3.251075662E+00               0
GRID*               2534               0-8.335735851E+001.2208711105E+02+
*       -5.061092060E+00               0
GRID*               2535               0-7.015809636E+001.2109040288E+02+
*       -3.251124067E+00               0
GRID*               2536               05.8108903610E+001.1651211179E+02+
*       -5.986052876E+00               0
GRID*               2537               04.3054142592E+001.1589331899E+02+
*       -5.986052876E+00               0
GRID*               2538               02.3476218586E+011.1386415909E+01+
*       -4.610888806E+00               0
GRID*               2539               0-3.541095051E+011.4008107412E+01+
*       5.6250000000E+00               0
GRID*               2540               0-3.190816080E+011.4447961468E+01+
*       5.2371813664E+00               0
GRID*               2541               0-3.369798991E+011.5207534907E+01+
*       5.5508932336E+00               0
GRID*               2542               0-2.447765619E+011.1948817480E+01+
*       6.3675748957E+00               0
GRID*               2543               0-2.409942572E+011.1119284695E+01+
*       5.2094629274E+00               0
GRID*               2544               0-2.204779709E+012.3305411760E+01+
*       3.8070335644E+00               0
GRID*               2545               0-2.983991997E+011.3877207777E+01+
*       5.2232766933E+00               0
GRID*               2546               0-2.982502221E+011.5880552570E+01+
*       5.2371813664E+00               0
GRID*               2547               0-1.825129933E+012.6447389564E+01+
*       -5.625000000E+00               0
GRID*               2548               0-1.026627798E+013.1896114066E+01+
*       1.1809626533E+00               0
GRID*               2549               0-1.828581734E+011.6305565104E+01+
*       -9.222499847E+00               0
GRID*               2550               0-1.922560875E+011.5089959334E+01+
*       -6.540452626E+00               0
GRID*               2551               0-1.418945273E+011.9970245673E+01+
*       -9.222499847E+00               0
GRID*               2552               0-1.418945273E+011.9970245673E+01+
*       9.2224998474E+00               0
GRID*               2553               0-1.828581734E+011.6305565104E+01+
*       9.2224998474E+00               0
GRID*               2554               0-1.916573138E+011.5178267396E+01+
*       6.6195388276E+00               0
GRID*               2555               0-2.329170636E+011.1805496015E+01+
*       -1.398901960E+00               0
GRID*               2556               0-2.240866153E+011.3373263062E+01+
*       -4.263950739E+00               0
GRID*               2557               0-2.239388789E+011.1020689687E+01+
*       -4.249915554E+00               0
GRID*               2558               0-2.327693272E+019.4529226402E+00+
*       -1.384866775E+00               0
GRID*               2559               0-2.080083880E+011.2919177935E+01+
*       -6.540452626E+00               0
GRID*               2560               0-2.253896930E+011.5642639470E+01+
*       -5.223498113E+00               0
GRID*               2561               0-2.411419935E+011.3471858071E+01+
*       -5.223498113E+00               0
GRID*               2562               0-2.365593701E+018.5347124945E+00+
*       -4.581479170E+00               0
GRID*               2563               0-2.143593068E+011.1853202094E+01+
*       -9.222499847E+00               0
GRID*               2564               0-2.206288791E+011.0433200743E+01+
*       -6.872016243E+00               0
GRID*               2565               02.1949958302E+011.9706171823E+01+
*       1.6324564670E+00               0
GRID*               2566               02.0915911574E+011.7254610451E+01+
*       -6.240834945E-02               0
GRID*               2567               01.5047626482E+012.0260905830E+01+
*       3.4124649870E+00               0
GRID*               2568               02.0800905849E+011.2919078061E+01+
*       6.5400599678E+00               0
GRID*               2569               02.4114199354E+011.3471858071E+01+
*       5.2234981130E+00               0
GRID*               2570               02.3291598262E+011.1805728845E+01+
*       1.3989624597E+00               0
GRID*               2571               02.2393954948E+011.1020589813E+01+
*       4.2495228952E+00               0
GRID*               2572               02.3276824628E+019.4531554698E+00+
*       1.3849272741E+00               0
GRID*               2573               02.3655928477E+018.5347359993E+00+
*       4.5814157378E+00               0
GRID*               2574               02.2062879377E+011.0433224247E+01+
*       6.8719528104E+00               0
GRID*               2575               02.1435930682E+011.1853202094E+01+
*       9.2224998474E+00               0
GRID*               2576               0-2.864362408E+002.5840086754E+01+
*       -2.905730367E+00               0
GRID*               2577               0-4.229901105E+002.5589681728E+01+
*       -5.642371756E+00               0
GRID*               2578               0-5.650094723E+007.5493219165E+01+
*       5.7640061845E+00               0
GRID*               2579               0-1.096258050E+012.8801071062E+01+
*       -6.634325743E+00               0
GRID*               2580               0-2.308724365E+012.2577583598E+01+
*       2.9868685391E+00               0
GRID*               2581               0-2.225017791E+012.0710716573E+01+
*       5.2359531150E+00               0
GRID*               2582               0-2.494420111E+012.1666594803E+01+
*       5.2509154241E+00               0
GRID*               2583               0-9.377199100E+002.2623546446E+01+
*       9.2224998474E+00               0
GRID*               2584               0-6.787051096E+002.3467243797E+01+
*       9.2224998474E+00               0
GRID*               2585               09.3771990999E+002.2623546446E+01+
*       9.2224998474E+00               0
GRID*               2586               01.4756101009E+002.5924175329E+01+
*       -5.642661139E+00               0
GRID*               2587               04.2280704555E+002.5590067707E+01+
*       -5.642672840E+00               0
GRID*               2588               02.7086067981E+002.4214550357E+01+
*       -6.485949662E+00               0
GRID*               2589               04.1852038726E+002.7138770174E+01+
*       -6.656711477E+00               0
GRID*               2590               04.0952702961E+002.4130713724E+01+
*       -9.222499847E+00               0
GRID*               2591               0-4.934867863E-042.4499977756E+01+
*       -6.485949662E+00               0
GRID*               2592               0-1.476560246E+002.7424151019E+01+
*       -6.656706842E+00               0
GRID*               2593               0-1.477053733E+002.5924128775E+01+
*       -5.642656504E+00               0
GRID*               2594               0-8.131393874E-042.5999138520E+01+
*       -5.650124219E+00               0
GRID*               2595               0-3.196526011E-042.7499160764E+01+
*       -6.664174557E+00               0
GRID*               2596               0-4.185660531E+002.7138723620E+01+
*       -6.656706842E+00               0
GRID*               2597               0-8.531228238E-012.6589479368E+01+
*       -4.205480874E+00               0
GRID*               2598               05.7951598286E+002.6005229739E+01+
*       -4.146563126E+00               0
GRID*               2599               0-1.476581547E+002.7424621768E+01+
*       6.6566935263E+00               0
GRID*               2600               0-1.221469431E+002.7793149734E+01+
*       3.9590060496E+00               0
GRID*               2601               01.4761035877E+002.7424197573E+01+
*       -6.656711477E+00               0
GRID*               2602               0-1.799264034E+012.8301025176E+01+
*       -1.380308597E+00               0
GRID*               2603               0-1.825759898E+012.7677283826E+01+
*       6.1896174296E-01               0
GRID*               2604               01.1062606951E+002.8458074510E+01+
*       2.5218884170E+00               0
GRID*               2605               04.9309121184E+008.1692527146E+01+
*       5.2906208946E+00               0
GRID*               2606               06.7870510959E+002.3467243797E+01+
*       9.2224998474E+00               0
GRID*               2607               04.0952702961E+002.4130713724E+01+
*       9.2224998474E+00               0
GRID*               2608               08.0512151566E+002.3036745383E+01+
*       -6.485961364E+00               0
GRID*               2609               03.6979753773E+017.8572792590E+00+
*       1.4021635069E+00               0
GRID*               2610               03.7437802827E+019.1354410394E+00+
*       -6.032441632E-01               0
GRID*               2611               01.5301929744E+011.9096660648E+01+
*       -6.521600475E+00               0
GRID*               2612               05.4332956638E-027.9451244892E+01+
*       4.7395166915E+00               0
GRID*               2613               07.5707921984E+003.0220435100E+01+
*       6.2186827598E-02               0
GRID*               2614               09.3771990999E+002.2623546446E+01+
*       -9.222499847E+00               0
GRID*               2615               02.1183078066E+012.2752453124E+01+
*       2.4451249746E+00               0
GRID*               2616               01.1831989389E+012.1335185146E+01+
*       9.2224998474E+00               0
GRID*               2617               0-4.095270296E+002.4130713724E+01+
*       -9.222499847E+00               0
GRID*               2618               0-2.709593772E+002.4214550357E+01+
*       -6.485949662E+00               0
GRID*               2619               0-1.386170011E+002.4416141123E+01+
*       -9.222499847E+00               0
GRID*               2620               02.8619925528E+002.5840365812E+01+
*       -2.906232515E+00               0
GRID*               2621               02.4008478710E+014.8794337934E+00+
*       -5.382986481E+00               0
GRID*               2622               02.3504541054E+016.7215348966E+00+
*       -5.382986481E+00               0
GRID*               2623               02.3923160484E+015.2521247854E+00+
*       -9.222499847E+00               0
GRID*               2624               02.3419222829E+017.0942258885E+00+
*       -9.222499847E+00               0
GRID*               2625               02.3725000381E+012.3850391348E+00+
*       -4.939276860E-12               0
GRID*               2626               02.3476128170E+014.7644729283E+00+
*       -1.632986481E+00               0
GRID*               2627               02.2655587599E+017.2277963810E+00+
*       -7.453565328E-02               0
GRID*               2628               02.3518704213E+014.5534472142E+00+
*       1.3120084782E+00               0
GRID*               2629               02.4069236582E+012.3794337934E+00+
*       -3.064877801E+00               0
GRID*               2630               02.4083129421E+014.6736304854E+00+
*       -3.078635083E+00               0
GRID*               2631               0-2.350455508E+016.7214685743E+00+
*       5.3830272024E+00               0
GRID*               2632               0-2.341922283E+017.0942258885E+00+
*       9.2224998474E+00               0
GRID*               2633               0-2.286868559E+018.7653899545E+00+
*       6.8875298875E+00               0
GRID*               2634               0-2.400849274E+014.8793674712E+00+
*       5.3830272024E+00               0
GRID*               2635               0-2.392316048E+015.2521247854E+00+
*       9.2224998474E+00               0
GRID*               2636               0-2.372500038E+012.3850391348E+00+
*       -4.940325256E-12               0
GRID*               2637               0-2.347614220E+014.7644066060E+00+
*       1.6330272024E+00               0
GRID*               2638               0-2.265569570E+017.2275635514E+00+
*       7.4596152723E-02               0
GRID*               2639               0-2.351871415E+014.5533954996E+00+
*       -1.312005240E+00               0
GRID*               2640               0-2.896901632E+016.7374173040E+00+
*       -5.775000095E+00               0
GRID*               2641               0-2.958664098E+018.9104037741E+00+
*       -5.775000095E+00               0
GRID*               2642               0-3.037283073E+016.3644118302E+00+
*       -5.209423559E+00               0
GRID*               2643               0-4.240402456E+001.0721527100E+02+
*       5.2322157137E+00               0
GRID*               2644               05.0499831023E+008.7804807457E+01+
*       5.1291483115E+00               0
GRID*               2645               03.5399611412E+011.1370841680E+01+
*       -1.886128315E+00               0
GRID*               2646               03.4763873243E+011.1646550332E+01+
*       -3.359405008E+00               0
GRID*               2647               03.4766414846E+011.3236252916E+01+
*       -3.348276693E+00               0
GRID*               2648               03.5402153015E+011.2960544264E+01+
*       -1.875000000E+00               0
GRID*               2649               03.7006998513E+011.0212277012E+01+
*       -2.489372478E+00               0
GRID*               2650               02.3648034158E+009.2368587917E+01+
*       6.5476169750E+00               0
GRID*               2651               0-1.168953718E+009.5849848190E+01+
*       -6.667244743E+00               0
GRID*               2652               0-1.715238231E+008.8504036975E+01+
*       -6.532700726E+00               0
GRID*               2653               0-5.813776237E-019.4029949277E+01+
*       -6.971194305E+00               0
GRID*               2654               01.1141806149E+011.2829972392E+02+
*       -7.630473967E+00               0
GRID*               2655               03.1998699411E+009.5485226109E+01+
*       6.4578668191E+00               0
GRID*               2656               02.4097365198E+016.9898320171E+00+
*       -3.092449409E+00               0
GRID*               2657               02.2868620809E+018.7655454132E+00+
*       -6.887390693E+00               0
GRID*               2658               02.5099650676E+018.9524993268E+00+
*       -5.209462927E+00               0
GRID*               2659               02.2655587599E+019.6357343176E+00+
*       -7.453565328E-02               0
GRID*               2660               02.3476128170E+017.1724108648E+00+
*       -1.632986481E+00               0
GRID*               2661               0-2.845065841E+011.6637269223E+01+
*       5.7750000954E+00               0
GRID*               2662               02.4099425721E+011.1119284695E+01+
*       5.2094629274E+00               0
GRID*               2663               02.4139941242E+016.7788063030E+00+
*       2.7714714056E+00               0
GRID*               2664               02.1868395854E+011.0932330782E+01+
*       -6.887390693E+00               0
GRID*               2665               02.0740465959E+011.3008209367E+01+
*       -6.619066993E+00               0
GRID*               2666               02.4114199354E+011.3471858071E+01+
*       -5.223498113E+00               0
GRID*               2667               02.1435930682E+011.1853202094E+01+
*       -9.222499847E+00               0
GRID*               2668               02.2868620809E+018.7655454132E+00+
*       -8.609890540E+00               0
GRID*               2669               02.4332001633E+012.2941966920E+00+
*       -4.181898526E+00               0
GRID*               2670               02.6010668550E+012.2941966920E+00+
*       -4.857731679E+00               0
GRID*               2671               02.4257350922E+012.5000000000E+00+
*       -6.486249924E+00               0
GRID*               2672               02.5936017839E+012.5000000000E+00+
*       -7.162083077E+00               0
GRID*               2673               01.8285817336E+011.6305565104E+01+
*       9.2224998474E+00               0
GRID*               2674               0-2.265569570E+011.2081309664E+01+
*       7.4596152726E-02               0
GRID*               2675               0-2.177265087E+011.3649076710E+01+
*       -2.790452626E+00               0
GRID*               2676               0-2.409737923E+016.9897656948E+00+
*       3.0924901298E+00               0
GRID*               2677               0-2.346150974E+019.0336870750E+00+
*       4.5969928149E+00               0
GRID*               2678               0-2.327693272E+019.4529226402E+00+
*       1.5340590801E+00               0
GRID*               2679               0-2.233401053E+011.1108997748E+01+
*       4.3290017550E+00               0
GRID*               2680               0-2.347614220E+017.1723445425E+00+
*       1.6330272024E+00               0
GRID*               2681               0-2.265569570E+019.6355014880E+00+
*       7.4596152724E-02               0
GRID*               2682               0-2.234878417E+011.3461571124E+01+
*       4.3430369406E+00               0
GRID*               2683               0-2.171277350E+011.3737384772E+01+
*       2.8695388276E+00               0
GRID*               2684               0-2.413995117E+016.7787545884E+00+
*       -2.771468167E+00               0
GRID*               2685               0-2.074096143E+011.3007485996E+01+
*       6.6195388276E+00               0
GRID*               2686               0-2.411419935E+011.3471858071E+01+
*       5.2234981130E+00               0
GRID*               2687               0-2.143593068E+011.1853202094E+01+
*       9.2224998474E+00               0
GRID*               2688               0-2.186846064E+011.0932175323E+01+
*       6.8875298875E+00               0
GRID*               2689               0-2.286868559E+018.7653899545E+00+
*       8.6100297349E+00               0
GRID*               2690               0-2.433200163E+012.2941966920E+00+
*       4.1818985259E+00               0
GRID*               2691               0-2.601066597E+012.2941966920E+00+
*       4.8577156750E+00               0
GRID*               2692               0-2.425735092E+012.5000000000E+00+
*       6.4862499237E+00               0
GRID*               2693               0-2.558935255E+014.7941966920E+00+
*       5.1956486022E+00               0
GRID*               2694               0-2.593601526E+012.5000000000E+00+
*       7.1620670728E+00               0
GRID*               2695               0-2.253896930E+011.5642639470E+01+
*       5.2234981130E+00               0
GRID*               2696               0-3.041811403E+011.8273878737E+01+
*       5.2371813664E+00               0
GRID*               2697               0-2.904375022E+011.9030595390E+01+
*       5.7750000954E+00               0
GRID*               2698               0-1.486265779E+013.1404282626E+01+
*       -1.263020264E+00               0
GRID*               2699               02.4801705312E+011.8896905632E+01+
*       5.2376802370E+00               0
GRID*               2700               02.6449286485E+011.6199543692E+01+
*       5.2376802370E+00               0
GRID*               2701               02.6434051371E+011.3809570861E+01+
*       5.2234981130E+00               0
GRID*               2702               03.0446937832E+011.3457597762E+01+
*       5.7750000954E+00               0
GRID*               2703               02.7823040236E+011.3246328159E+01+
*       5.7750000954E+00               0
GRID*               2704               02.9197404020E+011.4686325144E+01+
*       5.2371813664E+00               0
GRID*               2705               03.7010895555E+012.3666666349E+00+
*       -1.083687214E+00               0
GRID*               2706               03.7010892524E+012.3666666349E+00+
*       1.0826446173E+00               0
GRID*               2707               03.5372366672E+017.1370289540E+00+
*       2.0054076702E+00               0
GRID*               2708               03.5830415726E+014.1988001943E+00+
*       5.0006830555E-12               0
GRID*               2709               03.5372366672E+015.2873050488E+00+
*       2.0054076702E+00               0
GRID*               2710               0-3.701089251E+012.3666666349E+00+
*       1.0826483415E+00               0
GRID*               2711               0-3.701089334E+012.3666666349E+00+
*       -1.083686709E+00               0
GRID*               2712               0-3.476535766E+015.3781464060E+00+
*       -3.451064693E+00               0
GRID*               2713               0-3.537236667E+015.2873050488E+00+
*       -2.005407670E+00               0
GRID*               2714               05.5408971813E+007.6355267218E+01+
*       5.4777361704E+00               0
GRID*               2715               04.9118643967E+008.2500626005E+01+
*       -4.906280985E+00               0
GRID*               2716               0-2.495935775E+007.8828117983E+01+
*       4.1748373493E+00               0
GRID*               2717               01.0911314625E+011.2722212586E+02+
*       5.8128976191E+00               0
GRID*               2718               01.0313932635E+011.2568004214E+02+
*       4.0028998875E+00               0
GRID*               2719               01.0911290394E+011.2722194770E+02+
*       4.0029198990E+00               0
GRID*               2720               02.4916399790E+011.6863957332E+01+
*       -5.223498113E+00               0
GRID*               2721               02.6305388654E+011.6300714630E+01+
*       -5.775000095E+00               0
GRID*               2722               02.5503188219E+011.2908615369E+01+
*       -5.775000095E+00               0
GRID*               2723               02.8450738524E+011.4436373027E+01+
*       -5.775000095E+00               0
GRID*               2724               02.9840000065E+011.3873025219E+01+
*       -5.223276693E+00               0
GRID*               2725               02.8450738504E+011.6633086665E+01+
*       -5.775000095E+00               0
GRID*               2726               0-2.491457873E+011.6862835488E+01+
*       5.2234981130E+00               0
GRID*               2727               09.3037175836E+001.2625240672E+02+
*       -7.240012099E+00               0
GRID*               2728               08.7062800871E+001.2471017369E+02+
*       -7.239988705E+00               0
GRID*               2729               0-3.229878574E+011.6957018045E+01+
*       5.2371813664E+00               0
GRID*               2730               07.2813994916E-019.3975215871E+01+
*       7.0964504674E+00               0
GRID*               2731               08.8417665675E-019.3398748096E+01+
*       7.0964504674E+00               0
GRID*               2732               04.5467148082E+009.4707301451E+01+
*       6.4578668191E+00               0
GRID*               2733               03.9594331466E+009.2919848393E+01+
*       6.5476169750E+00               0
GRID*               2734               08.3788597797E-019.4179921399E+01+
*       -6.924362625E+00               0
GRID*               2735               0-3.218012991E-019.4818888046E+01+
*       -6.971194305E+00               0
GRID*               2736               01.0746375083E+011.2674026489E+02+
*       8.1619065542E-01               0
GRID*               2737               01.0746317726E+011.2673982883E+02+
*       2.6262460546E+00               0
GRID*               2738               01.0148934089E+011.2519788957E+02+
*       8.1623135263E-01               0
GRID*               2739               03.7006998513E+011.0212277012E+01+
*       1.2828841518E+00               0
GRID*               2740               05.5164224523E+001.1924492770E+02+
*       -4.645818366E+00               0
GRID*               2741               02.9043750224E+011.9030595390E+01+
*       -5.775000095E+00               0
GRID*               2742               03.0418114028E+011.8273878737E+01+
*       -5.237181366E+00               0
GRID*               2743               02.9825102308E+011.5876370012E+01+
*       -5.237181366E+00               0
GRID*               2744               03.2298785742E+011.6957018045E+01+
*       -5.237181366E+00               0
GRID*               2745               03.5414341952E+011.4001474576E+01+
*       -5.625000000E+00               0
GRID*               2746               03.3701381350E+011.5200902071E+01+
*       -5.550893234E+00               0
GRID*               2747               03.1926450004E+011.2437983839E+01+
*       -5.223276693E+00               0
GRID*               2748               03.3053454244E+011.4435680411E+01+
*       -3.274169927E+00               0
GRID*               2749               03.5411800349E+011.2411771992E+01+
*       -5.636128315E+00               0
GRID*               2750               03.4338152135E+011.0639572949E+01+
*       -5.223276693E+00               0
GRID*               2751               0-3.540840891E+011.2418404828E+01+
*       5.6361283150E+00               0
GRID*               2752               0-2.988976779E+011.0697168337E+01+
*       5.7750000954E+00               0
GRID*               2753               0-3.053379702E+011.3007964483E+01+
*       5.7750000954E+00               0
GRID*               2754               05.7290496157E+007.4901877551E+01+
*       5.4777361704E+00               0
GRID*               2755               05.9067031810E+007.2644575119E+01+
*       5.5739515171E+00               0
GRID*               2756               0-9.558219657E+001.2743345698E+02+
*       -7.240020034E+00               0
GRID*               2757               0-1.157992342E+011.2646187353E+02+
*       7.4415566986E+00               0
GRID*               2758               0-1.063880989E+011.2392266553E+02+
*       7.2400001526E+00               0
GRID*               2759               0-5.311807647E+007.1733414052E+01+
*       -4.764221089E+00               0
GRID*               2760               0-5.231469351E+007.2754208825E+01+
*       -6.690269572E+00               0
GRID*               2761               0-3.634618507E+011.4270386811E+01+
*       -5.766156651E+00               0
GRID*               2762               0-2.958664097E+011.1072715367E+01+
*       -5.775000095E+00               0
GRID*               2763               0-3.044768846E+011.3457226450E+01+
*       -5.775000095E+00               0
GRID*               2764               0-3.634618507E+011.1373834922E+01+
*       -5.766156651E+00               0
GRID*               2765               0-3.361188134E+011.5656796874E+01+
*       -5.550893234E+00               0
GRID*               2766               0-3.303855649E+011.6439025203E+01+
*       -3.288074600E+00               0
GRID*               2767               0-3.229878574E+011.6957018045E+01+
*       -5.237181366E+00               0
GRID*               2768               03.2298785742E+011.6957018045E+01+
*       5.2371813664E+00               0
GRID*               2769               02.3567041988E+016.4243377757E+00+
*       6.8719528104E+00               0
GRID*               2770               02.3923160484E+015.2521247854E+00+
*       9.2224998474E+00               0
GRID*               2771               02.4115485486E+014.3007655368E+00+
*       7.3556150428E+00               0
GRID*               2772               02.2436155637E+019.6864167252E+00+
*       9.2224998474E+00               0
GRID*               2773               02.3419222829E+017.0942258885E+00+
*       9.2224998474E+00               0
GRID*               2774               02.3641692700E+016.2185344677E+00+
*       4.5676014126E+00               0
GRID*               2775               02.4125705464E+014.4626047714E+00+
*       2.7576570804E+00               0
GRID*               2776               0-2.845065843E+011.4440555585E+01+
*       5.7750000954E+00               0
GRID*               2777               01.6264570709E+011.8131833011E+01+
*       9.2224998474E+00               0
GRID*               2778               0-2.558935255E+014.7941966920E+00+
*       -5.195648602E+00               0
GRID*               2779               0-2.419013729E+014.0949553338E+00+
*       -5.051273977E+00               0
GRID*               2780               0-2.411548658E+014.3007586418E+00+
*       -7.355625375E+00               0
GRID*               2781               0-2.356705052E+016.4243142709E+00+
*       -6.872016243E+00               0
GRID*               2782               0-2.364170123E+016.2185109629E+00+
*       -4.567664845E+00               0
GRID*               2783               0-2.392316048E+015.2521247854E+00+
*       -9.222499847E+00               0
GRID*               2784               0-2.243615564E+019.6864167252E+00+
*       -9.222499847E+00               0
GRID*               2785               0-2.341922283E+017.0942258885E+00+
*       -9.222499847E+00               0
GRID*               2786               0-2.412571540E+014.4625530568E+00+
*       -2.757653842E+00               0
GRID*               2787               07.7028677956E+001.2365585785E+02+
*       7.2400024590E+00               0
GRID*               2788               06.5885640304E+001.2243364972E+02+
*       7.2400263555E+00               0
GRID*               2789               06.1184797044E+006.3206159024E+01+
*       4.5148347912E+00               0
GRID*               2790               06.2491527687E+006.9733634186E+01+
*       5.5739515171E+00               0
GRID*               2791               06.4196136879E+006.7567722981E+01+
*       5.6010998621E+00               0
GRID*               2792               02.2126151509E+005.7982107916E+01+
*       2.4255076686E+00               0
GRID*               2793               03.5848318039E+005.7545417852E+01+
*       2.9020894447E+00               0
GRID*               2794               08.6759696436E+001.2243706191E+02+
*       5.4553260972E+00               0
GRID*               2795               08.7269187719E+001.2083082503E+02+
*       7.2653238289E+00               0
GRID*               2796               07.5616658783E+001.2121485378E+02+
*       5.4553499937E+00               0
GRID*               2797               0-6.088682343E+007.1142991789E+01+
*       -5.573951517E+00               0
GRID*               2798               0-5.736890319E+006.7130330272E+01+
*       4.6594733256E+00               0
GRID*               2799               0-2.611277826E+006.4671965876E+01+
*       1.8394770533E+00               0
GRID*               2800               01.0642935147E+011.2350688543E+02+
*       7.2400001526E+00               0
GRID*               2801               0-3.539961141E+019.4920267068E+00+
*       1.8861283150E+00               0
GRID*               2802               0-3.442538469E+011.5553192077E+01+
*       1.2768905484E-12               0
GRID*               2803               0-3.579682412E+015.9551714893E+00+
*       -5.755407670E+00               0
GRID*               2804               0-3.655284346E+013.4551714893E+00+
*       3.0880560117E+00               0
GRID*               2805               0-3.560393975E+012.5000000000E+00+
*       -7.031789760E+00               0
GRID*               2806               03.5603925099E+012.5000000000E+00+
*       7.0315583299E+00               0
GRID*               2807               03.6552843470E+013.4551714893E+00+
*       3.0880522875E+00               0
GRID*               2808               03.5796824123E+015.9551714893E+00+
*       5.7554076702E+00               0
GRID*               2809               03.6154367103E+012.5000000000E+00+
*       4.8326446173E+00               0
GRID*               2810               0-6.850751970E+006.2936751427E+01+
*       5.6487195483E+00               0
GRID*               2811               0-6.114554128E+006.3250227851E+01+
*       -4.518333038E+00               0
GRID*               2812               02.4614846779E+001.1684117226E+02+
*       -7.691454304E+00               0
GRID*               2813               0-6.006986036E+006.4429849546E+01+
*       6.4251683033E+00               0
GRID*               2814               0-6.529489264E+006.6552248821E+01+
*       5.6395683875E+00               0
GRID*               2815               06.5233695068E+006.6609946818E+01+
*       -5.639568388E+00               0
GRID*               2816               06.0079979669E+006.4382430596E+01+
*       -6.418939872E+00               0
GRID*               2817               04.9560011089E+007.5419691340E+01+
*       4.7518497134E+00               0
GRID*               2818               03.6757240859E+007.6385620754E+01+
*       5.2052106753E+00               0
GRID*               2819               06.0827064734E+006.3433169069E+01+
*       -4.567659420E+00               0
GRID*               2820               06.8444829243E+006.2999746166E+01+
*       -5.648719548E+00               0
GRID*               2821               06.0438512196E+006.4154403778E+01+
*       6.4128205666E+00               0
GRID*               2822               0-3.624899476E+009.9973286361E+01+
*       5.0000000000E+00               0
GRID*               2823               0-8.715923201E+001.1924294475E+02+
*       7.2647163801E+00               0
GRID*               2824               0-8.101018002E+001.1789051694E+02+
*       6.9821160592E+00               0
GRID*               2825               0-6.955658600E+001.1926351925E+02+
*       6.2049926430E+00               0
GRID*               2826               02.4536798844E+011.8007655368E+00+
*       7.0176828805E+00               0
GRID*               2827               02.4190136197E+014.0949622288E+00+
*       5.0512636450E+00               0
GRID*               2828               02.6010665913E+012.2941966920E+00+
*       4.8577164398E+00               0
GRID*               2829               02.4332001633E+012.2941966920E+00+
*       4.1818985259E+00               0
GRID*               2830               02.4257350922E+012.5000000000E+00+
*       9.2224998474E+00               0
GRID*               2831               07.6412433161E+001.2363289036E+02+
*       -7.239988705E+00               0
GRID*               2832               09.5799299566E+001.2405439484E+02+
*       5.4300024209E+00               0
GRID*               2833               08.9775257733E+001.2301714967E+02+
*       4.2692757563E+00               0
GRID*               2834               02.4111812626E+012.1684080794E+00+
*       2.7438997976E+00               0
GRID*               2835               02.3518704213E+012.1684080794E+00+
*       1.3120084782E+00               0
GRID*               2836               01.9861047386E+011.4134783705E+01+
*       9.2224998474E+00               0
GRID*               2837               0-2.433200163E+012.2941966920E+00+
*       -4.181898526E+00               0
GRID*               2838               0-2.453680238E+011.8007586418E+00+
*       -7.017713423E+00               0
GRID*               2839               0-2.601066835E+012.2941966920E+00+
*       -4.857736650E+00               0
GRID*               2840               0-2.425735092E+012.5000000000E+00+
*       -9.222499847E+00               0
GRID*               2841               07.5460465217E+001.1969163943E+02+
*       3.8628828324E+00               0
GRID*               2842               05.4076917802E+001.2129446411E+02+
*       3.8375853590E+00               0
GRID*               2843               07.8476026514E+001.2027172718E+02+
*       2.6768324915E+00               0
GRID*               2844               07.8632220080E+001.2179494154E+02+
*       4.2692996527E+00               0
GRID*               2845               08.6852542224E-011.1644669053E+02+
*       -7.691454304E+00               0
GRID*               2846               0-2.411182256E+012.1683563648E+00+
*       -2.743896559E+00               0
GRID*               2847               0-2.351871415E+012.1683563648E+00+
*       -1.312005240E+00               0
GRID*               2848               0-3.443400811E+018.1281579594E+00+
*       -5.755407670E+00               0
GRID*               2849               03.3207085798E+011.2388025175E+01+
*       2.8839075282E+00               0
GRID*               2850               03.0974630857E+011.0510136679E+01+
*       5.2232766933E+00               0
GRID*               2851               03.1836199373E+011.2894249954E+01+
*       5.2232766933E+00               0
GRID*               2852               0-3.435270502E+018.6676036893E+00+
*       5.2094235587E+00               0
GRID*               2853               0-3.129358222E+018.1618512703E+00+
*       5.2094235587E+00               0
GRID*               2854               0-3.235327141E+016.3644118302E+00+
*       -5.209423559E+00               0
GRID*               2855               03.0989183743E+018.5381674201E+00+
*       5.2094235587E+00               0
GRID*               2856               03.2353271405E+016.3644118302E+00+
*       5.2094235587E+00               0
GRID*               2857               03.0372830727E+016.3644118302E+00+
*       5.2094235587E+00               0
GRID*               2858               03.4751181388E+017.3195833195E+00+
*       3.4648312288E+00               0
GRID*               2859               03.5399611412E+019.4920267068E+00+
*       1.8861283150E+00               0
GRID*               2860               04.8269961710E-021.1573038870E+02+
*       -7.137532341E+00               0
GRID*               2861               0-3.915979297E+007.4056629913E+01+
*       -5.769940457E+00               0
GRID*               2862               0-1.992999948E+007.6068889590E+01+
*       -4.532072896E+00               0
GRID*               2863               03.6397446993E+006.6439192973E+01+
*       4.1620610781E+00               0
GRID*               2864               01.1212424166E+011.2466971637E+02+
*       -7.833756308E+00               0
GRID*               2865               05.8353141227E+007.4009880055E+01+
*       -5.764006184E+00               0
GRID*               2866               0-6.425143858E+005.9905054627E+01+
*       4.5114518689E+00               0
GRID*               2867               0-6.699400189E+005.7151386474E+01+
*       -6.232907569E+00               0
GRID*               2868               0-7.479548790E+005.5525740958E+01+
*       -5.493232527E+00               0
GRID*               2869               0-7.190560111E+005.9023418823E+01+
*       -5.576645762E+00               0
GRID*               2870               0-6.445942104E+005.9687737575E+01+
*       -4.399556294E+00               0
GRID*               2871               0-6.370391737E+006.0647695946E+01+
*       -6.322910532E+00               0
GRID*               2872               0-6.892717619E+006.2510920568E+01+
*       -5.602014225E+00               0
GRID*               2873               0-6.622700711E+005.8125945674E+01+
*       -4.309553332E+00               0
GRID*               2874               01.1091535441E+005.7100633372E+01+
*       3.0419706059E+00               0
GRID*               2875               0-2.988976781E+018.5348567441E+00+
*       5.7750000954E+00               0
GRID*               2876               0-6.581707879E+006.6054292426E+01+
*       -5.601099862E+00               0
GRID*               2877               0-6.745446124E+006.3973800893E+01+
*       -5.602014225E+00               0
GRID*               2878               0-6.628164403E+005.8360214119E+01+
*       4.4478287265E+00               0
GRID*               2879               01.0071606453E+009.3549638786E+01+
*       -6.924362625E+00               0
GRID*               2880               06.4255449340E+005.9877786909E+01+
*       -4.507617321E+00               0
GRID*               2881               07.3136837899E+005.7629418069E+01+
*       5.5766457622E+00               0
GRID*               2882               07.4736904263E+005.5596341118E+01+
*       5.4932325275E+00               0
GRID*               2883               06.8867513674E+006.2571956918E+01+
*       5.6020142247E+00               0
GRID*               2884               06.3721891036E+006.0626602780E+01+
*       6.3211798081E+00               0
GRID*               2885               06.6251365603E+005.8168518388E+01+
*       4.3184947436E+00               0
GRID*               2886               06.4477394706E+005.9666644409E+01+
*       4.3978255703E+00               0
GRID*               2887               07.1845140489E+005.9089226795E+01+
*       5.5766457622E+00               0
GRID*               2888               01.0755400494E+011.2676366350E+02+
*       -7.833756308E+00               0
GRID*               2889               0-7.601133309E+005.4060504811E+01+
*       -5.493232527E+00               0
GRID*               2890               0-7.529196835E+005.2371781863E+01+
*       -6.576897119E+00               0
GRID*               2891               0-7.401597452E+005.2695559229E+01+
*       6.4233182780E+00               0
GRID*               2892               0-7.578366068E+005.4338262830E+01+
*       5.7218009718E+00               0
GRID*               2893               0-7.012764426E+005.5914735946E+01+
*       6.3520935198E+00               0
GRID*               2894               0-2.918236351E+004.6505520812E+01+
*       -1.525665945E+00               0
GRID*               2895               0-3.435270502E+016.3644118302E+00+
*       5.2094235587E+00               0
GRID*               2896               0-3.497389030E+016.1818574647E+00+
*       3.7500000000E+00               0
GRID*               2897               0-3.497389030E+014.3321335595E+00+
*       3.7500000000E+00               0
GRID*               2898               06.7811000371E+005.6374996220E+01+
*       -4.492403627E+00               0
GRID*               2899               06.1164768388E+001.1487546060E+02+
*       4.3506715547E+00               0
GRID*               2900               05.2331623957E+005.1923375081E+01+
*       3.6048694153E+00               0
GRID*               2901               07.4650135527E+005.1246632186E+01+
*       4.0905056562E+00               0
GRID*               2902               07.2820346219E+005.3571599792E+01+
*       4.3456430421E+00               0
GRID*               2903               07.5948814912E+005.4135846557E+01+
*       5.4932325275E+00               0
GRID*               2904               07.3463274245E+005.2754682341E+01+
*       6.3524105146E+00               0
GRID*               2905               07.3279779337E+005.3602122599E+01+
*       -4.643634298E+00               0
GRID*               2906               07.5718200328E+005.4417150242E+01+
*       -5.721800972E+00               0
GRID*               2907               07.3974400319E+005.2719523022E+01+
*       -6.421833327E+00               0
GRID*               2908               06.9801896579E+005.4702255083E+01+
*       4.1885611617E+00               0
GRID*               2909               07.4445644025E+005.5948896454E+01+
*       -5.721800972E+00               0
GRID*               2910               07.3169516274E+001.1921824101E+02+
*       2.5706462759E+00               0
GRID*               2911               01.3861700113E+002.4416141123E+01+
*       -9.222499847E+00               0
GRID*               2912               0-1.986104739E+011.4134783705E+01+
*       -9.222499847E+00               0
GRID*               2913               0-1.386170011E+002.4416141123E+01+
*       9.2224998474E+00               0
GRID*               2914               0-4.095270296E+002.4130713724E+01+
*       9.2224998474E+00               0
GRID*               2915               01.3861700113E+002.4416141123E+01+
*       9.2224998474E+00               0
GRID*               2916               02.1031460484E+001.4057820963E+02+
*       7.2400007605E+00               0
GRID*               2917               02.6305388634E+011.8497428268E+01+
*       -5.775000095E+00               0
GRID*               2918               02.1192141461E+012.4475748499E+01+
*       -2.042998953E+00               0
GRID*               2919               0-2.643386088E+011.3811354729E+01+
*       -5.223498113E+00               0
GRID*               2920               0-2.782284973E+011.5444825665E+01+
*       -5.775000095E+00               0
GRID*               2921               0-2.644909600E+011.6201327560E+01+
*       -5.237680237E+00               0
GRID*               2922               0-2.725026229E+011.8409719132E+01+
*       -5.237680237E+00               0
GRID*               2923               0-2.480402442E+011.8888123103E+01+
*       -5.237680237E+00               0
GRID*               2924               0-2.478878931E+011.6498150272E+01+
*       -5.223498113E+00               0
GRID*               2925               0-2.282203371E+011.6678798178E+01+
*       -2.967120322E+00               0
GRID*               2926               0-7.526556414E+001.2307308766E+02+
*       7.2400050550E+00               0
GRID*               2927               0-7.379583450E-019.3451363970E+01+
*       -6.971194305E+00               0
GRID*               2928               0-2.598856579E+012.0964447934E+01+
*       -5.237680237E+00               0
GRID*               2929               02.5988565791E+012.0964447934E+01+
*       5.2376802370E+00               0
GRID*               2930               02.4727868250E+012.1847198755E+01+
*       3.8080509878E+00               0
GRID*               2931               02.3777081248E+012.2038215526E+01+
*       6.0703707508E+00               0
GRID*               2932               07.7090749818E+001.2006487787E+02+
*       7.2653238289E+00               0
GRID*               2933               05.5707202403E+001.2166770256E+02+
*       7.2400263555E+00               0
GRID*               2934               02.7248304458E+011.8411681695E+01+
*       5.2376802370E+00               0
GRID*               2935               0-2.390475455E+012.2394422965E+01+
*       6.0710804493E+00               0
GRID*               2936               0-2.172399482E+012.3891125896E+01+
*       6.0710804493E+00               0
GRID*               2937               0-8.454061826E+004.4264132768E+01+
*       7.0551231511E+00               0
GRID*               2938               0-8.257453442E+004.5745668411E+01+
*       7.2029318810E+00               0
GRID*               2939               0-2.550318822E+011.2908615369E+01+
*       5.7750000954E+00               0
GRID*               2940               0-1.139694086E+001.1684840682E+02+
*       7.7174651397E+00               0
GRID*               2941               0-9.079609313E+001.2339187706E+02+
*       -1.809976222E+00               0
GRID*               2942               0-8.232797891E+001.2188837021E+02+
*       -1.036935860E+00               0
GRID*               2943               05.3270667739E+001.3984083031E+02+
*       1.8100417531E+00               0
GRID*               2944               06.9457058420E+001.3888012268E+02+
*       2.2352030969E+00               0
GRID*               2945               05.3270667739E+001.3984083031E+02+
*       3.6200417913E+00               0
GRID*               2946               02.7897680672E+012.5000000000E+00+
*       7.1620678376E+00               0
GRID*               2947               0-2.661841182E+012.5000000000E+00+
*       9.2224998474E+00               0
GRID*               2948               0-2.858007729E+012.5000000000E+00+
*       9.2224998474E+00               0
GRID*               2949               0-3.084706649E+012.5000000000E+00+
*       9.2224998474E+00               0
GRID*               2950               0-2.958898389E+012.5000000000E+00+
*       -8.978723721E+00               0
GRID*               2951               0-2.776778884E+012.5000000000E+00+
*       -8.884587896E+00               0
GRID*               2952               0-1.612323118E+004.3061964698E+01+
*       -6.880365551E-02               0
GRID*               2953               0-1.531362091E+004.5598335118E+01+
*       -1.446297567E+00               0
GRID*               2954               0-2.742866667E+012.1085863651E+00+
*       -5.437088143E+00               0
GRID*               2955               0-3.143828707E+012.5000000000E+00+
*       -8.978723721E+00               0
GRID*               2956               02.8580077286E+012.5000000000E+00+
*       -9.222499847E+00               0
GRID*               2957               03.0847066491E+012.5000000000E+00+
*       -9.222499847E+00               0
GRID*               2958               0-3.392229401E+011.4040022132E+01+
*       -2.016156651E+00               0
GRID*               2959               0-9.079609313E+001.2339187706E+02+
*       2.3815966761E-05               0
GRID*               2960               0-9.079569349E+001.2339182501E+02+
*       1.8100155969E+00               0
GRID*               2961               0-9.949913887E+001.2479745830E+02+
*       -4.398922809E-05               0
GRID*               2962               0-3.094945702E+014.6085863651E+00+
*       5.7750000954E+00               0
GRID*               2963               0-2.896901634E+014.6085863651E+00+
*       5.7750000954E+00               0
GRID*               2964               0-2.971888457E+012.5000000000E+00+
*       7.2561926213E+00               0
GRID*               2965               0-3.169932525E+012.5000000000E+00+
*       7.2561926213E+00               0
GRID*               2966               0-2.924986812E+012.1085863651E+00+
*       5.5311927167E+00               0
GRID*               2967               09.5799399985E+001.2405440726E+02+
*       7.2400001526E+00               0
GRID*               2968               01.0313942677E+011.2568005457E+02+
*       5.8128976191E+00               0
GRID*               2969               0-3.615436709E+012.5000000000E+00+
*       4.8326483415E+00               0
GRID*               2970               0-3.373047603E+011.8321335595E+00+
*       1.0826483415E+00               0
GRID*               2971               0-3.537236667E+015.2873050488E+00+
*       2.0054076702E+00               0
GRID*               2972               0-9.950131505E+001.2479798362E+02+
*       5.4300277060E+00               0
GRID*               2973               0-1.089124503E+011.2733719161E+02+
*       5.6315842520E+00               0
GRID*               2974               0-9.081000152E+001.2587395421E+02+
*       7.2400277441E+00               0
GRID*               2975               0-1.119508415E+011.2896255547E+02+
*       5.6315566604E+00               0
GRID*               2976               0-1.127489156E+011.3003200238E+02+
*       4.1498092654E+00               0
GRID*               2977               0-1.119714541E+011.3102396402E+02+
*       5.6956567289E+00               0
GRID*               2978               0-1.206131967E+011.2805826374E+02+
*       7.4415566986E+00               0
GRID*               2979               0-9.562396405E+001.2747034442E+02+
*       7.2400277441E+00               0
GRID*               2980               0-1.068443262E+011.2642461032E+02+
*       4.0034559301E+00               0
GRID*               2981               07.6066013017E+001.3636522800E+02+
*       7.2399887051E+00               0
GRID*               2982               06.4926560638E+001.3758713868E+02+
*       7.2400235954E+00               0
GRID*               2983               08.7108406910E+001.3864316694E+02+
*       7.4529763778E+00               0
GRID*               2984               07.5446274605E+001.3955583625E+02+
*       7.4529763778E+00               0
GRID*               2985               0-1.097366371E+011.2800200998E+02+
*       -2.585398508E+00               0
GRID*               2986               0-1.066960697E+011.2637612081E+02+
*       -2.585442498E+00               0
GRID*               2987               0-1.121633013E+011.2911032929E+02+
*       -9.989579982E-01               0
GRID*               2988               0-1.091227340E+011.2748444012E+02+
*       -9.990019875E-01               0
GRID*               2989               0-1.295620488E+001.4073071509E+02+
*       -1.257623524E+00               0
GRID*               2990               04.5528103613E-011.4073071509E+02+
*       -2.620390267E+00               0
GRID*               2991               04.6192656444E-011.4073071509E+02+
*       -5.541642141E-01               0
GRID*               2992               04.5547428317E-011.4073074063E+02+
*       -4.430365772E+00               0
GRID*               2993               0-1.305806443E+001.4073074063E+02+
*       -5.176244567E+00               0
GRID*               2994               04.5633579950E-011.4073074063E+02+
*       -7.240016089E+00               0
GRID*               2995               0-1.288911520E+001.4073078506E+02+
*       4.4322235705E+00               0
GRID*               2996               0-2.879675633E+001.4027822939E+02+
*       4.4322049995E+00               0
GRID*               2997               0-1.286648418E+001.4073078506E+02+
*       7.2400269135E+00               0
GRID*               2998               0-2.877412532E+001.4027822939E+02+
*       7.2400083425E+00               0
GRID*               2999               0-1.284702318E+009.0514777800E+01+
*       6.8453074826E+00               0
GRID*               3000               04.7325223435E-011.4073073448E+02+
*       3.3676519812E+00               0
GRID*               3001               0-1.289294323E+001.4073073448E+02+
*       2.6221749284E+00               0
GRID*               3002               0-7.487975673E+005.1598019938E+01+
*       4.7050857790E+00               0
GRID*               3003               07.0855174068E+005.4931013661E+01+
*       -4.568951999E+00               0
GRID*               3004               0-1.295473797E+001.4073073448E+02+
*       5.5239514114E-01               0
GRID*               3005               0-4.620732997E+001.4027822939E+02+
*       3.6200082662E+00               0
GRID*               3006               0-4.620732997E+001.4027822939E+02+
*       5.4300083044E+00               0
GRID*               3007               0-2.885680475E+001.4027830183E+02+
*       -1.257551072E+00               0
GRID*               3008               0-2.896059677E+001.4027830183E+02+
*       -3.366196611E+00               0
GRID*               3009               0-4.620558365E+001.4027830183E+02+
*       -1.809968056E+00               0
GRID*               3010               0-7.932252633E+004.9021921379E+01+
*       -6.815759923E+00               0
GRID*               3011               0-3.640034673E+019.6510720906E+00+
*       -4.686120187E+00               0
GRID*               3012               03.8464904861E+001.4057819969E+02+
*       -1.809996164E+00               0
GRID*               3013               02.1994630175E+001.4073071509E+02+
*       -1.810040508E+00               0
GRID*               3014               0-1.096329650E+012.8803318527E+01+
*       6.6343257427E+00               0
GRID*               3015               0-1.305999690E+001.4073071509E+02+
*       -3.366269063E+00               0
GRID*               3016               0-3.373047686E+011.8321335595E+00+
*       -1.083686709E+00               0
GRID*               3017               0-3.655284429E+013.4551714893E+00+
*       -3.089094379E+00               0
GRID*               3018               0-3.312346784E+011.9229749167E+00+
*       -2.529343732E+00               0
GRID*               3019               0-8.254648443E+001.3767965744E+02+
*       5.6481551804E+00               0
GRID*               3020               0-7.558218527E+001.3832163752E+02+
*       4.0466856194E+00               0
GRID*               3021               0-6.934840538E+001.3867631256E+02+
*       5.6481708259E+00               0
GRID*               3022               0-6.238410622E+001.3931829263E+02+
*       4.0467012649E+00               0
GRID*               3023               0-9.430453218E+001.3596934987E+02+
*       5.7121313065E+00               0
GRID*               3024               0-8.941582996E+001.3682108723E+02+
*       4.1808770362E+00               0
GRID*               3025               0-8.948170233E+001.3681132307E+02+
*       7.2399926970E+00               0
GRID*               3026               0-7.625552257E+001.3826705539E+02+
*       7.2399926970E+00               0
GRID*               3027               0-2.306311287E+018.2664153741E+00+
*       -6.872016243E+00               0
GRID*               3028               0-2.593601764E+012.5000000000E+00+
*       -7.162088048E+00               0
GRID*               3029               02.5114424310E+011.1305072702E+01+
*       -5.223498113E+00               0
GRID*               3030               01.1072408127E+002.8458169281E+01+
*       -4.171146865E-01               0
GRID*               3031               07.2890593646E+005.7924775177E+01+
*       -5.673349870E+00               0
GRID*               3032               0-8.732352917E+004.2450857111E+01+
*       -7.054810598E+00               0
GRID*               3033               0-8.890121803E+004.1835241645E+01+
*       -6.060236716E+00               0
GRID*               3034               0-1.183198939E+012.1335185146E+01+
*       -9.222499847E+00               0
GRID*               3035               07.8066548057E+004.7540645839E+01+
*       -4.415774737E+00               0
GRID*               3036               08.1774291216E+004.6346231831E+01+
*       -5.019457397E+00               0
GRID*               3037               07.6686770196E+004.5822168351E+01+
*       -3.923892188E+00               0
GRID*               3038               02.3063104333E+018.2664388788E+00+
*       6.8719528104E+00               0
GRID*               3039               02.5589352554E+014.7941966920E+00+
*       5.1956486022E+00               0
GRID*               3040               02.5936015201E+012.5000000000E+00+
*       7.1620678376E+00               0
GRID*               3041               0-2.408314345E+014.6735641632E+00+
*       3.0786758046E+00               0
GRID*               3042               01.6264570709E+011.8131833011E+01+
*       -9.222499847E+00               0
GRID*               3043               01.8285817336E+011.6305565104E+01+
*       -9.222499847E+00               0
GRID*               3044               0-1.227123560E+013.4141502523E+01+
*       -1.956668417E+00               0
GRID*               3045               03.3604491483E+012.5000000000E+00+
*       7.0315583299E+00               0
GRID*               3046               03.2367447674E+014.4229749167E+00+
*       5.1956570232E+00               0
GRID*               3047               03.2573025017E+011.9229749167E+00+
*       4.7272153532E+00               0
GRID*               3048               03.1699325424E+012.5000000000E+00+
*       7.2561958882E+00               0
GRID*               3049               03.0667858958E+011.9229749167E+00+
*       4.9518529115E+00               0
GRID*               3050               03.3123467021E+011.9229749167E+00+
*       2.5283016406E+00               0
GRID*               3051               03.4154933487E+012.5000000000E+00+
*       4.8326446173E+00               0
GRID*               3052               03.2827507168E+012.5000000000E+00+
*       9.2224998474E+00               0
GRID*               3053               03.5004920861E+012.5000000000E+00+
*       9.2224998474E+00               0
GRID*               3054               05.9075895741E+003.9857315654E+01+
*       -1.281937736E+00               0
GRID*               3055               0-2.641908725E+011.1458781354E+01+
*       -5.209462927E+00               0
GRID*               3056               0-2.782284975E+011.3248112027E+01+
*       -5.775000095E+00               0
GRID*               3057               0-3.560392527E+012.5000000000E+00+
*       7.0315604561E+00               0
GRID*               3058               01.1120802170E+011.3184882958E+02+
*       7.5030712374E+00               0
GRID*               3059               01.1120777561E+011.3019491615E+02+
*       5.6930935173E+00               0
GRID*               3060               01.1120813454E+011.3184873784E+02+
*       5.6930831465E+00               0
GRID*               3061               0-3.500492086E+012.5000000000E+00+
*       9.2224998474E+00               0
GRID*               3062               0-3.360449165E+012.5000000000E+00+
*       7.0315604561E+00               0
GRID*               3063               0-3.282750717E+012.5000000000E+00+
*       9.2224998474E+00               0
GRID*               3064               0-6.577785166E+001.2243251671E+02+
*       -7.239992697E+00               0
GRID*               3065               0-7.190577441E+001.2140404572E+02+
*       7.2400050550E+00               0
GRID*               3066               0-3.615436792E+012.5000000000E+00+
*       -4.833686709E+00               0
GRID*               3067               0-3.521051285E+012.5000000000E+00+
*       -8.754289608E+00               0
GRID*               3068               0-3.334347437E+012.5000000000E+00+
*       -8.754289608E+00               0
GRID*               3069               0-1.132690045E+002.4784463700E+01+
*       1.0532889985E+00               0
GRID*               3070               0-2.305762127E+011.7773824283E+01+
*       2.9594512280E+00               0
GRID*               3071               01.0301473076E+011.3436093068E+02+
*       4.2042867878E+00               0
GRID*               3072               01.0898910056E+011.3281869739E+02+
*       4.2043101825E+00               0
GRID*               3073               09.9322667248E+001.3530373525E+02+
*       5.7048162341E+00               0
GRID*               3074               01.0529703705E+011.3376150196E+02+
*       5.7048396287E+00               0
GRID*               3075               0-1.525991048E+001.2008025607E+02+
*       7.2400160886E+00               0
GRID*               3076               0-2.828952519E+001.1918878664E+02+
*       7.2400160886E+00               0
GRID*               3077               0-3.727499687E+011.3893982250E+01+
*       1.8861283150E+00               0
GRID*               3078               09.9323210090E+001.3530366512E+02+
*       7.5148277197E+00               0
GRID*               3079               0-2.988976783E+016.4060258052E+00+
*       5.7750000954E+00               0
GRID*               3080               01.0529692422E+011.3376159370E+02+
*       7.5148277197E+00               0
GRID*               3081               0-9.866235523E+001.2909570828E+02+
*       7.2400001526E+00               0
GRID*               3082               0-8.210386428E+001.2446772844E+02+
*       7.2400050550E+00               0
GRID*               3083               01.1198215630E+011.2920138201E+02+
*       4.1463319587E+00               0
GRID*               3084               01.1118239524E+011.2813444495E+02+
*       5.6338094400E+00               0
GRID*               3085               0-1.030090971E+011.3456348777E+02+
*       5.7121586433E+00               0
GRID*               3086               0-1.089316211E+011.3264967620E+02+
*       5.6956766101E+00               0
GRID*               3087               0-1.067022472E+011.3362201196E+02+
*       4.2112951971E+00               0
GRID*               3088               0-9.818626728E+001.3540546097E+02+
*       7.2400200338E+00               0
GRID*               3089               0-1.066739078E+011.3363118713E+02+
*       7.2400200338E+00               0
GRID*               3090               0-1.429767524E+001.1813449780E+02+
*       7.7174651397E+00               0
GRID*               3091               0-9.963499547E+001.3051861890E+02+
*       7.2400001526E+00               0
GRID*               3092               0-1.215858369E+011.2948117437E+02+
*       7.4415566986E+00               0
GRID*               3093               0-1.032189596E+011.3451943474E+02+
*       -7.522558519E+00               0
GRID*               3094               0-9.451344721E+001.3592548631E+02+
*       -7.522558519E+00               0
GRID*               3095               0-9.451366287E+001.3592545728E+02+
*       -5.712563384E+00               0
GRID*               3096               0-8.402416165E+001.3751778872E+02+
*       -5.657856865E+00               0
GRID*               3097               0-8.989813369E+001.3674861691E+02+
*       -4.164897940E+00               0
GRID*               3098               0-1.032197950E+011.3451923073E+02+
*       -5.712586072E+00               0
GRID*               3099               0-1.067513100E+011.3360615536E+02+
*       -4.220645047E+00               0
GRID*               3100               0-1.089073406E+011.3266606340E+02+
*       -5.751963881E+00               0
GRID*               3101               01.0903011140E+011.3280546030E+02+
*       -4.220523999E+00               0
GRID*               3102               01.0549497348E+011.3372015960E+02+
*       -5.710910970E+00               0
GRID*               3103               09.9521401112E+001.3526206539E+02+
*       -5.710890958E+00               0
GRID*               3104               09.4485702456E+001.3614869906E+02+
*       -7.240002459E+00               0
GRID*               3105               09.4913513250E+001.3608426394E+02+
*       -4.162255290E+00               0
GRID*               3106               08.9035155543E+001.3685436477E+02+
*       -5.652832005E+00               0
GRID*               3107               01.6750527640E+012.9029407011E+01+
*       -5.017344020E+00               0
GRID*               3108               0-2.240431498E+002.6505437347E+01+
*       -1.468554736E+00               0
GRID*               3109               0-4.810311782E+001.0926026866E+02+
*       5.2322157137E+00               0
GRID*               3110               0-1.486408211E+009.9130339953E+01+
*       5.0423756218E+00               0
GRID*               3111               04.8599089226E+001.1665111500E+02+
*       6.6340391184E+00               0
GRID*               3112               06.3605742141E+001.1559917097E+02+
*       5.8590390230E+00               0
GRID*               3113               06.6496603828E+001.1712452265E+02+
*       6.9832833680E+00               0
GRID*               3114               0-3.360450613E+012.5000000000E+00+
*       -7.031789760E+00               0
GRID*               3115               0-3.415493431E+012.5000000000E+00+
*       -4.833686709E+00               0
GRID*               3116               0-3.236744767E+014.4229749167E+00+
*       -5.195657023E+00               0
GRID*               3117               08.4545958859E+004.4264253945E+01+
*       5.1798070608E+00               0
GRID*               3118               08.4545958859E+004.4264253945E+01+
*       7.0548070608E+00               0
GRID*               3119               08.6274713384E+004.2955830405E+01+
*       5.9565352534E+00               0
GRID*               3120               0-3.415493348E+012.5000000000E+00+
*       4.8326483415E+00               0
GRID*               3121               0-3.312346701E+011.9229749167E+00+
*       2.5283053648E+00               0
GRID*               3122               0-3.236744767E+014.4229749167E+00+
*       5.1956570232E+00               0
GRID*               3123               0-3.257302519E+011.9229749167E+00+
*       4.7272174793E+00               0
GRID*               3124               0-3.583041573E+014.1988001943E+00+
*       5.0231702117E-12               0
GRID*               3125               0-2.190295864E+011.5918453118E+01+
*       3.7500000000E+00               0
GRID*               3126               03.6581277406E+019.2052996288E+00+
*       -4.353244163E+00               0
GRID*               3127               03.5603940752E+012.5000000000E+00+
*       -7.031796710E+00               0
GRID*               3128               04.4620201491E+005.0948012032E+01+
*       -2.996439129E+00               0
GRID*               3129               03.4765357657E+015.3781464060E+00+
*       3.4510646934E+00               0
GRID*               3130               03.5004920861E+012.5000000000E+00+
*       -9.222499847E+00               0
GRID*               3131               07.8138836400E+004.4667625209E+01+
*       -3.145337295E+00               0
GRID*               3132               03.6154370134E+012.5000000000E+00+
*       -4.833687214E+00               0
GRID*               3133               03.6552846501E+013.4551714893E+00+
*       -3.089094884E+00               0
GRID*               3134               03.3842823968E+011.0233501550E+01+
*       1.4106308349E+00               0
GRID*               3135               02.3047167179E-015.6002473795E+01+
*       2.9458940982E+00               0
GRID*               3136               0-1.097420802E+011.3199629979E+02+
*       2.4012752778E+00               0
GRID*               3137               0-1.127489156E+011.3003200238E+02+
*       2.3398092273E+00               0
GRID*               3138               0-1.119544283E+011.3103497089E+02+
*       8.8789050163E-01               0
GRID*               3139               0-9.812039491E+001.3541522513E+02+
*       4.1809043730E+00               0
GRID*               3140               0-7.713395255E+001.1916462227E+02+
*       3.1264097816E+00               0
GRID*               3141               0-1.216064495E+011.3154258292E+02+
*       7.5056567671E+00               0
GRID*               3142               0-1.267288223E+013.3497271515E+01+
*       -2.382540936E-01               0
GRID*               3143               0-1.458039580E+013.1622878854E+01+
*       4.9537576766E+00               0
GRID*               3144               0-1.121633013E+011.2911032929E+02+
*       8.1104203990E-01               0
GRID*               3145               0-1.847474256E+012.7494667964E+01+
*       1.5761343625E+00               0
GRID*               3146               0-8.178508960E+004.6331874181E+01+
*       5.0179276895E+00               0
GRID*               3147               0-8.035597468E+004.8147736737E+01+
*       6.8929276895E+00               0
GRID*               3148               0-7.665116581E+004.9339066586E+01+
*       6.2892496142E+00               0
GRID*               3149               0-7.849302413E+005.2167872545E+01+
*       1.7119338292E+00               0
GRID*               3150               0-7.855724389E+005.0850120855E+01+
*       5.7817675010E+00               0
GRID*               3151               03.1911552247E+011.4441328632E+01+
*       -5.237181366E+00               0
GRID*               3152               0-1.218224400E+011.2964050229E+02+
*       -7.634782784E+00               0
GRID*               3153               0-1.208071433E+011.2818611287E+02+
*       -7.634782784E+00               0
GRID*               3154               08.0345176300E+004.8162094387E+01+
*       -6.894457397E+00               0
GRID*               3155               07.6637433140E+004.9356508395E+01+
*       -6.290774737E+00               0
GRID*               3156               07.4838182524E+005.1621983732E+01+
*       -4.703600828E+00               0
GRID*               3157               09.1280690741E+004.0822289152E+01+
*       5.2292324629E+00               0
GRID*               3158               08.3629781686E+004.1611667733E+01+
*       3.9498968466E+00               0
GRID*               3159               08.7741247923E+004.2274597373E+01+
*       5.3744444958E+00               0
GRID*               3160               07.8497546597E+005.0925973489E+01+
*       -5.781767501E+00               0
GRID*               3161               06.5758621428E+006.6110558912E+01+
*       5.6010998621E+00               0
GRID*               3162               0-1.052440222E+013.6940643652E+01+
*       -4.739800035E+00               0
GRID*               3163               0-9.743393126E+003.7483954710E+01+
*       -3.449566057E+00               0
GRID*               3164               0-9.361599687E+003.8356126279E+01+
*       -3.532280372E+00               0
GRID*               3165               0-1.014260878E+013.7812815221E+01+
*       -4.822514351E+00               0
GRID*               3166               0-1.127472440E+011.3005634458E+02+
*       -4.277042984E+00               0
GRID*               3167               0-1.097896995E+011.3198079150E+02+
*       -4.220617455E+00               0
GRID*               3168               0-1.127472440E+011.3005634458E+02+
*       -2.467042946E+00               0
GRID*               3169               0-1.097896995E+011.3198079150E+02+
*       -2.410617417E+00               0
GRID*               3170               0-1.159924577E+013.3769049508E+01+
*       -3.122648010E+00               0
GRID*               3171               0-1.213736768E+013.3946440061E+01+
*       -4.503097729E+00               0
GRID*               3172               0-1.097366371E+011.2800200998E+02+
*       -4.395398547E+00               0
GRID*               3173               0-1.089138619E+011.3266086004E+02+
*       8.8793449027E-01               0
GRID*               3174               0-1.067015138E+011.3362218893E+02+
*       2.4013192664E+00               0
GRID*               3175               01.0898931938E+011.3281853120E+02+
*       5.8433120191E-01               0
GRID*               3176               01.0755411759E+011.2676375520E+02+
*       -6.023768217E+00               0
GRID*               3177               01.1141817414E+011.2829981562E+02+
*       -5.820485875E+00               0
GRID*               3178               01.0896732392E+011.2717429461E+02+
*       -4.394531802E+00               0
GRID*               3179               01.0896755041E+011.2882767745E+02+
*       -7.744863781E-01               0
GRID*               3180               01.0896754671E+011.2882768025E+02+
*       -2.584486775E+00               0
GRID*               3181               0-3.235327141E+016.3644118302E+00+
*       5.2094235587E+00               0
GRID*               3182               0-3.297445669E+014.3321335595E+00+
*       3.7500000000E+00               0
GRID*               3183               01.1139430940E+011.2828165630E+02+
*       8.1034695545E-01               0
GRID*               3184               01.1198272986E+011.2920181807E+02+
*       2.3362765595E+00               0
GRID*               3185               02.1201199372E+001.4057820511E+02+
*       3.3676759169E+00               0
GRID*               3186               03.8464774118E+001.4057820511E+02+
*       3.6200021690E+00               0
GRID*               3187               02.1201090390E+001.4057820963E+02+
*       5.1776744702E+00               0
GRID*               3188               04.7363503718E-011.4073078506E+02+
*       5.1777006233E+00               0
GRID*               3189               03.8464774118E+001.4057820511E+02+
*       1.8100021309E+00               0
GRID*               3190               0-7.501354998E-018.9627751641E+01+
*       -6.229285830E+00               0
GRID*               3191               04.5667204662E-011.4073078506E+02+
*       7.2400269135E+00               0
GRID*               3192               01.5239890358E+009.2186302454E+01+
*       6.5476169750E+00               0
GRID*               3193               01.0494944151E+009.2713923230E+01+
*       7.0964504674E+00               0
GRID*               3194               0-4.620732997E+001.4027822939E+02+
*       7.2400083425E+00               0
GRID*               3195               0-1.842970654E+012.7531854417E+01+
*       3.7979629182E+00               0
GRID*               3196               04.7452546165E-019.3626394149E+01+
*       6.9720579301E+00               0
GRID*               3197               0-2.788080845E+002.8207887571E+01+
*       2.4629142855E+00               0
GRID*               3198               03.3521648169E+011.0238488859E+01+
*       -2.076520857E+00               0
GRID*               3199               0-2.002394347E+012.4999685822E+01+
*       -5.625000000E+00               0
GRID*               3200               0-1.233057327E+013.2462810213E+01+
*       5.4948175897E+00               0
GRID*               3201               0-1.381296945E+013.2683047392E+01+
*       4.1629162090E+00               0
GRID*               3202               0-2.877557844E+001.4027816911E+02+
*       -7.240011771E+00               0
GRID*               3203               0-2.896379622E+001.4027816911E+02+
*       -5.176240249E+00               0
GRID*               3204               0-4.620878309E+001.4027816911E+02+
*       -5.430011733E+00               0
GRID*               3205               04.7452546080E-019.3314357718E+01+
*       6.9380575347E+00               0
GRID*               3206               0-3.257303967E+011.9229749167E+00+
*       -4.727446783E+00               0
GRID*               3207               08.1010643373E+001.1789062974E+02+
*       6.9832833680E+00               0
GRID*               3208               0-5.902393031E+004.6369698735E+01+
*       2.6604468202E+00               0
GRID*               3209               0-7.813872737E+004.4667625304E+01+
*       3.1453264005E+00               0
GRID*               3210               0-3.169931883E+012.5000000000E+00+
*       -7.256223874E+00               0
GRID*               3211               0-3.066785237E+011.9229749167E+00+
*       -4.951880897E+00               0
GRID*               3212               0-3.130775849E+016.2204143569E+00+
*       5.1956570232E+00               0
GRID*               3213               08.1832905714E+004.6281951392E+01+
*       6.8931682684E+00               0
GRID*               3214               08.0403790798E+004.8097813948E+01+
*       6.8931682684E+00               0
GRID*               3215               08.1832905714E+004.6281951392E+01+
*       5.0181682684E+00               0
GRID*               3216               08.2574534416E+004.5745668411E+01+
*       7.2029318810E+00               0
GRID*               3217               08.3537488182E+003.7330077364E+01+
*       1.5817543857E+00               0
GRID*               3218               03.3604507136E+012.5000000000E+00+
*       -7.031796710E+00               0
GRID*               3219               03.2827507168E+012.5000000000E+00+
*       -9.222499847E+00               0
GRID*               3220               03.1295089526E+018.1564552635E+00+
*       -5.209423559E+00               0
GRID*               3221               03.0372830727E+016.3644118302E+00+
*       -5.209423559E+00               0
GRID*               3222               03.3523661911E+018.6941512029E+00+
*       -4.353244163E+00               0
GRID*               3223               03.1280536640E+011.0128424523E+01+
*       -5.223276693E+00               0
GRID*               3224               07.6066455129E+001.3636517036E+02+
*       -7.240002459E+00               0
GRID*               3225               08.8582406331E+001.3848163459E+02+
*       -7.462829737E+00               0
GRID*               3226               09.3640361420E+003.8349558711E+01+
*       -4.089621885E+00               0
GRID*               3227               09.0210159523E+003.9341074208E+01+
*       -4.256621012E+00               0
GRID*               3228               09.2036503473E+003.8780012374E+01+
*       -3.293561048E+00               0
GRID*               3229               02.6305388614E+012.0715877640E+01+
*       -5.775000095E+00               0
GRID*               3230               0-2.630356755E+012.0714755797E+01+
*       5.7750000954E+00               0
GRID*               3231               03.0592889535E+004.6264866252E+01+
*       -1.755552246E+00               0
GRID*               3232               0-2.810337996E+015.9508348101E+00+
*       5.7750000954E+00               0
GRID*               3233               08.4540618330E+004.4264132734E+01+
*       -7.055123148E+00               0
GRID*               3234               08.2574534416E+004.5745668411E+01+
*       -7.202931881E+00               0
GRID*               3235               0-1.119457301E+011.3104069955E+02+
*       -5.751936289E+00               0
GRID*               3236               0-8.112843662E+004.6560506871E+01+
*       -6.712029790E+00               0
GRID*               3237               0-8.257453442E+004.5745668411E+01+
*       -7.202931881E+00               0
GRID*               3238               0-1.215830576E+011.3155425815E+02+
*       -7.561936328E+00               0
GRID*               3239               0-1.158955120E+011.3340742547E+02+
*       -7.522558519E+00               0
GRID*               3240               0-8.402394600E+001.3751781775E+02+
*       -7.467852001E+00               0
GRID*               3241               0-7.766758600E+001.3814781180E+02+
*       -4.072092334E+00               0
GRID*               3242               0-7.049201396E+001.3869152269E+02+
*       -5.561108461E+00               0
GRID*               3243               09.4913254635E+001.3608429766E+02+
*       -2.352260599E+00               0
GRID*               3244               01.0305653903E+011.3434736609E+02+
*       -4.220503987E+00               0
GRID*               3245               01.0305628042E+011.3434739981E+02+
*       -2.410509297E+00               0
GRID*               3246               0-1.103099515E+013.7183118972E+01+
*       3.5516578835E-01               0
GRID*               3247               0-6.425299135E+006.7516224402E+01+
*       -5.601099862E+00               0
GRID*               3248               0-8.262401938E+001.2058277476E+02+
*       -6.871099554E+00               0
GRID*               3249               0-7.015929991E+001.2109045282E+02+
*       -5.061107705E+00               0
GRID*               3250               0-2.593601764E+012.5000000000E+00+
*       -8.884587896E+00               0
GRID*               3251               0-3.038700700E+014.4229749167E+00+
*       -5.195657023E+00               0
GRID*               3252               0-2.971887815E+012.5000000000E+00+
*       -7.256223874E+00               0
GRID*               3253               0-8.454589185E+004.4264289320E+01+
*       -7.054810598E+00               0
GRID*               3254               0-2.789768311E+012.5000000000E+00+
*       -7.162088048E+00               0
GRID*               3255               0-2.896901634E+014.6085863651E+00+
*       -5.775000095E+00               0
GRID*               3256               0-2.700735087E+014.6085863651E+00+
*       -5.775000095E+00               0
GRID*               3257               0-9.055610012E+003.9227999497E+01+
*       -3.653955603E+00               0
GRID*               3258               0-9.248858813E+003.8654061267E+01+
*       -4.267464634E+00               0
GRID*               3259               07.8929247706E+005.0377445193E+01+
*       5.2380951415E+00               0
GRID*               3260               07.7136951044E+004.9304110283E+01+
*       4.0716685981E+00               0
GRID*               3261               07.7394862771E+004.8976402389E+01+
*       6.3335734566E+00               0
GRID*               3262               08.1774291216E+004.6346231831E+01+
*       -6.894457397E+00               0
GRID*               3263               08.4323718912E+004.4426284983E+01+
*       -5.843088466E+00               0
GRID*               3264               08.6289802826E+004.2944749305E+01+
*       -5.695279733E+00               0
GRID*               3265               07.8435954692E+004.4502784922E+01+
*       -4.439048773E+00               0
GRID*               3266               03.0387006997E+014.4229749167E+00+
*       5.1956570232E+00               0
GRID*               3267               02.6618411816E+012.5000000000E+00+
*       9.2224998474E+00               0
GRID*               3268               02.7007350869E+014.6085863651E+00+
*       5.7750000954E+00               0
GRID*               3269               02.8969016340E+014.6085863651E+00+
*       5.7750000954E+00               0
GRID*               3270               02.7428664227E+012.1085863651E+00+
*       5.4370679330E+00               0
GRID*               3271               0-8.628980276E+004.2944749340E+01+
*       5.6952797365E+00               0
GRID*               3272               0-7.843584567E+004.4502785017E+01+
*       4.4390378784E+00               0
GRID*               3273               0-8.432371891E+004.4426284983E+01+
*       5.8430884664E+00               0
GRID*               3274               0-9.954979879E+001.2252802476E+02+
*       7.2400001526E+00               0
GRID*               3275               0-8.178508960E+004.6331874181E+01+
*       6.8929276895E+00               0
GRID*               3276               0-8.112843662E+004.6560506871E+01+
*       -4.837029790E+00               0
GRID*               3277               0-8.257453442E+004.5745668411E+01+
*       -5.327931881E+00               0
GRID*               3278               0-4.085706061E-019.3640403189E+01+
*       6.8733095976E+00               0
GRID*               3279               02.9585369316E+011.1073484487E+01+
*       5.7750000954E+00               0
GRID*               3280               06.9921419980E+006.1469829131E+01+
*       -5.648719548E+00               0
GRID*               3281               0-1.530816722E+004.7291372785E+01+
*       1.4641723128E+00               0
GRID*               3282               0-1.660297500E+008.8420644474E+01+
*       6.3752010198E+00               0
GRID*               3283               0-4.085706070E-019.3328366758E+01+
*       6.8393092022E+00               0
GRID*               3284               02.9249868301E+012.1085863651E+00+
*       5.5311959836E+00               0
GRID*               3285               0-2.560358833E+017.1103982236E+00+
*       -5.209462927E+00               0
GRID*               3286               0-1.183198939E+012.1335185146E+01+
*       9.2224998474E+00               0
GRID*               3287               0-9.039588561E-019.2763298953E+01+
*       -6.971194305E+00               0
GRID*               3288               0-1.626457071E+011.8131833011E+01+
*       -9.222499847E+00               0
GRID*               3289               0-2.537007021E+009.5084320821E+01+
*       -6.667244743E+00               0
GRID*               3290               0-2.071719287E+009.5834753518E+01+
*       -6.667244743E+00               0
GRID*               3291               01.1831989389E+012.1335185146E+01+
*       -9.222499847E+00               0
GRID*               3292               01.4189452734E+011.9970245673E+01+
*       -9.222499847E+00               0
GRID*               3293               02.5603588332E+017.1103982236E+00+
*       5.2094629274E+00               0
GRID*               3294               02.5461862941E-012.4868505721E+01+
*       -1.683637139E+00               0
GRID*               3295               0-2.608547893E+011.2402902607E+01+
*       4.0910730087E+00               0
GRID*               3296               0-1.986104739E+011.4134783705E+01+
*       9.2224998474E+00               0
GRID*               3297               02.0453127022E+009.6076297195E+01+
*       6.4578668191E+00               0
GRID*               3298               09.6308790850E+001.2244815795E+02+
*       7.2400001526E+00               0
GRID*               3299               0-1.240011269E+009.1808666820E+01+
*       -6.269539739E+00               0
GRID*               3300               07.1506685582E+005.9455558328E+01+
*       -5.673349870E+00               0
GRID*               3301               02.6419277738E+011.1456997486E+01+
*       5.2094629274E+00               0
GRID*               3302               02.5099650676E+018.9524993268E+00+
*       5.2094629274E+00               0
GRID*               3303               02.7823040256E+011.1084016566E+01+
*       5.7750000954E+00               0
GRID*               3304               02.9585369336E+018.9111728939E+00+
*       5.7750000954E+00               0
GRID*               3305               02.7823040216E+011.5443041797E+01+
*       5.7750000954E+00               0
GRID*               3306               02.2601204077E+011.9335610398E+01+
*       3.1201367040E+00               0
GRID*               3307               02.6503413194E+018.5795184072E+00+
*       5.7750000954E+00               0
GRID*               3308               02.1712278030E+011.3738108143E+01+
*       -2.869066993E+00               0
GRID*               3309               01.4189452734E+011.9970245673E+01+
*       9.2224998474E+00               0
GRID*               3310               0-2.782284977E+011.1085800434E+01+
*       -5.775000095E+00               0
GRID*               3311               0-2.509965068E+018.9524993268E+00+
*       -5.209462927E+00               0
GRID*               3312               0-2.650341319E+018.5795184072E+00+
*       -5.775000095E+00               0
GRID*               3313               0-2.409942572E+011.1119284695E+01+
*       -5.209462927E+00               0
GRID*               3314               01.9861047386E+011.4134783705E+01+
*       -9.222499847E+00               0
GRID*               3315               01.0963311733E+012.8803172770E+01+
*       -6.634325743E+00               0
GRID*               3316               08.5163520975E-012.6589619071E+01+
*       -4.205376872E+00               0
GRID*               3317               01.9592320186E+008.8307896001E+01+
*       6.3602182459E+00               0
GRID*               3318               0-8.218687090E+004.2282113923E+01+
*       4.2708014577E+00               0
GRID*               3319               0-4.185681832E+002.7139194369E+01+
*       6.6566935263E+00               0
GRID*               3320               0-2.709899688E+002.4214550320E+01+
*       6.4872095915E+00               0
GRID*               3321               0-3.183600172E-042.7499999997E+01+
*       6.6641516684E+00               0
GRID*               3322               07.3557919380E-017.3847301064E+01+
*       -4.387342285E+00               0
GRID*               3323               04.1852295537E+002.7139240660E+01+
*       6.6566981118E+00               0
GRID*               3324               0-3.298393544E+011.1243629533E+01+
*       -5.766156651E+00               0
GRID*               3325               02.3036622801E+008.7522684477E+01+
*       -6.244070404E+00               0
GRID*               3326               03.4425384692E+011.5553192077E+01+
*       1.2770440591E-12               0
GRID*               3327               01.6100578963E+004.2031753143E+01+
*       -1.396072694E+00               0
GRID*               3328               0-1.613928759E+004.2031753143E+01+
*       -1.396072694E+00               0
GRID*               3329               0-3.442538469E+011.3644485446E+01+
*       2.5415113963E-12               0
GRID*               3330               03.4425384692E+011.3644485446E+01+
*       2.5416649070E-12               0
GRID*               3331               03.3038556486E+011.6439025203E+01+
*       -3.288074600E+00               0
GRID*               3332               03.3689192413E+011.6068678390E+01+
*       -1.800893234E+00               0
GRID*               3333               03.3689192413E+011.4159971759E+01+
*       -1.800893234E+00               0
GRID*               3334               05.4654058830E+001.1215274717E+02+
*       -5.422700379E+00               0
GRID*               3335               0-4.032256207E+003.8955240079E+01+
*       0.0000000000E+00               0
GRID*               3336               08.9130828668E+004.2156831245E+01+
*       -1.211256453E+00               0
GRID*               3337               08.1889879483E+004.2447004221E+01+
*       -2.977119585E+00               0
GRID*               3338               0-8.731825559E+004.2450700559E+01+
*       7.0551231511E+00               0
GRID*               3339               0-9.085373935E+004.0998197915E+01+
*       6.9102354507E+00               0
GRID*               3340               02.7083008813E+002.4214550320E+01+
*       6.4872095915E+00               0
GRID*               3341               0-1.032171530E+011.3451984515E+02+
*       9.1710814967E-01               0
GRID*               3342               0-9.811966150E+001.3541540210E+02+
*       2.3709284423E+00               0
GRID*               3343               0-9.451411244E+001.3592542715E+02+
*       9.1704034436E-01               0
GRID*               3344               0-8.941662098E+001.3682098410E+02+
*       2.3708606370E+00               0
GRID*               3345               0-1.119544283E+011.3103497089E+02+
*       -9.221095365E-01               0
GRID*               3346               0-1.032186984E+011.3451947224E+02+
*       -8.929427009E-01               0
GRID*               3347               0-9.860363435E+001.3534254274E+02+
*       -2.354899823E+00               0
GRID*               3348               0-9.451371307E+001.3592547922E+02+
*       -8.929514364E-01               0
GRID*               3349               0-8.989864904E+001.3674854972E+02+
*       -2.354908558E+00               0
GRID*               3350               0-3.368919241E+011.6068678390E+01+
*       -1.800893234E+00               0
GRID*               3351               0-1.101049342E+013.5955672247E+01+
*       4.4998445618E+00               0
GRID*               3352               0-1.119012850E+013.5569984306E+01+
*       5.4434432600E+00               0
GRID*               3353               0-1.144546499E+013.5073736556E+01+
*       4.5430040634E+00               0
GRID*               3354               0-8.703440060E+003.7517659639E+01+
*       -1.307071563E+00               0
GRID*               3355               0-7.641283466E+003.6370914200E+01+
*       -6.048571314E-01               0
GRID*               3356               0-8.917280504E+003.9707974361E+01+
*       -2.013573784E+00               0
GRID*               3357               0-9.136599753E+003.8976168291E+01+
*       -2.802804738E+00               0
GRID*               3358               0-8.875889978E+003.9867373830E+01+
*       -3.056304723E+00               0
GRID*               3359               07.6690039261E+004.5822165493E+01+
*       3.9242189326E+00               0
GRID*               3360               08.2574534416E+004.5745668411E+01+
*       5.3279318810E+00               0
GRID*               3361               0-1.097420802E+011.3199629979E+02+
*       4.2112753159E+00               0
GRID*               3362               01.9144232434E-043.3348621368E+01+
*       0.0000000000E+00               0
GRID*               3363               0-1.679935970E+003.3262866244E+01+
*       7.5027204435E-03               0
GRID*               3364               0-9.043675261E-013.4760510850E+01+
*       1.2352423985E-01               0
GRID*               3365               03.3602295055E+003.3177094993E+01+
*       0.0000000000E+00               0
GRID*               3366               02.6503413174E+011.0741830000E+01+
*       -5.775000095E+00               0
GRID*               3367               0-8.075164125E+004.7206058823E+01+
*       -4.940759923E+00               0
GRID*               3368               0-8.075164125E+004.7206058823E+01+
*       -6.815759923E+00               0
GRID*               3369               02.9588520533E+019.4536524630E+00+
*       -5.209423559E+00               0
GRID*               3370               02.9573967647E+011.1425621722E+01+
*       -5.223276693E+00               0
GRID*               3371               0-1.609076243E+012.9972560265E+01+
*       -1.061276118E+00               0
GRID*               3372               0-1.729954910E+012.8944674482E+01+
*       -1.574661518E+00               0
GRID*               3373               0-8.774118091E+004.2274632748E+01+
*       -5.374448033E+00               0
GRID*               3374               0-8.639573623E+004.2891789942E+01+
*       -5.050450539E+00               0
GRID*               3375               0-8.362939688E+004.1611979193E+01+
*       -3.949960451E+00               0
GRID*               3376               0-2.508541490E+016.6362977951E+00+
*       5.1956486022E+00               0
GRID*               3377               0-8.426980554E+004.1361490804E+01+
*       -2.165231133E+00               0
GRID*               3378               0-7.675953609E+004.9542055949E+01+
*       -6.350565261E+00               0
GRID*               3379               0-2.919721353E+011.4688109012E+01+
*       -5.237181366E+00               0
GRID*               3380               02.1023085046E+001.4057819969E+02+
*       -2.620345924E+00               0
GRID*               3381               0-1.800929582E+012.8184306792E+01+
*       -5.183751348E+00               0
GRID*               3382               0-8.454589185E+004.4264289320E+01+
*       -5.179810598E+00               0
GRID*               3383               0-1.754981541E+012.8572710790E+01+
*       -4.823860144E+00               0
GRID*               3384               0-7.373222617E+002.8132378753E+01+
*       -2.220382602E+00               0
GRID*               3385               01.8278562434E+012.7740925463E+01+
*       2.7421206596E+00               0
GRID*               3386               06.7870510959E+002.3467243797E+01+
*       -9.222499847E+00               0
GRID*               3387               09.2440727862E+004.0382898049E+01+
*       5.9150211460E+00               0
GRID*               3388               09.3304394480E+004.0091825899E+01+
*       5.0848849641E+00               0
GRID*               3389               0-6.787051096E+002.3467243797E+01+
*       -9.222499847E+00               0
GRID*               3390               01.4492746212E+013.1687563381E+01+
*       6.3077083975E+00               0
GRID*               3391               01.4360145104E+013.1859324050E+01+
*       4.8994570809E+00               0
GRID*               3392               08.8901285045E+004.1835206270E+01+
*       6.0602331788E+00               0
GRID*               3393               01.3832886030E+013.2610434979E+01+
*       5.1146433693E+00               0
GRID*               3394               01.7068809461E+012.9084687762E+01+
*       4.4520501111E+00               0
GRID*               3395               0-7.725503685E-011.1644678193E+02+
*       -7.691454304E+00               0
GRID*               3396               0-7.049179830E+001.3869155172E+02+
*       -7.371103596E+00               0
GRID*               3397               0-9.860426585E+001.3534239036E+02+
*       -4.164920628E+00               0
GRID*               3398               09.5798857148E+001.2405433722E+02+
*       -3.619988629E+00               0
GRID*               3399               08.8344820039E+001.2274800996E+02+
*       -5.060855080E+00               0
GRID*               3400               0-1.013219730E+013.7837910936E+01+
*       6.7693286975E+00               0
GRID*               3401               0-7.906461460E+004.9349629273E+01+
*       -4.553855065E+00               0
GRID*               3402               0-8.627464637E+004.2955865780E+01+
*       -5.956538791E+00               0
GRID*               3403               06.0790097635E+001.1389266528E+02+
*       5.9916325317E+00               0
GRID*               3404               08.4660542177E+001.2283251514E+02+
*       -1.810041754E+00               0
GRID*               3405               07.6177826756E+001.2132619799E+02+
*       -1.035266650E+00               0
GRID*               3406               0-1.685361943E+012.9298672023E+01+
*       4.5504350344E+00               0
GRID*               3407               0-1.157743290E+013.4836900004E+01+
*       6.6343257427E+00               0
GRID*               3408               0-4.620790886E+001.4027820611E+02+
*       -7.240000153E+00               0
GRID*               3409               0-1.708456547E+012.9076610092E+01+
*       5.2269742942E+00               0
GRID*               3410               0-1.286984666E+001.4073074063E+02+
*       -7.240016089E+00               0
GRID*               3411               08.3856285091E+004.1520578814E+01+
*       3.2078984674E+00               0
GRID*               3412               01.8397710328E+012.7644391470E+01+
*       1.9857954752E+00               0
GRID*               3413               0-2.862401600E+011.9871666609E+01+
*       -5.775000095E+00               0
GRID*               3414               09.5798778254E+001.2405432694E+02+
*       -1.809986959E+00               0
GRID*               3415               08.4659390029E+001.2283242673E+02+
*       -3.620023519E+00               0
GRID*               3416               08.9078441215E+001.3684946500E+02+
*       -9.022113956E-01               0
GRID*               3417               09.9533445499E+001.3525946962E+02+
*       -8.984579277E-01               0
GRID*               3418               0-5.729463751E+001.3968813839E+02+
*       -7.371103596E+00               0
GRID*               3419               01.6519581598E+012.9251468942E+01+
*       -4.340804761E+00               0
GRID*               3420               0-6.305744352E+001.3926371051E+02+
*       7.2400083425E+00               0
GRID*               3421               09.4435968344E+001.3615607445E+02+
*       5.5770103964E-01               0
GRID*               3422               01.0301491427E+011.3436090676E+02+
*       5.8429050465E-01               0
GRID*               3423               03.4404945142E+007.0422563286E+01+
*       -4.612607367E+00               0
GRID*               3424               08.2678664406E+001.3748457209E+02+
*       -4.070653874E+00               0
GRID*               3425               0-5.870929264E+001.2040746390E+02+
*       7.2400117702E+00               0
GRID*               3426               0-6.447108378E+001.3914439051E+02+
*       -4.072099050E+00               0
GRID*               3427               0-7.766810135E+001.3814774462E+02+
*       -2.262102953E+00               0
GRID*               3428               0-1.013268950E+013.7838131464E+01+
*       -6.768899646E+00               0
GRID*               3429               0-1.002986790E+013.8110750209E+01+
*       -5.557698612E+00               0
GRID*               3430               0-1.038810413E+013.7231780378E+01+
*       -5.648213479E+00               0
GRID*               3431               0-5.729551174E+001.3968810139E+02+
*       -5.561115176E+00               0
GRID*               3432               0-4.620558365E+001.4027830183E+02+
*       -3.619968094E+00               0
GRID*               3433               0-5.729231229E+001.3968823411E+02+
*       -3.751071538E+00               0
GRID*               3434               05.3261297564E+001.3850004766E+02+
*       -7.240026355E+00               0
GRID*               3435               06.4923429870E+001.3758737835E+02+
*       -7.240026355E+00               0
GRID*               3436               06.3384893025E+001.4056858676E+02+
*       -7.369970284E+00               0
GRID*               3437               06.4356749284E+001.3925085562E+02+
*       -5.559996448E+00               0
GRID*               3438               07.5047025331E+001.3965591745E+02+
*       -7.369970284E+00               0
GRID*               3439               0-7.668666117E+004.5822168446E+01+
*       3.9238812930E+00               0
GRID*               3440               0-1.067506785E+011.3360630774E+02+
*       -2.410624241E+00               0
GRID*               3441               0-1.089154073E+011.3266048713E+02+
*       -9.221163603E-01               0
GRID*               3442               09.6380302417E+003.9213257883E+01+
*       -5.521349008E+00               0
GRID*               3443               09.6255994070E+003.9244958854E+01+
*       -6.910235922E+00               0
GRID*               3444               01.0132197291E+013.7837910969E+01+
*       -6.769328701E+00               0
GRID*               3445               01.0144628126E+013.7806209997E+01+
*       -5.380441786E+00               0
GRID*               3446               07.8823977687E+004.7160539833E+01+
*       4.4585734566E+00               0
GRID*               3447               0-9.079385779E+003.2849075636E+01+
*       -1.186402182E+00               0
GRID*               3448               0-8.388774968E+003.4833402926E+01+
*       -4.703422579E-01               0
GRID*               3449               0-6.446788433E+001.3914452323E+02+
*       -2.262055411E+00               0
GRID*               3450               0-6.644803237E+001.1545367302E+02+
*       6.2071159638E+00               0
GRID*               3451               0-1.091242789E+011.2748481305E+02+
*       8.1104886409E-01               0
GRID*               3452               0-1.068436949E+011.2642445793E+02+
*       2.1934351246E+00               0
GRID*               3453               0-1.098827173E+011.2804997417E+02+
*       2.1934283004E+00               0
GRID*               3454               0-9.950068377E+001.2479783123E+02+
*       1.8100068623E+00               0
GRID*               3455               04.9555341857E+001.3998789408E+02+
*       -5.559965396E+00               0
GRID*               3456               03.8459890137E+001.3923708612E+02+
*       -7.239995303E+00               0
GRID*               3457               03.8464976461E+001.4057819672E+02+
*       -5.429995265E+00               0
GRID*               3458               05.2294527629E+001.4115888940E+02+
*       -7.240000153E+00               0
GRID*               3459               07.7892130284E+001.3807657276E+02+
*       -5.652855901E+00               0
GRID*               3460               07.1535639147E+001.3870678009E+02+
*       -4.070677770E+00               0
GRID*               3461               03.8464904861E+001.4057819969E+02+
*       -3.619996202E+00               0
GRID*               3462               04.9555270257E+001.3998789705E+02+
*       -3.749966334E+00               0
GRID*               3463               09.1366196120E+003.8976117272E+01+
*       2.8028014426E+00               0
GRID*               3464               09.0556298702E+003.9227948478E+01+
*       3.6539523083E+00               0
GRID*               3465               08.8759098367E+003.9867322811E+01+
*       3.0563014280E+00               0
GRID*               3466               01.0388108789E+013.7231769307E+01+
*       5.6482123721E+00               0
GRID*               3467               01.0142613439E+013.7812804150E+01+
*       4.8225132439E+00               0
GRID*               3468               09.7434129851E+003.7483903691E+01+
*       3.4495627618E+00               0
GRID*               3469               09.3616195458E+003.8356075260E+01+
*       3.5322770774E+00               0
GRID*               3470               01.0524406878E+013.6940632581E+01+
*       4.7397989283E+00               0
GRID*               3471               09.1100554934E+004.1230628895E+01+
*       1.2128277098E+00               0
GRID*               3472               09.1514460193E+004.1071229425E+01+
*       1.7009677094E-01               0
GRID*               3473               09.3707652687E+004.0339423356E+01+
*       9.5932772447E-01               0
GRID*               3474               01.1041836283E+013.5885840522E+01+
*       5.5136395762E+00               0
GRID*               3475               01.1577432900E+013.4836900004E+01+
*       6.6343257427E+00               0
GRID*               3476               01.0786421661E+013.6492191608E+01+
*       6.6343257427E+00               0
GRID*               3477               09.4888975725E+003.8044668455E+01+
*       2.6774377660E+00               0
GRID*               3478               01.1197997400E+011.3088921091E+02+
*       -7.240022471E+00               0
GRID*               3479               0-7.853977646E+004.4449666208E+01+
*       -3.794848157E+00               0
GRID*               3480               0-9.128043192E+004.0822306861E+01+
*       -5.229234234E+00               0
GRID*               3481               0-6.160656529E+003.8237311260E+01+
*       -5.884714459E-01               0
GRID*               3482               06.5800107383E+001.3915321560E+02+
*       -9.066017087E-01               0
GRID*               3483               06.5804675981E+001.3915286585E+02+
*       9.0347075380E-01               0
GRID*               3484               07.7935389824E+001.3807166108E+02+
*       -9.022344506E-01               0
GRID*               3485               07.7939958422E+001.3807131133E+02+
*       9.0783801186E-01               0
GRID*               3486               01.0896754254E+011.2717446081E+02+
*       -7.745528223E-01               0
GRID*               3487               0-1.833682922E+012.8015389522E+01+
*       -2.160964840E+00               0
GRID*               3488               0-8.257453442E+004.5745668411E+01+
*       5.3279318810E+00               0
GRID*               3489               01.0634335618E+011.2350253142E+02+
*       -7.240000153E+00               0
GRID*               3490               09.5692988474E+001.2242524809E+02+
*       -7.240000153E+00               0
GRID*               3491               01.1120801792E+011.3019509431E+02+
*       7.5030712374E+00               0
GRID*               3492               08.7323596185E+004.2450821735E+01+
*       7.0548070608E+00               0
GRID*               3493               09.0863039003E+004.0998513515E+01+
*       6.9095950279E+00               0
GRID*               3494               09.2950100520E+004.0204773379E+01+
*       -5.688348135E+00               0
GRID*               3495               08.9414421626E+004.1657270458E+01+
*       -5.833235360E+00               0
GRID*               3496               08.5311616576E+004.0994685088E+01+
*       -4.408786691E+00               0
GRID*               3497               01.2128412095E+013.2764819527E+01+
*       5.4412607145E+00               0
GRID*               3498               01.1942351230E+013.4238088956E+01+
*       5.4412607145E+00               0
GRID*               3499               01.2128633413E+013.2765670266E+01+
*       6.3069349718E+00               0
GRID*               3500               08.5653485425E+004.0881204481E+01+
*       3.8055493478E+00               0
GRID*               3501               09.0853934549E+004.0998203445E+01+
*       -6.910235922E+00               0
GRID*               3502               08.7318255656E+004.2450700524E+01+
*       -7.055123148E+00               0
GRID*               3503               0-9.079517781E+001.2339175785E+02+
*       5.4300050169E+00               0
GRID*               3504               0-1.098827173E+011.2804997417E+02+
*       4.0034283386E+00               0
GRID*               3505               0-9.079517781E+001.2339175785E+02+
*       3.6200049787E+00               0
GRID*               3506               0-9.950131505E+001.2479798362E+02+
*       3.6200276679E+00               0
GRID*               3507               0-1.051944661E+011.2594226353E+02+
*       8.1633058096E-01               0
GRID*               3508               0-1.051929211E+011.2594189060E+02+
*       -9.937202706E-01               0
GRID*               3509               0-1.121851125E+011.2912694370E+02+
*       -5.824782745E+00               0
GRID*               3510               0-9.659893801E+001.3213892246E+02+
*       -7.240027744E+00               0
GRID*               3511               0-9.963732751E+001.3051355860E+02+
*       -7.240000153E+00               0
GRID*               3512               0-9.862203077E+001.2905916917E+02+
*       -7.240000153E+00               0
GRID*               3513               0-1.066968028E+011.2637629779E+02+
*       -4.395418428E+00               0
GRID*               3514               02.1031771810E+001.4057819672E+02+
*       -7.239995303E+00               0
GRID*               3515               02.1023156647E+001.4057819672E+02+
*       -4.430344986E+00               0
GRID*               3516               02.8969016320E+016.7374173040E+00+
*       5.7750000954E+00               0
GRID*               3517               02.7007350850E+016.7374173040E+00+
*       5.7750000954E+00               0
GRID*               3518               04.0905808038E+001.2093066283E+02+
*       7.2399953032E+00               0
GRID*               3519               06.9455905324E+001.3888021095E+02+
*       4.0451848628E+00               0
GRID*               3520               03.8464774118E+001.4057820511E+02+
*       2.0927236137E-06               0
GRID*               3521               05.3266099141E+001.3984118006E+02+
*       -1.810030748E+00               0
GRID*               3522               05.3270667739E+001.3984083031E+02+
*       4.1714965846E-05               0
GRID*               3523               06.4356464537E+001.3925087742E+02+
*       -3.750000917E+00               0
GRID*               3524               07.1535354399E+001.3870680189E+02+
*       -2.260682239E+00               0
GRID*               3525               0-2.406925061E+012.3793674712E+00+
*       3.0649185218E+00               0
GRID*               3526               08.2678405790E+001.3748460581E+02+
*       -2.260659184E+00               0
GRID*               3527               08.3297485551E+001.3737792077E+02+
*       2.3677504471E+00               0
GRID*               3528               0-2.742866428E+012.1085863651E+00+
*       5.4370671682E+00               0
GRID*               3529               0-2.425735092E+012.5000000000E+00+
*       9.2224998474E+00               0
GRID*               3530               0-6.038443432E+001.1376281758E+02+
*       -5.423874067E+00               0
GRID*               3531               07.8631935619E+001.2179491972E+02+
*       2.4593041208E+00               0
GRID*               3532               05.4076633341E+001.2129444229E+02+
*       2.0275898271E+00               0
GRID*               3533               05.4081198065E+001.2129479255E+02+
*       2.1751736409E-01               0
GRID*               3534               07.6017352927E+001.1980265520E+02+
*       9.9233418352E-01               0
GRID*               3535               05.3053472657E+001.1824045006E+02+
*       6.6340391184E+00               0
GRID*               3536               05.1579381622E+001.1939042597E+02+
*       4.8240652832E+00               0
GRID*               3537               0-1.317154426E+001.0031744037E+02+
*       -6.687168087E+00               0
GRID*               3538               06.9476896224E+001.1986383362E+02+
*       5.1733095327E+00               0
GRID*               3539               08.9774998947E+001.2301711597E+02+
*       2.4592810659E+00               0
GRID*               3540               0-9.330413566E+004.0091843608E+01+
*       -5.084886735E+00               0
GRID*               3541               0-8.565310062E+004.0881515941E+01+
*       -3.805612952E+00               0
GRID*               3542               01.0299287007E+011.2563205130E+02+
*       -2.584506739E+00               0
GRID*               3543               09.5932610751E+003.9362717887E+01+
*       6.5054261180E+00               0
GRID*               3544               01.1198251522E+011.3085520370E+02+
*       4.1463215878E+00               0
GRID*               3545               01.2690810074E+013.4251037132E+01+
*       -8.692569824E-01               0
GRID*               3546               01.1118263755E+011.2813462311E+02+
*       7.4437871601E+00               0
GRID*               3547               0-2.885734746E+001.4027827932E+02+
*       5.5244157367E-01               0
GRID*               3548               0-4.620612636E+001.4027827932E+02+
*       1.8100246276E+00               0
GRID*               3549               0-2.879555272E+001.4027827932E+02+
*       2.6222213609E+00               0
GRID*               3550               0-6.469626735E+001.1996007228E+02+
*       -6.663315554E+00               0
GRID*               3551               0-5.778455822E+006.6854784369E+01+
*       -4.611192978E+00               0
GRID*               3552               01.0896754622E+011.2717446361E+02+
*       -2.584553218E+00               0
GRID*               3553               0-4.373801514E+004.9882473360E+01+
*       2.1019946468E-01               0
GRID*               3554               0-4.222754474E-011.1921968335E+02+
*       -3.390966004E+00               0
GRID*               3555               09.0740541290E+004.1376822255E+01+
*       -7.319341359E-01               0
GRID*               3556               09.5799040781E+001.2405436113E+02+
*       1.8100076923E+00               0
GRID*               3557               08.4660542177E+001.2283251514E+02+
*       -4.171572321E-05               0
GRID*               3558               09.5798778254E+001.2405432694E+02+
*       1.3078736831E-05               0
GRID*               3559               01.0148907836E+011.2519785538E+02+
*       -9.937632610E-01               0
GRID*               3560               03.0667851400E+011.9229749167E+00+
*       -4.951862068E+00               0
GRID*               3561               03.1699317866E+012.5000000000E+00+
*       -7.256205045E+00               0
GRID*               3562               03.2573040670E+011.9229749167E+00+
*       -4.727453733E+00               0
GRID*               3563               07.8636500343E+001.2179526997E+02+
*       6.4923165783E-01               0
GRID*               3564               09.5799299566E+001.2405439484E+02+
*       3.6200023828E+00               0
GRID*               3565               0-2.789768073E+012.5000000000E+00+
*       7.1620670728E+00               0
GRID*               3566               0-3.497389030E+018.4850493238E+00+
*       3.7500000000E+00               0
GRID*               3567               0-9.523662367E+003.9517905378E+01+
*       -5.698395765E+00               0
GRID*               3568               09.4435705991E+001.3615610865E+02+
*       2.3676956531E+00               0
GRID*               3569               09.8870360173E+001.3693094743E+02+
*       7.5148277197E+00               0
GRID*               3570               01.0301465191E+011.3436094096E+02+
*       2.3942851181E+00               0
GRID*               3571               0-1.108839598E+013.4574409808E+01+
*       -3.166078621E+00               0
GRID*               3572               01.1139373583E+011.2828122024E+02+
*       2.6204023547E+00               0
GRID*               3573               01.0356269054E+013.7301391608E+01+
*       -4.634847520E+00               0
GRID*               3574               01.0535904131E+013.6915703667E+01+
*       -5.578446218E+00               0
GRID*               3575               08.2574534416E+004.5745668411E+01+
*       -5.327931881E+00               0
GRID*               3576               07.0584959569E+004.1049341148E+01+
*       1.7654480656E+00               0
GRID*               3577               08.9472982419E+004.1968099919E+01+
*       -2.413224061E-01               0
GRID*               3578               08.5120886107E+004.4793550102E+01+
*       2.3273684613E+00               0
GRID*               3579               07.8980045243E+004.6606629123E+01+
*       2.3613368986E+00               0
GRID*               3580               0-6.238290261E+001.3931834256E+02+
*       2.2367176263E+00               0
GRID*               3581               0-7.558297629E+001.3832153439E+02+
*       2.2366692201E+00               0
GRID*               3582               0-8.406177315E+001.3751350789E+02+
*       9.0878920975E-01               0
GRID*               3583               0-8.406137377E+001.3751355996E+02+
*       -9.012025710E-01               0
GRID*               3584               0-5.873052706E+001.3959098289E+02+
*       9.0368479762E-01               0
GRID*               3585               0-7.193060074E+001.3859417472E+02+
*       9.0363639145E-01               0
GRID*               3586               0-8.748109827E+004.1364742790E+01+
*       1.0551025793E+00               0
GRID*               3587               0-7.193020137E+001.3859422679E+02+
*       -9.063553893E-01               0
GRID*               3588               0-5.872998435E+001.3959100540E+02+
*       -9.063078481E-01               0
GRID*               3589               0-9.949913887E+001.2479745830E+02+
*       -3.620044066E+00               0
GRID*               3590               0-1.111146628E+011.2470521364E+02+
*       -7.834905696E+00               0
GRID*               3591               0-1.169435156E+011.2664993006E+02+
*       -7.834905696E+00               0
GRID*               3592               0-1.052816506E+011.2596504870E+02+
*       -6.024925540E+00               0
GRID*               3593               0-1.083214848E+011.2759076089E+02+
*       -6.024905658E+00               0
GRID*               3594               0-1.706121388E+012.9030294739E+01+
*       -4.729077896E+00               0
GRID*               3595               0-9.051902174E+001.2091198669E+02+
*       7.2647163801E+00               0
GRID*               3596               0-9.874856551E+003.8492593612E+01+
*       -6.288798967E+00               0
GRID*               3597               0-7.222813124E+003.9384056700E+01+
*       -1.290685878E+00               0
GRID*               3598               0-4.620558365E+001.4027830183E+02+
*       3.1981930575E-05               0
GRID*               3599               01.0148959967E+011.2519792327E+02+
*       2.6262260431E+00               0
GRID*               3600               01.0132694167E+013.7838120393E+01+
*       6.7688985386E+00               0
GRID*               3601               01.1453289492E+013.5059345112E+01+
*       5.3058721558E+00               0
GRID*               3602               01.1178134372E+013.5594703796E+01+
*       4.6052261324E+00               0
GRID*               3603               06.4282629852E+004.4752358051E+01+
*       2.5015873940E+00               0
GRID*               3604               01.3810017876E+013.2722496933E+01+
*       -4.154651425E+00               0
GRID*               3605               01.4347816439E+013.1955745562E+01+
*       -4.209394997E+00               0
GRID*               3606               0-6.649614047E+001.1712440986E+02+
*       6.9821160592E+00               0
GRID*               3607               01.8408140029E+012.7518223961E+01+
*       -1.727732886E+00               0
GRID*               3608               01.4577444226E+013.1662328396E+01+
*       -4.945492892E+00               0
GRID*               3609               01.2144512409E+013.3936079642E+01+
*       -5.494817590E+00               0
GRID*               3610               01.2330573274E+013.2462810213E+01+
*       -5.494817590E+00               0
GRID*               3611               0-8.525336159E-013.1763812296E+01+
*       -5.476624697E-01               0
GRID*               3612               0-1.480758176E-033.0179048157E+01+
*       4.4682442698E-05               0
GRID*               3613               0-5.284684622E+001.1184753300E+02+
*       -5.423874067E+00               0
GRID*               3614               0-9.294990532E+004.0204767849E+01+
*       5.6883476634E+00               0
GRID*               3615               0-8.941442156E+004.1657270493E+01+
*       5.8332353639E+00               0
GRID*               3616               0-8.531148970E+004.0994635076E+01+
*       4.4087570850E+00               0
GRID*               3617               0-9.364036773E+003.8349536119E+01+
*       4.0896123317E+00               0
GRID*               3618               0-1.014462814E+013.7806209965E+01+
*       5.3804417831E+00               0
GRID*               3619               0-9.638010722E+003.9213252352E+01+
*       5.5213485363E+00               0
GRID*               3620               07.5487772846E+003.9396085146E+01+
*       1.6138510262E+00               0
GRID*               3621               02.4076622474E+012.2217760180E+01+
*       2.3203707508E+00               0
GRID*               3622               02.1576580013E+012.2476920293E+01+
*       3.9528272178E+00               0
GRID*               3623               02.1709068825E+012.3809556742E+01+
*       6.0703707508E+00               0
GRID*               3624               0-9.377199100E+002.2623546446E+01+
*       -9.222499847E+00               0
GRID*               3625               01.0640012467E+013.5417313243E+01+
*       3.2247764136E+00               0
GRID*               3626               01.1088395979E+013.4574409808E+01+
*       3.1660786214E+00               0
GRID*               3627               01.1626517884E+013.4751800361E+01+
*       4.5465283402E+00               0
GRID*               3628               0-2.700735085E+016.7374173040E+00+
*       -5.775000095E+00               0
GRID*               3629               02.4257350922E+012.5000000000E+00+
*       -9.222499847E+00               0
GRID*               3630               0-1.162651788E+013.4751800361E+01+
*       -4.546528340E+00               0
GRID*               3631               0-1.064001247E+013.5417313243E+01+
*       -3.224776414E+00               0
GRID*               3632               0-1.117813437E+013.5594703796E+01+
*       -4.605226132E+00               0
GRID*               3633               0-9.488877714E+003.8044719474E+01+
*       -2.677441061E+00               0
GRID*               3634               08.7150405933E+001.1924164990E+02+
*       7.2653238289E+00               0
GRID*               3635               02.6618411816E+012.5000000000E+00+
*       -9.222499847E+00               0
GRID*               3636               02.7897683310E+012.5000000000E+00+
*       -7.162083077E+00               0
GRID*               3637               0-1.104183628E+013.5885840522E+01+
*       -5.513639576E+00               0
GRID*               3638               0-1.145328949E+013.5059345112E+01+
*       -5.305872156E+00               0
GRID*               3639               02.9891275119E+018.5294607373E+00+
*       -5.775000095E+00               0
GRID*               3640               03.2562177195E+001.1716813150E+02+
*       6.7147611843E+00               0
GRID*               3641               0-1.194235123E+013.4238088956E+01+
*       -5.441260715E+00               0
GRID*               3642               03.6451424608E+001.1934132778E+02+
*       7.2399953032E+00               0
GRID*               3643               02.9043750224E+011.9030595390E+01+
*       5.7750000954E+00               0
GRID*               3644               02.9996421992E+011.6898463148E+01+
*       5.2371813664E+00               0
GRID*               3645               03.0418114028E+011.8273878737E+01+
*       5.2371813664E+00               0
GRID*               3646               01.0681284046E+013.6995587716E+01+
*       -8.047967095E-02               0
GRID*               3647               0-3.066785878E+011.9229749167E+00+
*       4.9518496446E+00               0
GRID*               3648               0-1.078642166E+013.6492191608E+01+
*       -6.634325743E+00               0
GRID*               3649               0-2.700735087E+014.6085863651E+00+
*       5.7750000954E+00               0
GRID*               3650               0-2.668538164E+016.1364451370E+00+
*       5.1956486022E+00               0
GRID*               3651               0-1.545031372E+013.0664473516E+01+
*       -1.176246994E+00               0
GRID*               3652               0-1.053590414E+013.6915703634E+01+
*       5.5784462148E+00               0
GRID*               3653               0-1.078642166E+013.6492191608E+01+
*       6.6343257427E+00               0
GRID*               3654               0-1.090734310E+013.4896346008E+01+
*       3.1625543570E+00               0
GRID*               3655               0-1.193461799E+013.4250033959E+01+
*       4.5869110937E+00               0
GRID*               3656               0-1.164517216E+013.4719857673E+01+
*       5.2976061804E+00               0
GRID*               3657               0-1.214451241E+013.3936079642E+01+
*       5.4948175897E+00               0
GRID*               3658               0-1.626457071E+011.8131833011E+01+
*       9.2224998474E+00               0
GRID*               3659               01.1577432900E+013.4836900004E+01+
*       -6.634325743E+00               0
GRID*               3660               01.0786421661E+013.6492191608E+01+
*       -6.634325743E+00               0
GRID*               3661               01.1190128501E+013.5569984306E+01+
*       -5.443443260E+00               0
GRID*               3662               09.2488786714E+003.8654010248E+01+
*       4.2674613387E+00               0
GRID*               3663               02.2380176616E+002.6505809554E+01+
*       -1.468948248E+00               0
GRID*               3664               0-7.673674136E+005.0536023814E+01+
*       -6.576897119E+00               0
GRID*               3665               01.1445464990E+013.5073736556E+01+
*       -4.543004063E+00               0
GRID*               3666               01.1645172155E+013.4719857673E+01+
*       -5.297606180E+00               0
GRID*               3667               01.1934617992E+013.4250033959E+01+
*       -4.586911094E+00               0
GRID*               3668               01.0907343085E+013.4896346003E+01+
*       -3.162554345E+00               0
GRID*               3669               01.2992902429E+013.3774812535E+01+
*       -6.908684887E-02               0
GRID*               3670               01.3213213576E+013.3455099231E+01+
*       -9.288479877E-01               0
GRID*               3671               03.2239866551E+004.2275535281E+01+
*       0.0000000000E+00               0
GRID*               3672               03.2840782300E+004.4571251141E+01+
*       -1.607380213E+00               0
GRID*               3673               02.8103237727E+015.9461239061E+00+
*       -5.775000095E+00               0
GRID*               3674               02.8969016340E+014.6085863651E+00+
*       -5.775000095E+00               0
GRID*               3675               02.7428666864E+012.1085863651E+00+
*       -5.437083172E+00               0
GRID*               3676               02.5430841074E+018.6422513925E+00+
*       -6.561824383E+00               0
GRID*               3677               02.6009429440E+016.5943469814E+00+
*       -4.257472985E+00               0
GRID*               3678               02.8969016320E+016.7374173040E+00+
*       -5.775000095E+00               0
GRID*               3679               0-9.625579887E+003.9244953324E+01+
*       6.9102354507E+00               0
GRID*               3680               0-1.079695747E+013.7724307796E+01+
*       1.1658132143E+00               0
GRID*               3681               0-1.035626907E+013.7301391575E+01+
*       4.6348475166E+00               0
GRID*               3682               0-9.021016583E+003.9341051615E+01+
*       4.2566114588E+00               0
GRID*               3683               05.0227456159E+003.2920731334E+01+
*       -2.242903149E-02               0
GRID*               3684               09.2549903642E+003.8637259629E+01+
*       1.8842750844E+00               0
GRID*               3685               08.2186997776E+004.2282163934E+01+
*       -4.270831063E+00               0
GRID*               3686               08.4083645262E+004.1433443255E+01+
*       -3.352672759E+00               0
GRID*               3687               02.8622058189E+011.7655179801E+01+
*       5.7750000954E+00               0
GRID*               3688               0-2.924986171E+012.1085863651E+00+
*       -5.531223969E+00               0
GRID*               3689               01.1010493424E+013.5955672247E+01+
*       -4.499844562E+00               0
GRID*               3690               02.9718877188E+012.5000000000E+00+
*       -7.256205045E+00               0
GRID*               3691               02.9249860743E+012.1085863651E+00+
*       -5.531205140E+00               0
GRID*               3692               07.8721579203E+003.1711409153E+01+
*       -5.834937867E-01               0
GRID*               3693               06.3858238240E+003.1171543444E+01+
*       -5.186654004E-01               0
GRID*               3694               01.1255640781E+013.2684333843E+01+
*       2.2813484557E+00               0
GRID*               3695               0-1.157743290E+013.4836900004E+01+
*       -6.634325743E+00               0
GRID*               3696               09.0447361316E-013.4760506376E+01+
*       -1.235238659E-01               0
GRID*               3697               02.6036437167E+003.5552021235E+01+
*       -1.011997369E+00               0
GRID*               3698               01.6993615458E+003.4140136227E+01+
*       9.5526398019E-01               0
GRID*               3699               03.3793805774E+003.4054373039E+01+
*       -8.809701546E-01               0
GRID*               3700               0-1.212863341E+013.2765670266E+01+
*       -6.306934972E+00               0
GRID*               3701               0-9.254970506E+003.8637310648E+01+
*       -1.884278379E+00               0
GRID*               3702               02.5479375618E-012.7868527962E+01+
*       3.9664641916E+00               0
GRID*               3703               0-5.937770224E+003.4201878949E+01+
*       -1.345148735E-01               0
GRID*               3704               03.0387006997E+014.4229749167E+00+
*       -5.195657023E+00               0
GRID*               3705               03.3730476036E+011.8321335595E+00+
*       1.0826446173E+00               0
GRID*               3706               0-1.388842055E+013.1357722820E+01+
*       -2.545309373E+00               0
GRID*               3707               01.2260891385E+013.1154306606E+01+
*       6.3077083975E+00               0
GRID*               3708               01.2137367676E+013.3946440061E+01+
*       4.5030977286E+00               0
GRID*               3709               05.0254357570E+001.1073291153E+02+
*       6.1163691502E+00               0
GRID*               3710               0-1.026884163E+013.1896681764E+01+
*       -1.771744336E+00               0
GRID*               3711               0-5.419059197E+005.0563847329E+01+
*       7.7693041513E-01               0
GRID*               3712               0-5.445535054E+007.7021904059E+01+
*       5.7640061845E+00               0
GRID*               3713               0-6.350261188E+006.0856529101E+01+
*       6.3381019992E+00               0
GRID*               3714               0-7.157039722E+005.9387264687E+01+
*       5.6733498697E+00               0
GRID*               3715               0-7.575279671E+003.0219149572E+01+
*       -6.667675380E-02               0
GRID*               3716               0-9.949913887E+001.2479745830E+02+
*       -1.810044027E+00               0
GRID*               3717               0-9.079609313E+001.2339187706E+02+
*       -3.619976260E+00               0
GRID*               3718               01.0528014763E+013.7341966756E+01+
*       8.0186740740E-01               0
GRID*               3719               01.0385497054E+013.5978078007E+01+
*       2.4526514178E+00               0
GRID*               3720               01.1583886955E+011.2604502998E+02+
*       7.4437871601E+00               0
GRID*               3721               0-6.385823824E+003.1171543444E+01+
*       5.1866540037E-01               0
GRID*               3722               0-7.872153932E+003.1711406106E+01+
*       5.8349211126E-01               0
GRID*               3723               09.3994059735E+003.3126616656E+01+
*       8.7906123906E-01               0
GRID*               3724               09.3994059735E+003.3126616656E+01+
*       -9.048114845E-01               0
GRID*               3725               07.0950987258E+001.1871385771E+02+
*       6.9832833680E+00               0
GRID*               3726               02.7669996493E+011.9787097285E+01+
*       5.2376802370E+00               0
GRID*               3727               01.2399439104E-015.5928433811E+01+
*       -2.877334799E+00               0
GRID*               3728               0-3.306305897E+005.0856091745E+01+
*       -2.428640540E+00               0
GRID*               3729               0-3.450111788E+006.6571155214E+01+
*       -4.259433219E+00               0
GRID*               3730               0-7.295319498E+005.7851166706E+01+
*       5.6733498697E+00               0
GRID*               3731               05.7792134389E+006.6800296957E+01+
*       4.6038566361E+00               0
GRID*               3732               01.0520891806E+011.2659255181E+02+
*       7.4437871601E+00               0
GRID*               9117               02.7935466170E-017.7365425110E+01+
*       -5.694708347E+00               0
GRID*               8430               05.2886000574E-017.4195159149E+01+
*       -5.417346025E+00               0
GRID*               8431               07.7836534977E-017.1024893188E+01+
*       -5.139983702E+00               0
GRID*               8432               01.0278706938E+006.7854627228E+01+
*       -4.862621379E+00               0
GRID*               8433               01.2773760378E+006.4684361267E+01+
*       -4.585259056E+00               0
GRID*               8434               01.5268813819E+006.1514095306E+01+
*       -4.307896733E+00               0
GRID*               8435               01.7763867259E+005.8343829346E+01+
*       -4.030534410E+00               0
GRID*               8436               02.0258920699E+005.5173563385E+01+
*       -3.753172088E+00               0
GRID*               8437               02.2753974140E+005.2003297424E+01+
*       -3.475809765E+00               0
GRID*               8438               02.5249027580E+004.8833031464E+01+
*       -3.198447442E+00               0
GRID*               8439               04.0410733372E-017.5780292130E+01+
*       -5.556027186E+00               0
GRID*               8440               02.6496554300E+004.7247898483E+01+
*       -3.059766281E+00               0
GRID*               8441               02.4001500860E+005.0418164444E+01+
*       -3.337128603E+00               0
GRID*               8442               02.1506447420E+005.3588430405E+01+
*       -3.614490926E+00               0
GRID*               8443               06.5361267775E-017.2610026169E+01+
*       -5.278664863E+00               0
GRID*               8444               01.9011393979E+005.6758696365E+01+
*       -3.891853249E+00               0
GRID*               8445               09.0311802179E-016.9439760208E+01+
*       -5.001302540E+00               0
GRID*               8446               01.6516340539E+005.9928962326E+01+
*       -4.169215572E+00               0
GRID*               8447               01.1526233658E+006.6269494247E+01+
*       -4.723940217E+00               0
GRID*               8448               01.4021287099E+006.3099228287E+01+
*       -4.446577895E+00               0
GRID*               8530               0-2.520535754E+004.8888519512E+01+
*       -3.203302017E+00               0
GRID*               8531               0-2.266663406E+005.2114273520E+01+
*       -3.485518915E+00               0
GRID*               8532               0-2.012791058E+005.5340027529E+01+
*       -3.767735813E+00               0
GRID*               8533               0-1.758918709E+005.8565781537E+01+
*       -4.049952710E+00               0
GRID*               8534               0-1.505046361E+006.1791535546E+01+
*       -4.332169608E+00               0
GRID*               8535               0-1.251174013E+006.5017289554E+01+
*       -4.614386506E+00               0
GRID*               8536               0-9.973016650E-016.8243043563E+01+
*       -4.896603404E+00               0
GRID*               8537               0-7.434293169E-017.1468797572E+01+
*       -5.178820302E+00               0
GRID*               8538               0-4.895569688E-017.4694551580E+01+
*       -5.461037199E+00               0
GRID*               8539               0-3.626207947E-017.6307428584E+01+
*       -5.602145648E+00               0
GRID*               8540               0-2.647471928E+004.7275642507E+01+
*       -3.062193568E+00               0
GRID*               8541               0-2.393599580E+005.0501396516E+01+
*       -3.344410466E+00               0
GRID*               8542               0-2.139727232E+005.3727150524E+01+
*       -3.626627364E+00               0
GRID*               8543               0-6.164931428E-017.3081674576E+01+
*       -5.319928751E+00               0
GRID*               8544               0-8.703654910E-016.9855920567E+01+
*       -5.037711853E+00               0
GRID*               8545               0-1.885854884E+005.6952904533E+01+
*       -3.908844262E+00               0
GRID*               8546               0-1.631982535E+006.0178658542E+01+
*       -4.191061159E+00               0
GRID*               8547               0-1.124237839E+006.6630166559E+01+
*       -4.755494955E+00               0
GRID*               8548               0-1.378110187E+006.3404412550E+01+
*       -4.473278057E+00               0
GRID*               9118               01.0193045616E+011.2056304169E+02+
*       -8.665082932E+00               0
GRID*               8452               01.0824661731E+011.2170564791E+02+
*       -8.940886638E+00               0
GRID*               9119               0-1.019514656E+011.2056727600E+02+
*       -8.666361809E+00               0
GRID*               8456               0-1.082587021E+011.2170774432E+02+
*       -8.941265817E+00               0
GRID*               8549               0-7.730237705E+001.1887139374E+02+
*       -9.050000191E+00               0
GRID*               8550               0-4.827655719E+001.1733921018E+02+
*       -9.050000191E+00               0
GRID*               8551               0-1.641825111E+001.1654989180E+02+
*       -9.050000191E+00               0
GRID*               8552               01.6403264711E+001.1654970900E+02+
*       -9.050000191E+00               0
GRID*               8553               04.8262449823E+001.1733867246E+02+
*       -9.050000191E+00               0
GRID*               8554               07.7289976969E+001.1887053251E+02+
*       -9.050000191E+00               0
GRID*               8555               0-8.976877090E+001.1994040264E+02+
*       -9.050000191E+00               0
GRID*               8556               0-6.325488422E+001.1801712732E+02+
*       -9.050000191E+00               0
GRID*               8557               0-3.258728089E+001.1684771865E+02+
*       -9.050000191E+00               0
GRID*               8558               09.0189969282E+001.1988762830E+02+
*       -9.050000191E+00               0
GRID*               8559               06.3241532662E+001.1801642256E+02+
*       -9.050000191E+00               0
GRID*               8560               03.2572626599E+001.1684735555E+02+
*       -9.050000191E+00               0
GRID*               8561               0-7.548741261E-041.1644999697E+02+
*       -9.050000191E+00               0
GRID*               9120               01.0195146561E+011.2056727600E+02+
*       8.6663618088E+00               0
GRID*               8460               01.0825870208E+011.2170774432E+02+
*       8.9412658166E+00               0
GRID*               9121               0-1.019514656E+011.2056727600E+02+
*       8.6663618088E+00               0
GRID*               8464               0-1.082587021E+011.2170774432E+02+
*       8.9412658166E+00               0
GRID*               8562               0-7.730060567E+001.1887127069E+02+
*       9.0500001907E+00               0
GRID*               8563               0-4.827252658E+001.1733905653E+02+
*       9.0500001907E+00               0
GRID*               8564               0-1.641182839E+001.1654981344E+02+
*       9.0500001907E+00               0
GRID*               8565               01.6411828390E+001.1654981344E+02+
*       9.0500001907E+00               0
GRID*               8566               04.8272526576E+001.1733905653E+02+
*       9.0500001907E+00               0
GRID*               8567               07.7300605667E+001.1887127069E+02+
*       9.0500001907E+00               0
GRID*               8568               08.9767954664E+001.1994033245E+02+
*       9.0500001907E+00               0
GRID*               8569               06.3252023234E+001.1801697629E+02+
*       9.0500001907E+00               0
GRID*               8570               03.2582047261E+001.1684758895E+02+
*       9.0500001907E+00               0
GRID*               8571               0-8.976795466E+001.1994033245E+02+
*       9.0500001907E+00               0
GRID*               8572               0-6.325202323E+001.1801697629E+02+
*       9.0500001907E+00               0
GRID*               8573               0-3.258204726E+001.1684758895E+02+
*       9.0500001907E+00               0
GRID*               8574               00.0000000000E+001.1644999695E+02+
*       9.0500001907E+00               0
GRID*               9122               02.7935466170E-017.7365425110E+01+
*       5.6947083473E+00               0
GRID*               8465               05.2886000574E-017.4195159149E+01+
*       5.4173460245E+00               0
GRID*               8466               07.7836534977E-017.1024893188E+01+
*       5.1399837017E+00               0
GRID*               8467               01.0278706938E+006.7854627228E+01+
*       4.8626213789E+00               0
GRID*               8468               01.2773760378E+006.4684361267E+01+
*       4.5852590561E+00               0
GRID*               8469               01.5268813819E+006.1514095306E+01+
*       4.3078967333E+00               0
GRID*               8470               01.7763867259E+005.8343829346E+01+
*       4.0305344105E+00               0
GRID*               8471               02.0258920699E+005.5173563385E+01+
*       3.7531720877E+00               0
GRID*               8472               02.2753974140E+005.2003297424E+01+
*       3.4758097649E+00               0
GRID*               8473               02.5249027580E+004.8833031464E+01+
*       3.1984474421E+00               0
GRID*               8474               04.0410733372E-017.5780292130E+01+
*       5.5560271859E+00               0
GRID*               8475               02.6496554300E+004.7247898483E+01+
*       3.0597662807E+00               0
GRID*               8476               02.4001500860E+005.0418164444E+01+
*       3.3371286035E+00               0
GRID*               8477               02.1506447420E+005.3588430405E+01+
*       3.6144909263E+00               0
GRID*               8478               06.5361267775E-017.2610026169E+01+
*       5.2786648631E+00               0
GRID*               8479               01.9011393979E+005.6758696365E+01+
*       3.8918532491E+00               0
GRID*               8480               09.0311802179E-016.9439760208E+01+
*       5.0013025403E+00               0
GRID*               8481               01.6516340539E+005.9928962326E+01+
*       4.1692155719E+00               0
GRID*               8482               01.1526233658E+006.6269494247E+01+
*       4.7239402175E+00               0
GRID*               8483               01.4021287099E+006.3099228287E+01+
*       4.4465778947E+00               0
GRID*               8575               0-2.520535754E+004.8888519512E+01+
*       3.2033020170E+00               0
GRID*               8576               0-2.266663406E+005.2114273520E+01+
*       3.4855189148E+00               0
GRID*               8577               0-2.012791058E+005.5340027529E+01+
*       3.7677358126E+00               0
GRID*               8578               0-1.758918709E+005.8565781537E+01+
*       4.0499527104E+00               0
GRID*               8579               0-1.505046361E+006.1791535546E+01+
*       4.3321696082E+00               0
GRID*               8580               0-1.251174013E+006.5017289554E+01+
*       4.6143865060E+00               0
GRID*               8581               0-9.973016650E-016.8243043563E+01+
*       4.8966034038E+00               0
GRID*               8582               0-7.434293169E-017.1468797572E+01+
*       5.1788203016E+00               0
GRID*               8583               0-4.895569688E-017.4694551580E+01+
*       5.4610371994E+00               0
GRID*               8584               0-3.626207947E-017.6307428584E+01+
*       5.6021456483E+00               0
GRID*               8585               0-2.647471928E+004.7275642507E+01+
*       3.0621935681E+00               0
GRID*               8586               0-2.393599580E+005.0501396516E+01+
*       3.3444104659E+00               0
GRID*               8587               0-2.139727232E+005.3727150524E+01+
*       3.6266273637E+00               0
GRID*               8588               0-6.164931428E-017.3081674576E+01+
*       5.3199287505E+00               0
GRID*               8589               0-8.703654910E-016.9855920567E+01+
*       5.0377118527E+00               0
GRID*               8590               0-1.885854884E+005.6952904533E+01+
*       3.9088442615E+00               0
GRID*               8591               0-1.631982535E+006.0178658542E+01+
*       4.1910611593E+00               0
GRID*               8592               0-1.124237839E+006.6630166559E+01+
*       4.7554949549E+00               0
GRID*               8593               0-1.378110187E+006.3404412550E+01+
*       4.4732780571E+00               0
GRID*               9123               05.2713108063E-019.4263023376E+01+
*       -7.500000000E+00               0
GRID*               8948               08.6568041530E-019.3002458151E+01+
*       -7.500000000E+00               0
GRID*               8949               01.2303167323E+009.1460834775E+01+
*       -7.500000000E+00               0
GRID*               8950               01.6269935316E+008.9591437854E+01+
*       -7.500000000E+00               0
GRID*               8951               02.0741343071E+008.7256723357E+01+
*       -7.500000000E+00               0
GRID*               8952               02.5634017368E+008.4430458719E+01+
*       -7.500000000E+00               0
GRID*               8953               03.0414240294E+008.1393800723E+01+
*       -7.500000000E+00               0
GRID*               8954               03.4814382049E+007.8351402798E+01+
*       -7.500000000E+00               0
GRID*               8955               03.8899016395E+007.5304607976E+01+
*       -7.500000000E+00               0
GRID*               8956               04.2711463539E+007.2254287277E+01+
*       -7.500000000E+00               0
GRID*               8957               04.6282084159E+006.9201041359E+01+
*       -7.500000000E+00               0
GRID*               8958               04.9632697665E+006.6145303642E+01+
*       -7.500000000E+00               0
GRID*               8959               05.2779012746E+006.3087395374E+01+
*       -7.500000000E+00               0
GRID*               8960               05.5732194221E+006.0027561304E+01+
*       -7.500000000E+00               0
GRID*               8961               05.8500010349E+005.6965995001E+01+
*       -7.500000000E+00               0
GRID*               8962               06.1045122955E+005.3902502576E+01+
*       -7.500000000E+00               0
GRID*               8963               06.3487009120E+005.0880426806E+01+
*       -7.500000000E+00               0
GRID*               8964               06.5673471162E+004.8102262256E+01+
*       -7.500000000E+00               0
GRID*               8965               07.0050391476E-019.3633832894E+01+
*       -7.500000000E+00               0
GRID*               8966               01.4334999237E+009.0527153336E+01+
*       -7.500000000E+00               0
GRID*               8967               01.0530570899E+009.2232844202E+01+
*       -7.500000000E+00               0
GRID*               8968               03.6893045823E+007.6828492209E+01+
*       -7.500000000E+00               0
GRID*               8969               03.2657255101E+007.9873223813E+01+
*       -7.500000000E+00               0
GRID*               8970               02.8077048808E+008.2912964703E+01+
*       -7.500000000E+00               0
GRID*               8971               02.3247367920E+008.5844626445E+01+
*       -7.500000000E+00               0
GRID*               8972               01.8560751877E+008.8425136275E+01+
*       -7.500000000E+00               0
GRID*               8973               04.0837053917E+007.3779844091E+01+
*       -7.500000000E+00               0
GRID*               8974               06.6647122239E+004.6865120767E+01+
*       -7.500000000E+00               0
GRID*               8975               04.4525462760E+007.0727999572E+01+
*       -7.500000000E+00               0
GRID*               8976               04.7983831787E+006.7673462696E+01+
*       -7.500000000E+00               0
GRID*               8977               06.4580240141E+004.9491344531E+01+
*       -7.500000000E+00               0
GRID*               8978               05.1230602588E+006.4616604043E+01+
*       -7.500000000E+00               0
GRID*               8979               05.4279156354E+006.1557705381E+01+
*       -7.500000000E+00               0
GRID*               8980               06.2297596387E+005.2391719583E+01+
*       -7.500000000E+00               0
GRID*               8981               05.9774077477E+005.5434261545E+01+
*       -7.500000000E+00               0
GRID*               8982               05.7138922284E+005.8496984523E+01+
*       -7.500000000E+00               0
GRID*               9124               00.0000000000E+009.4204605103E+01+
*       -7.312771320E+00               0
GRID*               8484               02.6658259212E-019.4234839613E+01+
*       -7.397293625E+00               0
GRID*               5774               06.2691460194E-039.5060558980E+01+
*       -7.405588583E+00               0
GRID*               9125               0-5.271310806E-019.4263023376E+01+
*       7.5000000000E+00               0
GRID*               8945               0-1.192367865E-029.5916325109E+01+
*       7.5000000000E+00               0
GRID*               8946               0-2.766778636E-019.5091764017E+01+
*       7.5000000000E+00               0
GRID*               8947               02.5283050633E-019.5166035187E+01+
*       7.5000000000E+00               0
GRID*               9126               00.0000000000E+009.4204605103E+01+
*       7.3127713203E+00               0
GRID*               8485               0-2.646164708E-019.4234104415E+01+
*       7.4041593691E+00               0
GRID*               5775               0-6.256086318E-039.5060550276E+01+
*       7.4056772639E+00               0
GRID*               9127               05.0722897053E-019.4338447571E+01+
*       7.5000000000E+00               0
GRID*               8873               08.1930238572E-019.3185512021E+01+
*       7.5000000000E+00               0
GRID*               8874               01.1499379025E+009.1815862290E+01+
*       7.5000000000E+00               0
GRID*               8875               01.5078833544E+009.0172756599E+01+
*       7.5000000000E+00               0
GRID*               8876               01.9249131954E+008.8062326597E+01+
*       7.5000000000E+00               0
GRID*               8877               02.3926524852E+008.5449059794E+01+
*       7.5000000000E+00               0
GRID*               8878               02.8581008630E+008.2590993018E+01+
*       7.5000000000E+00               0
GRID*               8879               03.2918256124E+007.9692224846E+01+
*       7.5000000000E+00               0
GRID*               8880               03.6945952905E+007.6788993592E+01+
*       7.5000000000E+00               0
GRID*               8881               04.0709001594E+007.3882214258E+01+
*       7.5000000000E+00               0
GRID*               8882               04.4238850201E+007.0972512852E+01+
*       7.5000000000E+00               0
GRID*               8883               04.7557993349E+006.8060332393E+01+
*       7.5000000000E+00               0
GRID*               8884               05.0682962447E+006.5146004255E+01+
*       7.5000000000E+00               0
GRID*               8885               05.3625982042E+006.2229783332E+01+
*       7.5000000000E+00               0
GRID*               8886               05.6395750091E+005.9311866031E+01+
*       7.5000000000E+00               0
GRID*               8887               05.8979144911E+005.6392248579E+01+
*       7.5000000000E+00               0
GRID*               8888               06.1402966210E+005.3471259458E+01+
*       7.5000000000E+00               0
GRID*               8889               06.3704253182E+005.0604391942E+01+
*       7.5000000000E+00               0
GRID*               8890               06.5770732629E+004.7978679796E+01+
*       7.5000000000E+00               0
GRID*               8891               01.3330391874E+009.0995210045E+01+
*       7.5000000000E+00               0
GRID*               8892               06.6685412316E-019.3762948521E+01+
*       7.5000000000E+00               0
GRID*               8893               09.8906095872E-019.2501754026E+01+
*       7.5000000000E+00               0
GRID*               8894               01.7213917662E+008.9118532774E+01+
*       7.5000000000E+00               0
GRID*               8895               03.0791712795E+008.1142235897E+01+
*       7.5000000000E+00               0
GRID*               8896               02.6304880470E+008.4020856482E+01+
*       7.5000000000E+00               0
GRID*               8897               02.1643992989E+008.6756697822E+01+
*       7.5000000000E+00               0
GRID*               8898               03.4967536841E+007.8241099591E+01+
*       7.5000000000E+00               0
GRID*               8899               04.2501543799E+007.2427698906E+01+
*       7.5000000000E+00               0
GRID*               8900               03.8858400793E+007.5336004701E+01+
*       7.5000000000E+00               0
GRID*               8901               04.9143891960E+006.6603419276E+01+
*       7.5000000000E+00               0
GRID*               8902               04.5923565256E+006.9516708590E+01+
*       7.5000000000E+00               0
GRID*               8903               05.2176631115E+006.3688117570E+01+
*       7.5000000000E+00               0
GRID*               8904               05.5032072033E+006.0771025791E+01+
*       7.5000000000E+00               0
GRID*               8905               06.6695752972E+004.6803329537E+01+
*       7.5000000000E+00               0
GRID*               8906               06.4737492905E+004.9291535869E+01+
*       7.5000000000E+00               0
GRID*               8907               06.2575974510E+005.2038006498E+01+
*       7.5000000000E+00               0
GRID*               8908               05.7717612005E+005.7852321352E+01+
*       7.5000000000E+00               0
GRID*               8909               06.0191055560E+005.4931754019E+01+
*       7.5000000000E+00               0
GRID*               8486               02.5637559880E-019.4272447067E+01+
*       7.3979499829E+00               0
GRID*               9128               0-5.072289705E-019.4338447571E+01+
*       -7.500000000E+00               0
GRID*               8487               0-2.563755988E-019.4272447067E+01+
*       -7.397949983E+00               0
GRID*               9129               0-3.254999924E+011.8793943405E+01+
*       0.0000000000E+00               0
GRID*               9130               0-3.254999924E+010.0000000000E+00+
*       1.2451627403E-11               0
GRID*               9131               03.2549999237E+011.8793943405E+01+
*       0.0000000000E+00               0
GRID*               9132               03.2549999237E+010.0000000000E+00+
*       1.2451627403E-11               0
GRID*               8594               0-9.000000000E+001.3000000000E+02+
*       5.4300001144E+00               0
GRID*               8595               0-9.000000000E+001.3000000000E+02+
*       1.8100000381E+00               0
GRID*               8596               0-9.000000000E+001.3000000000E+02+
*       -1.810000038E+00               0
GRID*               8597               0-9.000000000E+001.3000000000E+02+
*       -5.430000114E+00               0
GRID*               8598               0-9.000000000E+001.3000000000E+02+
*       -7.240000153E+00               0
GRID*               8599               0-9.000000000E+001.3000000000E+02+
*       -3.620000076E+00               0
GRID*               8600               0-9.000000000E+001.3000000000E+02+
*       0.0000000000E+00               0
GRID*               8601               0-9.000000000E+001.3000000000E+02+
*       3.6200000763E+00               0
GRID*               8602               0-9.000000000E+001.3000000000E+02+
*       7.2400001526E+00               0
GRID*               8603               0-3.254999924E+011.4938758138E+01+
*       2.5538963018E-12               0
GRID*               8604               0-3.254999924E+011.1121344876E+01+
*       5.0831379976E-12               0
GRID*               8605               0-3.254999924E+017.3637149294E+00+
*       7.5727700305E-12               0
GRID*               8606               0-3.254999924E+013.6642671189E+00+
*       1.0023853267E-11               0
GRID*               8607               0-3.254999924E+011.6866350772E+01+
*       1.2767624610E-12               0
GRID*               8608               0-3.254999924E+011.3030051507E+01+
*       3.8185171497E-12               0
GRID*               8609               0-3.254999924E+019.2425299029E+00+
*       6.3279540141E-12               0
GRID*               8610               0-3.254999924E+015.5139910242E+00+
*       8.7983116489E-12               0
GRID*               8611               0-3.254999924E+011.8321335595E+00+
*       1.1237740335E-11               0
GRID*               8612               03.2549999237E+011.4938758138E+01+
*       2.5538963018E-12               0
GRID*               8613               03.2549999237E+011.1121344876E+01+
*       5.0831379976E-12               0
GRID*               8614               03.2549999237E+017.3637149294E+00+
*       7.5727700305E-12               0
GRID*               8615               03.2549999237E+013.6642671189E+00+
*       1.0023853267E-11               0
GRID*               8616               03.2549999237E+011.6866350772E+01+
*       1.2767624610E-12               0
GRID*               8617               03.2549999237E+011.3030051507E+01+
*       3.8185171497E-12               0
GRID*               8618               03.2549999237E+019.2425299029E+00+
*       6.3279540141E-12               0
GRID*               8619               03.2549999237E+015.5139910242E+00+
*       8.7983116489E-12               0
GRID*               8620               03.2549999237E+011.8321335595E+00+
*       1.1237740335E-11               0
GRID*               7054               0-2.723847143E+002.5856891820E+01+
*       -9.222421544E+00               0
GRID*               7055               0-5.418443404E+002.5429088241E+01+
*       -9.222578436E+00               0
GRID*               7056               0-2.291736899E-152.6000000000E+01+
*       -9.222499847E+00               0
GRID*               7057               0-1.302781431E+012.2500534658E+01+
*       -9.222560085E+00               0
GRID*               7058               0-1.059830224E+012.3741828545E+01+
*       -9.222433721E+00               0
GRID*               7059               0-1.531347119E+012.1011831987E+01+
*       -9.222519659E+00               0
GRID*               7060               0-8.052692206E+002.4721528930E+01+
*       -9.222505418E+00               0
GRID*               7061               0-2.507845596E+016.8606912574E+00+
*       -9.222477950E+00               0
GRID*               7062               0-2.450682865E+018.6841944324E+00+
*       -9.222502500E+00               0
GRID*               7063               0-2.360629926E+011.0896817475E+01+
*       -9.222555046E+00               0
GRID*               7064               0-2.250631638E+011.3017865458E+01+
*       -9.222464825E+00               0
GRID*               7065               0-1.743049479E+011.9291881204E+01+
*       -9.222452163E+00               0
GRID*               7066               0-1.935594756E+011.7359300667E+01+
*       -9.222514590E+00               0
GRID*               7067               0-2.104348226E+011.5269935816E+01+
*       -9.222535016E+00               0
GRID*               7068               02.5078455962E+016.8606912574E+00+
*       -9.222521745E+00               0
GRID*               7069               02.4506828652E+018.6841944324E+00+
*       -9.222497195E+00               0
GRID*               7070               02.1043482265E+011.5269935816E+01+
*       -9.222464679E+00               0
GRID*               7071               01.9355947561E+011.7359300666E+01+
*       -9.222485105E+00               0
GRID*               7072               02.2506316375E+011.3017865458E+01+
*       -9.222534869E+00               0
GRID*               7073               02.3606299256E+011.0896817475E+01+
*       -9.222444649E+00               0
GRID*               7074               02.7238471431E+002.5856891820E+01+
*       -9.222578150E+00               0
GRID*               7075               05.4184434039E+002.5429088241E+01+
*       -9.222421259E+00               0
GRID*               7076               08.0526922060E+002.4721528930E+01+
*       -9.222494277E+00               0
GRID*               7077               01.0598302244E+012.3741828545E+01+
*       -9.222565974E+00               0
GRID*               7078               01.7430494794E+011.9291881204E+01+
*       -9.222547531E+00               0
GRID*               7079               01.5313471195E+012.1011831987E+01+
*       -9.222480036E+00               0
GRID*               7080               01.3027814306E+012.2500534658E+01+
*       -9.222439610E+00               0
GRID*               7114               01.3711020331E+009.7041970591E+01+
*       -7.500000000E+00               0
GRID*               7115               03.4332438715E+009.1417078078E+01+
*       -7.500000000E+00               0
GRID*               7116               02.6837409924E+009.4054300048E+01+
*       -7.500000000E+00               0
GRID*               7117               0-2.724182927E+009.4385270369E+01+
*       -7.500000000E+00               0
GRID*               7118               0-1.506553993E+009.4743244367E+01+
*       -7.500000000E+00               0
GRID*               7119               0-9.006822048E-019.5529714300E+01+
*       -7.500000000E+00               0
GRID*               7120               01.9743354632E+012.2785000597E+01+
*       -7.500000000E+00               0
GRID*               7121               02.4110777492E+011.9801971466E+01+
*       -7.500000000E+00               0
GRID*               7122               03.2574377111E+011.3203205500E+01+
*       -7.500000000E+00               0
GRID*               7123               02.8401477232E+011.6073288259E+01+
*       -7.500000000E+00               0
GRID*               7124               03.1282550383E+018.5840868665E+00+
*       -7.500000000E+00               0
GRID*               7125               02.7706475559E+017.6750750821E+00+
*       -7.500000000E+00               0
GRID*               7126               02.7869412397E+011.1178481266E+01+
*       -7.500000000E+00               0
GRID*               7127               01.6172357140E+012.5570792048E+01+
*       -7.500000000E+00               0
GRID*               7128               01.3129708821E+012.8687795760E+01+
*       -7.500000000E+00               0
GRID*               7129               0-3.482987851E+008.9510237897E+01+
*       -7.500000000E+00               0
GRID*               7130               0-2.647122604E+009.2067253120E+01+
*       -7.500000000E+00               0
GRID*               7131               0-1.581324794E+009.3438496862E+01+
*       -7.500000000E+00               0
GRID*               7132               0-1.971153555E+012.2653340454E+01+
*       -7.500000000E+00               0
GRID*               7133               0-2.385555653E+011.9070357346E+01+
*       -7.500000000E+00               0
GRID*               7134               0-3.067328211E+019.3459729402E+00+
*       -7.500000000E+00               0
GRID*               7135               0-2.714569968E+011.3696766260E+01+
*       -7.500000000E+00               0
GRID*               7136               0-2.874803226E+011.8113549404E+01+
*       -7.500000000E+00               0
GRID*               7137               0-3.239537710E+011.4114995105E+01+
*       -7.500000000E+00               0
GRID*               7138               0-1.616624727E+012.5548747940E+01+
*       -7.500000000E+00               0
GRID*               7139               0-1.312824635E+012.8683592344E+01+
*       -7.500000000E+00               0
GRID*               7140               0-3.310113416E+001.1016701368E+02+
*       -7.500000000E+00               0
GRID*               7141               03.6748501082E+001.1078811873E+02+
*       -7.500000000E+00               0
GRID*               7142               0-3.310974833E+009.6517140671E+01+
*       -7.500000000E+00               0
GRID*               7143               0-1.793607459E+009.5886135764E+01+
*       -7.500000000E+00               0
GRID*               7144               0-2.482654376E+009.9029218436E+01+
*       -7.500000000E+00               0
GRID*               7145               0-1.003681495E+001.0093129293E+02+
*       -7.500000000E+00               0
GRID*               7146               01.8109330493E+001.0129593683E+02+
*       -7.500000000E+00               0
GRID*               7147               0-5.163068671E-019.8674252859E+01+
*       -7.500000000E+00               0
GRID*               7148               0-6.506721820E-019.6704220617E+01+
*       -7.500000000E+00               0
GRID*               7149               0-1.740665215E+009.7336109814E+01+
*       -7.500000000E+00               0
GRID*               7150               0-3.045458165E+001.0200254552E+02+
*       -7.500000000E+00               0
GRID*               7151               02.2706738891E+001.0649705373E+02+
*       -7.500000000E+00               0
GRID*               7152               0-3.261624831E+001.0582340406E+02+
*       -7.500000000E+00               0
GRID*               7153               0-7.204045544E-011.0397071405E+02+
*       -7.500000000E+00               0
GRID*               7154               0-9.399417337E-011.0733107768E+02+
*       -7.500000000E+00               0
GRID*               7155               02.7393655335E-011.1028406192E+02+
*       -7.500000000E+00               0
GRID*               7156               07.7649001364E+005.2023633413E+01+
*       -7.500000000E+00               0
GRID*               7157               07.9093774374E+005.0187875364E+01+
*       -7.500000000E+00               0
GRID*               7158               06.7697767414E+006.3949008184E+01+
*       -7.500000000E+00               0
GRID*               7159               06.6124380040E+006.5477959709E+01+
*       -7.500000000E+00               0
GRID*               7160               07.6425506490E+005.3534657312E+01+
*       -7.500000000E+00               0
GRID*               7161               06.9281291389E+006.1936950328E+01+
*       -7.500000000E+00               0
GRID*               7162               07.4949506881E+005.5410092515E+01+
*       -7.500000000E+00               0
GRID*               7163               07.0758079170E+006.0407034961E+01+
*       -7.500000000E+00               0
GRID*               7164               07.3664252071E+005.6941731965E+01+
*       -7.500000000E+00               0
GRID*               7165               07.2280577614E+005.8472517390E+01+
*       -7.500000000E+00               0
GRID*               7166               06.4466871878E+006.7584023381E+01+
*       -7.500000000E+00               0
GRID*               7167               05.9265281099E+007.2851411855E+01+
*       -7.500000000E+00               0
GRID*               7168               05.7358482325E+007.4376565317E+01+
*       -7.500000000E+00               0
GRID*               7169               06.2792184970E+006.9111899156E+01+
*       -7.500000000E+00               0
GRID*               7170               06.1006862689E+007.0638522770E+01+
*       -7.500000000E+00               0
GRID*               7171               05.5527395222E+007.6703181931E+01+
*       -7.500000000E+00               0
GRID*               7172               04.9365781697E+008.2186480544E+01+
*       -7.500000000E+00               0
GRID*               7173               04.6976548807E+008.3704824021E+01+
*       -7.500000000E+00               0
GRID*               7174               05.1285082143E+007.9747778259E+01+
*       -7.500000000E+00               0
GRID*               7175               05.3484667086E+007.8226573093E+01+
*       -7.500000000E+00               0
GRID*               7176               04.9327298884E+008.9736414889E+01+
*       -7.500000000E+00               0
GRID*               7177               04.0298810352E+008.8823654892E+01+
*       -7.500000000E+00               0
GRID*               7178               02.5303950182E+009.0504318081E+01+
*       -7.500000000E+00               0
GRID*               7179               04.7270349972E+009.2350016123E+01+
*       -7.500000000E+00               0
GRID*               7180               04.4978867829E+008.6243118210E+01+
*       -7.500000000E+00               0
GRID*               7181               04.2533401870E+008.7656268450E+01+
*       -7.500000000E+00               0
GRID*               7182               02.3321522312E+009.1439057152E+01+
*       -7.500000000E+00               0
GRID*               7183               04.3522835577E+009.3668627108E+01+
*       -7.500000000E+00               0
GRID*               7184               03.0584924320E+009.2735689063E+01+
*       -7.500000000E+00               0
GRID*               7185               04.1433853602E+009.6322930206E+01+
*       -7.500000000E+00               0
GRID*               7186               02.0274215128E+009.5548135319E+01+
*       -7.500000000E+00               0
GRID*               7187               03.4870658805E+009.7816765477E+01+
*       -7.500000000E+00               0
GRID*               7188               09.4911655685E-019.5652496984E+01+
*       -7.500000000E+00               0
GRID*               7189               06.9151285586E-019.6479147850E+01+
*       -7.500000000E+00               0
GRID*               7190               01.6054360365E+009.4158661712E+01+
*       -7.500000000E+00               0
GRID*               7191               01.9574007916E+009.2757668137E+01+
*       -7.500000000E+00               0
GRID*               7192               01.7741660209E+009.3528243360E+01+
*       -7.500000000E+00               0
GRID*               7193               08.0191907926E+004.8798830488E+01+
*       -7.500000000E+00               0
GRID*               7194               08.1621022842E+004.6982967932E+01+
*       -7.500000000E+00               0
GRID*               7195               08.2574534416E+004.5745668411E+01+
*       -7.500000000E+00               0
GRID*               7196               08.5634307210E+004.3737026820E+01+
*       -7.500000000E+00               0
GRID*               7197               08.8411944536E+004.1923594611E+01+
*       -7.500000000E+00               0
GRID*               7198               01.0786421661E+013.6492191608E+01+
*       -7.500000000E+00               0
GRID*               7199               01.1577432900E+013.4836900004E+01+
*       -7.500000000E+00               0
GRID*               7200               09.9756981481E+003.8225088764E+01+
*       -7.500000000E+00               0
GRID*               7201               09.4354921961E+003.9978333355E+01+
*       -7.500000000E+00               0
GRID*               7202               02.1927066062E+012.1293486031E+01+
*       -7.500000000E+00               0
GRID*               7203               02.1733346985E+011.8580653583E+01+
*       -7.500000000E+00               0
GRID*               7204               01.9549635555E+012.0072168148E+01+
*       -7.500000000E+00               0
GRID*               7205               02.5167708380E+012.1512489237E+01+
*       -7.500000000E+00               0
GRID*               7206               02.6849139090E+012.0335138600E+01+
*       -7.500000000E+00               0
GRID*               7207               02.1467810517E+012.4065649133E+01+
*       -7.500000000E+00               0
GRID*               7208               02.0039853013E+012.5065515893E+01+
*       -7.500000000E+00               0
GRID*               7209               02.3651521948E+012.2574134567E+01+
*       -7.500000000E+00               0
GRID*               7210               02.8994488960E+011.8470796997E+01+
*       -7.500000000E+00               0
GRID*               7211               02.6256127362E+011.7937629863E+01+
*       -7.500000000E+00               0
GRID*               7212               03.0875160666E+011.7153936292E+01+
*       -7.500000000E+00               0
GRID*               7213               03.2961610605E+011.5718894912E+01+
*       -7.500000000E+00               0
GRID*               7214               03.0487927172E+011.4638246880E+01+
*       -7.500000000E+00               0
GRID*               7215               03.4986079241E+011.4301346498E+01+
*       -7.500000000E+00               0
GRID*               7216               03.4986079241E+011.1404794609E+01+
*       -7.500000000E+00               0
GRID*               7217               02.3308577060E+011.6409872207E+01+
*       -7.500000000E+00               0
GRID*               7218               03.2340732262E+016.7920434333E+00+
*       -7.500000000E+00               0
GRID*               7219               03.0360291584E+016.7920434333E+00+
*       -7.500000000E+00               0
GRID*               7220               03.4340165877E+019.0952352924E+00+
*       -7.500000000E+00               0
GRID*               7221               03.1928463747E+011.0893646183E+01+
*       -7.500000000E+00               0
GRID*               7222               03.5398347756E+017.3031918591E+00+
*       -7.500000000E+00               0
GRID*               7223               02.8572254172E+016.3375375411E+00+
*       -7.500000000E+00               0
GRID*               7224               02.9494512971E+018.1295809743E+00+
*       -7.500000000E+00               0
GRID*               7225               02.6610588701E+016.3375375411E+00+
*       -7.500000000E+00               0
GRID*               7226               02.6106648236E+018.1796388723E+00+
*       -7.500000000E+00               0
GRID*               7227               02.9575981390E+019.8812840661E+00+
*       -7.500000000E+00               0
GRID*               7228               02.7787943978E+019.4267781739E+00+
*       -7.500000000E+00               0
GRID*               7229               03.0221894754E+011.2190843383E+01+
*       -7.500000000E+00               0
GRID*               7230               02.8135444815E+011.3625884763E+01+
*       -7.500000000E+00               0
GRID*               7231               02.5453926930E+011.4545530603E+01+
*       -7.500000000E+00               0
GRID*               7232               02.5187894512E+011.2098127106E+01+
*       -7.500000000E+00               0
GRID*               7233               02.6188116655E+019.9313419640E+00+
*       -7.500000000E+00               0
GRID*               7234               01.0649380649E+002.7460838590E+01+
*       -7.500000000E+00               0
GRID*               7235               0-1.056291468E+002.7461473204E+01+
*       -7.500000000E+00               0
GRID*               7236               07.1077578800E+002.7173972005E+01+
*       -7.500000000E+00               0
GRID*               7237               05.6465638117E+002.6913914389E+01+
*       -7.500000000E+00               0
GRID*               7238               09.6979058743E+002.6330274627E+01+
*       -7.500000000E+00               0
GRID*               7239               03.7740383546E+002.7175411206E+01+
*       -7.500000000E+00               0
GRID*               7240               01.1763715083E+013.3364481314E+01+
*       -7.500000000E+00               0
GRID*               7241               01.2788493595E+013.1842798669E+01+
*       -7.500000000E+00               0
GRID*               7242               01.7528388955E+012.1898436082E+01+
*       -7.500000000E+00               0
GRID*               7243               01.7957855886E+012.4177896322E+01+
*       -7.500000000E+00               0
GRID*               7244               01.5742890209E+012.3291331808E+01+
*       -7.500000000E+00               0
GRID*               7245               01.8254354267E+012.6458411618E+01+
*       -7.500000000E+00               0
GRID*               7246               01.6832824144E+012.7618127606E+01+
*       -7.500000000E+00               0
GRID*               7247               01.5311499984E+012.9176629462E+01+
*       -7.500000000E+00               0
GRID*               7248               01.4651032981E+012.7129293904E+01+
*       -7.500000000E+00               0
GRID*               7249               01.4075028621E+013.0531925603E+01+
*       -7.500000000E+00               0
GRID*               7250               01.1843173794E+012.9998668827E+01+
*       -7.500000000E+00               0
GRID*               7251               01.3385426854E+012.4656271260E+01+
*       -7.500000000E+00               0
GRID*               7252               01.0963512001E+012.8803297270E+01+
*       -7.500000000E+00               0
GRID*               7253               01.1864102695E+012.6214773116E+01+
*       -7.500000000E+00               0
GRID*               7254               0-8.170345593E+004.6877179157E+01+
*       -7.500000000E+00               0
GRID*               7255               0-8.027434101E+004.8693041713E+01+
*       -7.500000000E+00               0
GRID*               7256               0-8.257453442E+004.5745668411E+01+
*       -7.500000000E+00               0
GRID*               7257               0-8.540415465E+004.3839939860E+01+
*       -7.500000000E+00               0
GRID*               7258               0-8.818179197E+004.2026507650E+01+
*       -7.500000000E+00               0
GRID*               7259               0-7.115022974E+005.9983378560E+01+
*       -7.500000000E+00               0
GRID*               7260               0-6.976427040E+006.1447106155E+01+
*       -7.500000000E+00               0
GRID*               7261               0-7.926084333E+004.9978914900E+01+
*       -7.500000000E+00               0
GRID*               7262               0-7.781607032E+005.1814672949E+01+
*       -7.500000000E+00               0
GRID*               7263               0-7.267272819E+005.8048860989E+01+
*       -7.500000000E+00               0
GRID*               7264               0-7.397327593E+005.6584350594E+01+
*       -7.500000000E+00               0
GRID*               7265               0-7.666224229E+005.3243654270E+01+
*       -7.500000000E+00               0
GRID*               7266               0-7.544927554E+005.4708915392E+01+
*       -7.500000000E+00               0
GRID*               7267               0-6.818074642E+006.3459164011E+01+
*       -7.500000000E+00               0
GRID*               7268               0-6.348681834E+006.8490044339E+01+
*       -7.500000000E+00               0
GRID*               7269               0-6.182471838E+006.9950894278E+01+
*       -7.500000000E+00               0
GRID*               7270               0-6.670845765E+006.4922048629E+01+
*       -7.500000000E+00               0
GRID*               7271               0-6.514432650E+006.6383980667E+01+
*       -7.500000000E+00               0
GRID*               7272               0-6.008313679E+007.2163783362E+01+
*       -7.500000000E+00               0
GRID*               7273               0-5.831632553E+007.3623403512E+01+
*       -7.500000000E+00               0
GRID*               7274               0-5.460160102E+007.7408180978E+01+
*       -7.500000000E+00               0
GRID*               7275               0-5.258426693E+007.8864553068E+01+
*       -7.500000000E+00               0
GRID*               7276               0-5.643268812E+007.5081564364E+01+
*       -7.500000000E+00               0
GRID*               7277               0-4.615733600E+008.4192864726E+01+
*       -7.500000000E+00               0
GRID*               7278               0-4.415965503E+008.6731158915E+01+
*       -7.500000000E+00               0
GRID*               7279               0-5.066496649E+008.1303255353E+01+
*       -7.500000000E+00               0
GRID*               7280               0-4.849208614E+008.2757387030E+01+
*       -7.500000000E+00               0
GRID*               7281               0-2.706473580E+008.8772197885E+01+
*       -7.500000000E+00               0
GRID*               7282               0-2.497475703E+008.9832382445E+01+
*       -7.500000000E+00               0
GRID*               7283               0-2.941351476E+008.7458402014E+01+
*       -7.500000000E+00               0
GRID*               7284               0-4.957601878E+008.8782994798E+01+
*       -7.500000000E+00               0
GRID*               7285               0-4.333974363E+009.2675103644E+01+
*       -7.500000000E+00               0
GRID*               7286               0-4.372504525E+009.3834112269E+01+
*       -7.500000000E+00               0
GRID*               7287               0-2.685652765E+009.3226261745E+01+
*       -7.500000000E+00               0
GRID*               7288               0-4.751906987E+009.1396596033E+01+
*       -7.500000000E+00               0
GRID*               7289               0-3.065055227E+009.0788745509E+01+
*       -7.500000000E+00               0
GRID*               7290               0-2.079543080E+009.1110890057E+01+
*       -7.500000000E+00               0
GRID*               7291               0-1.367390530E+009.2621957533E+01+
*       -7.500000000E+00               0
GRID*               7292               0-1.200164139E+009.3309709925E+01+
*       -7.500000000E+00               0
GRID*               7293               0-1.900289435E+009.1936335662E+01+
*       -7.500000000E+00               0
GRID*               7294               0-2.114223699E+009.2752874991E+01+
*       -7.500000000E+00               0
GRID*               7295               0-2.152753860E+009.3911883615E+01+
*       -7.500000000E+00               0
GRID*               7296               0-1.044276882E+009.3888472216E+01+
*       -7.500000000E+00               0
GRID*               7297               0-1.543939394E+009.4090870614E+01+
*       -7.500000000E+00               0
GRID*               7298               0-2.115368460E+009.4564257368E+01+
*       -7.500000000E+00               0
GRID*               7299               0-7.039555877E-019.4934080936E+01+
*       -7.500000000E+00               0
GRID*               7300               0-4.443792631E-019.5723019705E+01+
*       -7.500000000E+00               0
GRID*               7301               0-1.006891482E+009.4540845969E+01+
*       -7.500000000E+00               0
GRID*               7302               0-1.203618099E+009.5136479334E+01+
*       -7.500000000E+00               0
GRID*               7303               0-1.078642166E+013.6492191608E+01+
*       -7.500000000E+00               0
GRID*               7304               0-9.977678161E+003.8219974869E+01+
*       -7.500000000E+00               0
GRID*               7305               0-1.157743290E+013.4836900004E+01+
*       -7.500000000E+00               0
GRID*               7306               0-9.437472209E+003.9973219460E+01+
*       -7.500000000E+00               0
GRID*               7307               0-2.482603815E+011.3357269604E+01+
*       -7.500000000E+00               0
GRID*               7308               0-2.550062810E+011.6383561803E+01+
*       -7.500000000E+00               0
GRID*               7309               0-2.318096658E+011.6044065147E+01+
*       -7.500000000E+00               0
GRID*               7310               0-2.582626029E+011.1190484461E+01+
*       -7.500000000E+00               0
GRID*               7311               0-2.759005151E+019.0150878013E+00+
*       -7.500000000E+00               0
GRID*               7312               0-2.890949090E+011.1521369600E+01+
*       -7.500000000E+00               0
GRID*               7313               0-3.005565745E+017.1729864701E+00+
*       -7.500000000E+00               0
GRID*               7314               0-3.203609813E+017.1729864701E+00+
*       -7.500000000E+00               0
GRID*               7315               0-2.697242685E+016.8421013312E+00+
*       -7.500000000E+00               0
GRID*               7316               0-2.916776648E+011.9490927569E+01+
*       -7.500000000E+00               0
GRID*               7317               0-2.748633577E+012.0668278206E+01+
*       -7.500000000E+00               0
GRID*               7318               0-2.630179439E+011.8591953375E+01+
*       -7.500000000E+00               0
GRID*               7319               0-2.794686597E+011.5905157832E+01+
*       -7.500000000E+00               0
GRID*               7320               0-2.504009790E+012.1146682177E+01+
*       -7.500000000E+00               0
GRID*               7321               0-3.489657923E+011.4757241300E+01+
*       -7.500000000E+00               0
GRID*               7322               0-3.489657923E+011.1860689412E+01+
*       -7.500000000E+00               0
GRID*               7323               0-3.287211060E+011.6174789715E+01+
*       -7.500000000E+00               0
GRID*               7324               0-3.104843818E+011.8174066864E+01+
*       -7.500000000E+00               0
GRID*               7325               0-3.057170468E+011.6114272254E+01+
*       -7.500000000E+00               0
GRID*               7326               0-2.977053839E+011.3905880683E+01+
*       -7.500000000E+00               0
GRID*               7327               0-3.153432960E+011.1730484023E+01+
*       -7.500000000E+00               0
GRID*               7328               0-3.403553174E+019.4761783292E+00+
*       -7.500000000E+00               0
GRID*               7329               0-3.539834776E+017.3031918591E+00+
*       -7.500000000E+00               0
GRID*               7330               0-2.160573650E+011.8214846523E+01+
*       -7.500000000E+00               0
GRID*               7331               0-2.352391146E+012.2208327507E+01+
*       -7.500000000E+00               0
GRID*               7332               0-2.145190097E+012.3999819061E+01+
*       -7.500000000E+00               0
GRID*               7333               0-2.178354604E+012.0861848900E+01+
*       -7.500000000E+00               0
GRID*               7334               0-1.953372601E+012.0006338077E+01+
*       -7.500000000E+00               0
GRID*               7335               0-1.751247941E+012.1832606011E+01+
*       -7.500000000E+00               0
GRID*               7336               0-1.176371508E+013.3364481314E+01+
*       -7.500000000E+00               0
GRID*               7337               0-1.278849359E+013.1842798669E+01+
*       -7.500000000E+00               0
GRID*               7338               0-3.765391758E+002.7176045819E+01+
*       -7.500000000E+00               0
GRID*               7339               0-5.646563812E+002.6913914389E+01+
*       -7.500000000E+00               0
GRID*               7340               0-7.107757880E+002.7173972005E+01+
*       -7.500000000E+00               0
GRID*               7341               0-9.697905874E+002.6330274627E+01+
*       -7.500000000E+00               0
GRID*               7342               0-2.002394347E+012.4999685822E+01+
*       -7.500000000E+00               0
GRID*               7343               0-1.573983527E+012.3280309754E+01+
*       -7.500000000E+00               0
GRID*               7344               0-1.793889141E+012.4101044197E+01+
*       -7.500000000E+00               0
GRID*               7345               0-1.338237192E+012.4645249206E+01+
*       -7.500000000E+00               0
GRID*               7346               0-1.096278077E+012.8801195562E+01+
*       -7.500000000E+00               0
GRID*               7347               0-1.184244256E+012.9996567119E+01+
*       -7.500000000E+00               0
GRID*               7348               0-1.186337146E+012.6212671408E+01+
*       -7.500000000E+00               0
GRID*               7349               0-1.464724681E+012.7116170142E+01+
*       -7.500000000E+00               0
GRID*               7350               0-1.825129933E+012.6447389564E+01+
*       -7.500000000E+00               0
GRID*               7351               0-1.682976921E+012.7607105552E+01+
*       -7.500000000E+00               0
GRID*               7352               0-1.531076875E+012.9174527754E+01+
*       -7.500000000E+00               0
GRID*               7353               0-1.407429739E+013.0529823894E+01+
*       -7.500000000E+00               0
GRID*               7354               0-5.831819591E+001.1304631855E+02+
*       -7.500000000E+00               0
GRID*               7355               0-4.063872226E+001.1208229827E+02+
*       -7.500000000E+00               0
GRID*               7356               0-2.468899942E+001.1176729427E+02+
*       -7.500000000E+00               0
GRID*               7357               0-5.078060780E+001.1113103397E+02+
*       -7.500000000E+00               0
GRID*               7358               0-4.654965908E+001.0916316477E+02+
*       -7.500000000E+00               0
GRID*               7359               05.8318195905E+001.1304631855E+02+
*       -7.500000000E+00               0
GRID*               7360               04.2462405726E+001.1239285079E+02+
*       -7.500000000E+00               0
GRID*               7361               02.6512682881E+001.1207784679E+02+
*       -7.500000000E+00               0
GRID*               7362               05.2604291261E+001.1144158649E+02+
*       -7.500000000E+00               0
GRID*               7363               04.8373342537E+001.0947371729E+02+
*       -7.500000000E+00               0
GRID*               7364               0-1.650080726E+009.5314690065E+01+
*       -7.500000000E+00               0
GRID*               7365               0-1.347144832E+009.5707925032E+01+
*       -7.500000000E+00               0
GRID*               7366               0-4.665900478E+009.4900047420E+01+
*       -7.500000000E+00               0
GRID*               7367               0-3.017578880E+009.5451205520E+01+
*       -7.500000000E+00               0
GRID*               7368               0-4.457002280E+009.7554350518E+01+
*       -7.500000000E+00               0
GRID*               7369               0-2.258895193E+009.5135703066E+01+
*       -7.500000000E+00               0
GRID*               7370               0-2.552291146E+009.6201638218E+01+
*       -7.500000000E+00               0
GRID*               7371               0-1.499480621E+009.8851735648E+01+
*       -7.500000000E+00               0
GRID*               7372               0-1.743167936E+009.9980255685E+01+
*       -7.500000000E+00               0
GRID*               7373               0-7.599941813E-019.9802772896E+01+
*       -7.500000000E+00               0
GRID*               7374               0-2.896814604E+009.7773179554E+01+
*       -7.500000000E+00               0
GRID*               7375               0-4.042842052E+009.8810389400E+01+
*       -7.500000000E+00               0
GRID*               7376               0-1.222139821E+009.6295178190E+01+
*       -7.500000000E+00               0
GRID*               7377               0-7.756771934E-019.6116967459E+01+
*       -7.500000000E+00               0
GRID*               7378               0-2.111659795E+009.8182664125E+01+
*       -7.500000000E+00               0
GRID*               7379               0-2.525820024E+009.6926625243E+01+
*       -7.500000000E+00               0
GRID*               7380               0-1.128486041E+009.8005181337E+01+
*       -7.500000000E+00               0
GRID*               7381               0-1.767136337E+009.6611122789E+01+
*       -7.500000000E+00               0
GRID*               7382               0-1.195668698E+009.7020165215E+01+
*       -7.500000000E+00               0
GRID*               7383               0-5.834895246E-019.7689236738E+01+
*       -7.500000000E+00               0
GRID*               7384               0-3.193742517E-019.6310272863E+01+
*       -7.500000000E+00               0
GRID*               7385               03.6021492555E-019.6873095604E+01+
*       -7.500000000E+00               0
GRID*               7386               04.2739758296E-019.7858111725E+01+
*       -7.500000000E+00               0
GRID*               7387               03.7069813886E+009.9943748598E+01+
*       -7.500000000E+00               0
GRID*               7388               03.6651849089E+001.0240392793E+02+
*       -7.500000000E+00               0
GRID*               7389               01.5910175412E+009.9168953712E+01+
*       -7.500000000E+00               0
GRID*               7390               06.4731309110E-019.9985094846E+01+
*       -7.500000000E+00               0
GRID*               7391               04.0362577696E-011.0111361488E+02+
*       -7.500000000E+00               0
GRID*               7392               0-2.764056271E+001.0051588198E+02+
*       -7.500000000E+00               0
GRID*               7393               0-2.024569830E+001.0146691923E+02+
*       -7.500000000E+00               0
GRID*               7394               0-4.324243947E+001.0029705294E+02+
*       -7.500000000E+00               0
GRID*               7395               0-4.282447467E+001.0275723227E+02+
*       -7.500000000E+00               0
GRID*               7396               03.8950553288E+001.0500448638E+02+
*       -7.500000000E+00               0
GRID*               7397               02.0408034692E+001.0389649528E+02+
*       -7.500000000E+00               0
GRID*               7398               04.1352461442E+001.0732818479E+02+
*       -7.500000000E+00               0
GRID*               7399               02.9727619986E+001.0864258623E+02+
*       -7.500000000E+00               0
GRID*               7400               0-4.390530800E+001.0466766154E+02+
*       -7.500000000E+00               0
GRID*               7401               0-3.153541498E+001.0391297479E+02+
*       -7.500000000E+00               0
GRID*               7402               0-4.630721615E+001.0699135996E+02+
*       -7.500000000E+00               0
GRID*               7403               0-3.285869123E+001.0799520887E+02+
*       -7.500000000E+00               0
GRID*               7404               0-1.991014693E+001.0489705905E+02+
*       -7.500000000E+00               0
GRID*               7405               0-1.882931360E+001.0298662979E+02+
*       -7.500000000E+00               0
GRID*               7406               0-8.620430249E-011.0245100349E+02+
*       -7.500000000E+00               0
GRID*               7407               05.4526424746E-011.0263332544E+02+
*       -7.500000000E+00               0
GRID*               7408               01.9743933308E+001.1053609033E+02+
*       -7.500000000E+00               0
GRID*               7409               09.5081151066E-011.1182581839E+02+
*       -7.500000000E+00               0
GRID*               7410               07.7513466731E-011.0523388389E+02+
*       -7.500000000E+00               0
GRID*               7411               0-8.301731440E-011.0565089587E+02+
*       -7.500000000E+00               0
GRID*               7412               06.6536607769E-011.0691406571E+02+
*       -7.500000000E+00               0
GRID*               7413               01.2723052212E+001.0839055783E+02+
*       -7.500000000E+00               0
GRID*               7414               0-3.330025902E-011.0880756980E+02+
*       -7.500000000E+00               0
GRID*               7415               0-2.100783282E+001.0657724087E+02+
*       -7.500000000E+00               0
GRID*               7416               0-6.768749573E-011.1182581839E+02+
*       -7.500000000E+00               0
GRID*               7417               0-1.518088431E+001.1022553780E+02+
*       -7.500000000E+00               0
GRID*               7418               0-2.125027575E+001.0874904568E+02+
*       -7.500000000E+00               0
GRID*               9145               03.6610927582E+015.0000000000E+00+
*       -1.094499969E+01               0
GRID*               7696               03.5004920861E+015.0000000000E+00+
*       -9.222499847E+00               0
GRID*               7697               03.3137882380E+015.0000000000E+00+
*       -9.222499847E+00               0
GRID*               7698               02.7346473047E+015.0000000000E+00+
*       -9.222499847E+00               0
GRID*               7699               02.9308138518E+015.0000000000E+00+
*       -9.222499847E+00               0
GRID*               7700               03.1157441703E+015.0000000000E+00+
*       -9.222499847E+00               0
GRID*               7701               03.5004920861E+015.0000000000E+00+
*       9.2224998474E+00               0
GRID*               7702               03.3137882380E+015.0000000000E+00+
*       9.2224998474E+00               0
GRID*               7703               02.7346473047E+015.0000000000E+00+
*       9.2224998474E+00               0
GRID*               7704               02.9308138518E+015.0000000000E+00+
*       9.2224998474E+00               0
GRID*               7705               03.1157441703E+015.0000000000E+00+
*       9.2224998474E+00               0
GRID*               9134               0-3.739778137E+015.0000000000E+00+
*       7.5000000000E+00               0
GRID*               8693               0-3.700435448E+015.0000000000E+00+
*       9.2224998474E+00               0
GRID*               6967               0-3.500492086E+015.0000000000E+00+
*       9.2224998474E+00               0
GRID*               6968               0-3.313788238E+015.0000000000E+00+
*       9.2224998474E+00               0
GRID*               6969               0-2.734647305E+015.0000000000E+00+
*       9.2224998474E+00               0
GRID*               6970               0-2.930813852E+015.0000000000E+00+
*       9.2224998474E+00               0
GRID*               6971               0-3.115744170E+015.0000000000E+00+
*       9.2224998474E+00               0
GRID*               7081               02.7238471432E+002.5856891820E+01+
*       9.2224215443E+00               0
GRID*               7082               05.4184434038E+002.5429088241E+01+
*       9.2225784363E+00               0
GRID*               7083               06.6414176746E-152.6000000000E+01+
*       9.2224998474E+00               0
GRID*               7084               01.3027814306E+012.2500534658E+01+
*       9.2225600851E+00               0
GRID*               7085               01.0598302244E+012.3741828545E+01+
*       9.2224337209E+00               0
GRID*               7086               01.5313471195E+012.1011831987E+01+
*       9.2225196593E+00               0
GRID*               7087               08.0526922063E+002.4721528930E+01+
*       9.2225054180E+00               0
GRID*               7088               02.5078455962E+016.8606912574E+00+
*       9.2224779503E+00               0
GRID*               7089               02.4506828652E+018.6841944324E+00+
*       9.2225025003E+00               0
GRID*               7090               02.3606299256E+011.0896817475E+01+
*       9.2225550457E+00               0
GRID*               7091               02.2506316375E+011.3017865458E+01+
*       9.2224648254E+00               0
GRID*               7092               01.7430494794E+011.9291881204E+01+
*       9.2224521633E+00               0
GRID*               7093               01.9355947561E+011.7359300667E+01+
*       9.2225145901E+00               0
GRID*               7094               02.1043482265E+011.5269935816E+01+
*       9.2225350159E+00               0
GRID*               7095               0-2.507845596E+016.8606912574E+00+
*       9.2225217446E+00               0
GRID*               7096               0-2.450682865E+018.6841944324E+00+
*       9.2224971946E+00               0
GRID*               7097               0-2.104348226E+011.5269935816E+01+
*       9.2224646789E+00               0
GRID*               7098               0-1.935594756E+011.7359300666E+01+
*       9.2224851047E+00               0
GRID*               7099               0-2.250631638E+011.3017865458E+01+
*       9.2225348694E+00               0
GRID*               7100               0-2.360629926E+011.0896817475E+01+
*       9.2224446491E+00               0
GRID*               7101               0-2.723847143E+002.5856891820E+01+
*       9.2225781503E+00               0
GRID*               7102               0-5.418443404E+002.5429088241E+01+
*       9.2224212585E+00               0
GRID*               7103               0-8.052692206E+002.4721528930E+01+
*       9.2224942766E+00               0
GRID*               7104               0-1.059830224E+012.3741828545E+01+
*       9.2225659739E+00               0
GRID*               7105               0-1.743049479E+011.9291881204E+01+
*       9.2225475314E+00               0
GRID*               7106               0-1.531347119E+012.1011831987E+01+
*       9.2224800355E+00               0
GRID*               7107               0-1.302781431E+012.2500534658E+01+
*       9.2224396095E+00               0
GRID*               7419               0-2.264059164E+009.6333047602E+01+
*       7.5000000000E+00               0
GRID*               7420               03.3271363898E+009.4838803486E+01+
*       7.5000000000E+00               0
GRID*               7421               01.7750877986E+009.5112852927E+01+
*       7.5000000000E+00               0
GRID*               7422               01.0180219120E+009.6020945658E+01+
*       7.5000000000E+00               0
GRID*               7423               03.5112213046E+008.9542752523E+01+
*       7.5000000000E+00               0
GRID*               7424               02.8315666624E+009.2180433216E+01+
*       7.5000000000E+00               0
GRID*               7425               01.7499641978E+009.3592328550E+01+
*       7.5000000000E+00               0
GRID*               7426               03.5389642878E+001.1070765138E+02+
*       7.5000000000E+00               0
GRID*               7427               0-3.688097355E+001.1078901643E+02+
*       7.5000000000E+00               0
GRID*               7428               02.3767073654E+009.7087911588E+01+
*       7.5000000000E+00               0
GRID*               7429               02.3576173609E+001.0063966653E+02+
*       7.5000000000E+00               0
GRID*               7430               0-1.646769223E+001.0135501236E+02+
*       7.5000000000E+00               0
GRID*               7431               03.4976682957E-019.7842651874E+01+
*       7.5000000000E+00               0
GRID*               7432               0-2.548278704E+001.0669902112E+02+
*       7.5000000000E+00               0
GRID*               7433               01.8813713990E+001.0590552771E+02+
*       7.5000000000E+00               0
GRID*               7434               0-1.469807076E-011.1018928882E+02+
*       7.5000000000E+00               0
GRID*               7435               01.9714893464E+012.2630604835E+01+
*       7.5000000000E+00               0
GRID*               7436               02.3850918310E+011.9087922403E+01+
*       7.5000000000E+00               0
GRID*               7437               03.0670738816E+019.3475111797E+00+
*       7.5000000000E+00               0
GRID*               7438               02.7146080656E+011.3693198524E+01+
*       7.5000000000E+00               0
GRID*               7439               02.8744116601E+011.8117474531E+01+
*       7.5000000000E+00               0
GRID*               7440               03.2393875848E+011.4115737730E+01+
*       7.5000000000E+00               0
GRID*               7441               01.6166492546E+012.5544405647E+01+
*       7.5000000000E+00               0
GRID*               7442               01.3127957886E+012.8682698077E+01+
*       7.5000000000E+00               0
GRID*               7443               0-3.330051358E+009.1228643256E+01+
*       7.5000000000E+00               0
GRID*               7444               0-2.302744909E+009.3221526937E+01+
*       7.5000000000E+00               0
GRID*               7445               0-1.974561591E+012.2793133641E+01+
*       7.5000000000E+00               0
GRID*               7446               0-2.410713537E+011.9799727779E+01+
*       7.5000000000E+00               0
GRID*               7447               0-3.256759423E+011.3216471172E+01+
*       7.5000000000E+00               0
GRID*               7448               0-2.840131704E+011.6081653376E+01+
*       7.5000000000E+00               0
GRID*               7449               0-3.127953576E+018.5948788803E+00+
*       7.5000000000E+00               0
GRID*               7450               0-2.770676002E+017.6844968901E+00+
*       7.5000000000E+00               0
GRID*               7451               0-2.786587531E+011.1183364587E+01+
*       7.5000000000E+00               0
GRID*               7452               0-1.617353625E+012.5572340660E+01+
*       7.5000000000E+00               0
GRID*               7453               0-1.312967835E+012.8688087274E+01+
*       7.5000000000E+00               0
GRID*               7454               05.8263713566E+007.3665370702E+01+
*       7.5000000000E+00               0
GRID*               7455               06.0028295032E+007.2210516325E+01+
*       7.5000000000E+00               0
GRID*               7456               05.4551842781E+007.7445387502E+01+
*       7.5000000000E+00               0
GRID*               7457               05.2537703673E+007.8897000640E+01+
*       7.5000000000E+00               0
GRID*               7458               05.6382929884E+007.5118770888E+01+
*       7.5000000000E+00               0
GRID*               7459               06.1769876622E+006.9997627241E+01+
*       7.5000000000E+00               0
GRID*               7460               06.8121089101E+006.3520200431E+01+
*       7.5000000000E+00               0
GRID*               7461               06.9704613077E+006.1508142576E+01+
*       7.5000000000E+00               0
GRID*               7462               06.6649970932E+006.4978314798E+01+
*       7.5000000000E+00               0
GRID*               7463               06.3430003590E+006.8541543353E+01+
*       7.5000000000E+00               0
GRID*               7464               06.5087511752E+006.6435479681E+01+
*       7.5000000000E+00               0
GRID*               7465               02.7179417869E+008.8802517709E+01+
*       7.5000000000E+00               0
GRID*               7466               02.5096798221E+008.9857781376E+01+
*       7.5000000000E+00               0
GRID*               7467               02.9518551269E+008.7495894448E+01+
*       7.5000000000E+00               0
GRID*               7468               04.4123524273E+008.6752394036E+01+
*       7.5000000000E+00               0
GRID*               7469               04.9717186050E+008.8799252111E+01+
*       7.5000000000E+00               0
GRID*               7470               04.6121205251E+008.4214099848E+01+
*       7.5000000000E+00               0
GRID*               7471               05.0618403228E+008.1335702925E+01+
*       7.5000000000E+00               0
GRID*               7472               04.8449070442E+008.2785077129E+01+
*       7.5000000000E+00               0
GRID*               7473               04.4261963927E+009.2731693692E+01+
*       7.5000000000E+00               0
GRID*               7474               04.6739812564E+009.4060878827E+01+
*       7.5000000000E+00               0
GRID*               7475               03.0793515261E+009.3509618351E+01+
*       7.5000000000E+00               0
GRID*               7476               04.7660237138E+009.1412853346E+01+
*       7.5000000000E+00               0
GRID*               7477               03.1713939835E+009.0861592870E+01+
*       7.5000000000E+00               0
GRID*               7478               02.1698525010E+009.1176621723E+01+
*       7.5000000000E+00               0
GRID*               7479               01.4504878697E+009.2704232000E+01+
*       7.5000000000E+00               0
GRID*               7480               01.2839378388E+009.3388742761E+01+
*       7.5000000000E+00               0
GRID*               7481               01.9912891020E+009.1998284333E+01+
*       7.5000000000E+00               0
GRID*               7482               02.2907654301E+009.2886380883E+01+
*       7.5000000000E+00               0
GRID*               7483               02.5385502938E+009.4215566018E+01+
*       7.5000000000E+00               0
GRID*               7484               01.7625259982E+009.4352590738E+01+
*       7.5000000000E+00               0
GRID*               7485               02.5511120942E+009.4975828207E+01+
*       7.5000000000E+00               0
GRID*               7486               01.1285965842E+009.3965388060E+01+
*       7.5000000000E+00               0
GRID*               7487               01.1411583845E+009.4725650249E+01+
*       7.5000000000E+00               0
GRID*               7488               07.6262544124E-019.5179696614E+01+
*       7.5000000000E+00               0
GRID*               7489               05.0304911665E-019.5968635383E+01+
*       7.5000000000E+00               0
GRID*               7490               01.3965548553E+009.5566899293E+01+
*       7.5000000000E+00               0
GRID*               7491               05.8318195905E+001.1304631855E+02+
*       7.5000000000E+00               0
GRID*               7492               04.1782976624E+001.1235261712E+02+
*       7.5000000000E+00               0
GRID*               7493               02.5833253779E+001.1203761312E+02+
*       7.5000000000E+00               0
GRID*               7494               05.1924862159E+001.1140135282E+02+
*       7.5000000000E+00               0
GRID*               7495               04.7693913436E+001.0943348362E+02+
*       7.5000000000E+00               0
GRID*               7496               0-5.831819591E+001.1304631855E+02+
*       7.5000000000E+00               0
GRID*               7497               0-4.252864196E+001.1239329964E+02+
*       7.5000000000E+00               0
GRID*               7498               0-2.657891912E+001.1207829564E+02+
*       7.5000000000E+00               0
GRID*               7499               0-5.267052750E+001.1144203534E+02+
*       7.5000000000E+00               0
GRID*               7500               0-4.843957877E+001.0947416614E+02+
*       7.5000000000E+00               0
GRID*               7501               02.0758975820E+009.6100382257E+01+
*       7.5000000000E+00               0
GRID*               7502               01.6973646387E+009.6554428623E+01+
*       7.5000000000E+00               0
GRID*               7503               02.8519218776E+009.5963357537E+01+
*       7.5000000000E+00               0
GRID*               7504               04.4650830589E+009.6715181925E+01+
*       7.5000000000E+00               0
GRID*               7505               03.9898685467E+009.7839735976E+01+
*       7.5000000000E+00               0
GRID*               7506               0-3.624899476E+009.9973286361E+01+
*       7.5000000000E+00               0
GRID*               7507               0-3.583102996E+001.0243346569E+02+
*       7.5000000000E+00               0
GRID*               7508               0-6.485011969E-019.9598832116E+01+
*       7.5000000000E+00               0
GRID*               7509               01.3536920952E+009.9241159200E+01+
*       7.5000000000E+00               0
GRID*               7510               03.5542406879E-011.0099733944E+02+
*       7.5000000000E+00               0
GRID*               7511               0-3.933544446E+009.7462303983E+01+
*       7.5000000000E+00               0
GRID*               7512               0-1.955414194E+009.8844029980E+01+
*       7.5000000000E+00               0
GRID*               7513               02.3671623631E+009.8863789057E+01+
*       7.5000000000E+00               0
GRID*               7514               03.9803235444E+009.9615613445E+01+
*       7.5000000000E+00               0
GRID*               7515               0-9.571461673E-019.7087849738E+01+
*       7.5000000000E+00               0
GRID*               7516               01.6892157546E-019.6879488491E+01+
*       7.5000000000E+00               0
GRID*               7517               0-1.137991421E+009.6124686355E+01+
*       7.5000000000E+00               0
GRID*               7518               01.3632370975E+009.7465281731E+01+
*       7.5000000000E+00               0
GRID*               7519               06.8389437076E-019.6931798766E+01+
*       7.5000000000E+00               0
GRID*               7520               0-4.033857736E+001.0510547007E+02+
*       7.5000000000E+00               0
GRID*               7521               0-2.097523963E+001.0402701674E+02+
*       7.5000000000E+00               0
GRID*               7522               0-4.274048551E+001.0742916848E+02+
*       7.5000000000E+00               0
GRID*               7523               0-3.118188029E+001.0874401877E+02+
*       7.5000000000E+00               0
GRID*               7524               03.9385270647E+001.0207579278E+02+
*       7.5000000000E+00               0
GRID*               7525               02.1194943800E+001.0327259712E+02+
*       7.5000000000E+00               0
GRID*               7526               03.7004040837E+001.0470872337E+02+
*       7.5000000000E+00               0
GRID*               7527               01.1730108785E-011.0363027003E+02+
*       7.5000000000E+00               0
GRID*               7528               0-3.334536523E-011.0630227441E+02+
*       7.5000000000E+00               0
GRID*               7529               0-1.347629706E+001.0844415497E+02+
*       7.5000000000E+00               0
GRID*               7530               08.6719534573E-011.0804740826E+02+
*       7.5000000000E+00               0
GRID*               7531               0-1.917539031E+001.1048915262E+02+
*       7.5000000000E+00               0
GRID*               7532               0-8.873335878E-011.1177843183E+02+
*       7.5000000000E+00               0
GRID*               7533               07.4035288021E-011.1177843183E+02+
*       7.5000000000E+00               0
GRID*               7534               03.9405948992E+001.0703242178E+02+
*       7.5000000000E+00               0
GRID*               7535               01.6959917901E+001.1044847010E+02+
*       7.5000000000E+00               0
GRID*               7536               02.7101678434E+001.0830658955E+02+
*       7.5000000000E+00               0
GRID*               7537               08.0240080572E+004.8737035602E+01+
*       7.5000000000E+00               0
GRID*               7538               08.1669195488E+004.6921173046E+01+
*       7.5000000000E+00               0
GRID*               7539               07.9204185757E+005.0049871980E+01+
*       7.5000000000E+00               0
GRID*               7540               08.2574534416E+004.5745668411E+01+
*       7.5000000000E+00               0
GRID*               7541               08.5634307210E+004.3737026820E+01+
*       7.5000000000E+00               0
GRID*               7542               08.8411944536E+004.1923594611E+01+
*       7.5000000000E+00               0
GRID*               7543               07.7759412747E+005.1885630029E+01+
*       7.5000000000E+00               0
GRID*               7544               07.1089788686E+006.0049186713E+01+
*       7.5000000000E+00               0
GRID*               7545               07.2612287130E+005.8114669142E+01+
*       7.5000000000E+00               0
GRID*               7546               07.6601020539E+005.3319006949E+01+
*       7.5000000000E+00               0
GRID*               7547               07.3912813523E+005.6654934876E+01+
*       7.5000000000E+00               0
GRID*               7548               07.5125020931E+005.5194442151E+01+
*       7.5000000000E+00               0
GRID*               7549               01.0786421661E+013.6492191608E+01+
*       7.5000000000E+00               0
GRID*               7550               09.9756981481E+003.8225088764E+01+
*       7.5000000000E+00               0
GRID*               7551               01.1577432900E+013.4836900004E+01+
*       7.5000000000E+00               0
GRID*               7552               09.4354921961E+003.9978333355E+01+
*       7.5000000000E+00               0
GRID*               7553               02.4826228641E+011.3355485736E+01+
*       7.5000000000E+00               0
GRID*               7554               02.5498499483E+011.6390560464E+01+
*       7.5000000000E+00               0
GRID*               7555               02.3178647469E+011.6052847675E+01+
*       7.5000000000E+00               0
GRID*               7556               02.5826450784E+011.1188700593E+01+
*       7.5000000000E+00               0
GRID*               7557               02.7588779864E+019.0158569211E+00+
*       7.5000000000E+00               0
GRID*               7558               02.8908409736E+011.1520354852E+01+
*       7.5000000000E+00               0
GRID*               7559               03.0054385801E+017.1737555899E+00+
*       7.5000000000E+00               0
GRID*               7560               03.2034826478E+017.1737555899E+00+
*       7.5000000000E+00               0
GRID*               7561               02.6972426849E+016.8421013312E+00+
*       7.5000000000E+00               0
GRID*               7562               02.9165808645E+011.9492890133E+01+
*       7.5000000000E+00               0
GRID*               7563               02.7484377934E+012.0670240770E+01+
*       7.5000000000E+00               0
GRID*               7564               02.6297517456E+011.8602698467E+01+
*       7.5000000000E+00               0
GRID*               7565               02.7945098628E+011.5905336528E+01+
*       7.5000000000E+00               0
GRID*               7566               02.5037778789E+012.1155464706E+01+
*       7.5000000000E+00               0
GRID*               7567               03.4895828610E+011.4757612613E+01+
*       7.5000000000E+00               0
GRID*               7568               03.4895828610E+011.1861060724E+01+
*       7.5000000000E+00               0
GRID*               7569               03.2871359974E+011.6175161027E+01+
*       7.5000000000E+00               0
GRID*               7570               03.1046480351E+011.8176029428E+01+
*       7.5000000000E+00               0
GRID*               7571               03.0568996225E+011.6116606130E+01+
*       7.5000000000E+00               0
GRID*               7572               02.9769978252E+011.3904468127E+01+
*       7.5000000000E+00               0
GRID*               7573               03.1532307332E+011.1731624455E+01+
*       7.5000000000E+00               0
GRID*               7574               03.4034260094E+019.4769474490E+00+
*       7.5000000000E+00               0
GRID*               7575               03.5398347756E+017.3031918591E+00+
*       7.5000000000E+00               0
GRID*               7576               02.1603417394E+011.8223629052E+01+
*       7.5000000000E+00               0
GRID*               7577               02.3521592357E+012.2217110036E+01+
*       7.5000000000E+00               0
GRID*               7578               02.1453579933E+012.3988451252E+01+
*       7.5000000000E+00               0
GRID*               7579               02.1782905887E+012.0859263619E+01+
*       7.5000000000E+00               0
GRID*               7580               01.9535404971E+011.9994970267E+01+
*       7.5000000000E+00               0
GRID*               7581               01.7514158371E+012.1821238201E+01+
*       7.5000000000E+00               0
GRID*               7582               01.1763715083E+013.3364481314E+01+
*       7.5000000000E+00               0
GRID*               7583               01.2788493595E+013.1842798669E+01+
*       7.5000000000E+00               0
GRID*               7584               01.0649380649E+002.7460838590E+01+
*       7.5000000000E+00               0
GRID*               7585               0-1.056291468E+002.7461473204E+01+
*       7.5000000000E+00               0
GRID*               7586               07.1077578800E+002.7173972005E+01+
*       7.5000000000E+00               0
GRID*               7587               09.6979058743E+002.6330274627E+01+
*       7.5000000000E+00               0
GRID*               7588               05.6465638117E+002.6913914389E+01+
*       7.5000000000E+00               0
GRID*               7589               03.7740383546E+002.7175411206E+01+
*       7.5000000000E+00               0
GRID*               7590               02.0025622429E+012.4988318012E+01+
*       7.5000000000E+00               0
GRID*               7591               01.5739957912E+012.3278138608E+01+
*       7.5000000000E+00               0
GRID*               7592               01.7940693005E+012.4087505241E+01+
*       7.5000000000E+00               0
GRID*               7593               01.3382494557E+012.4643078060E+01+
*       7.5000000000E+00               0
GRID*               7594               01.0962636533E+012.8800748429E+01+
*       7.5000000000E+00               0
GRID*               7595               01.1842298327E+012.9996119985E+01+
*       7.5000000000E+00               0
GRID*               7596               01.1863227227E+012.6212224275E+01+
*       7.5000000000E+00               0
GRID*               7597               01.4647225216E+012.7113551862E+01+
*       7.5000000000E+00               0
GRID*               7598               01.8251421970E+012.6445218418E+01+
*       7.5000000000E+00               0
GRID*               7599               01.6829891847E+012.7604934405E+01+
*       7.5000000000E+00               0
GRID*               7600               01.5310624516E+012.9174080621E+01+
*       7.5000000000E+00               0
GRID*               7601               01.4074153154E+013.0529376761E+01+
*       7.5000000000E+00               0
GRID*               7602               0-8.022952931E+004.8750576902E+01+
*       7.5000000000E+00               0
GRID*               7603               0-7.915449063E+005.0112030735E+01+
*       7.5000000000E+00               0
GRID*               7604               0-8.165864423E+004.6934714346E+01+
*       7.5000000000E+00               0
GRID*               7605               0-8.257453442E+004.5745668411E+01+
*       7.5000000000E+00               0
GRID*               7606               0-8.539156542E+004.3845676958E+01+
*       7.5000000000E+00               0
GRID*               7607               0-8.816920274E+004.2032244748E+01+
*       7.5000000000E+00               0
GRID*               7608               0-7.770971762E+005.1947788784E+01+
*       7.5000000000E+00               0
GRID*               7609               0-6.934394862E+006.1873955247E+01+
*       7.5000000000E+00               0
GRID*               7610               0-6.776042465E+006.3886013102E+01+
*       7.5000000000E+00               0
GRID*               7611               0-7.648978416E+005.3455759891E+01+
*       7.5000000000E+00               0
GRID*               7612               0-7.082178451E+006.0338741268E+01+
*       7.5000000000E+00               0
GRID*               7613               0-7.501378455E+005.5331195094E+01+
*       7.5000000000E+00               0
GRID*               7614               0-7.372849206E+005.6868137374E+01+
*       7.5000000000E+00               0
GRID*               7615               0-7.234428295E+005.8404223697E+01+
*       7.5000000000E+00               0
GRID*               7616               0-6.618560812E+006.5420262013E+01+
*       7.5000000000E+00               0
GRID*               7617               0-6.452809996E+006.7526325684E+01+
*       7.5000000000E+00               0
GRID*               7618               0-5.932209451E+007.2804300147E+01+
*       7.5000000000E+00               0
GRID*               7619               0-5.741245408E+007.4334743290E+01+
*       7.5000000000E+00               0
GRID*               7620               0-6.285146164E+006.9059496060E+01+
*       7.5000000000E+00               0
GRID*               7621               0-6.106367610E+007.0591411063E+01+
*       7.5000000000E+00               0
GRID*               7622               0-5.558136698E+007.6661359904E+01+
*       7.5000000000E+00               0
GRID*               7623               0-4.941296007E+008.2155234429E+01+
*       7.5000000000E+00               0
GRID*               7624               0-4.701944568E+008.3678860107E+01+
*       7.5000000000E+00               0
GRID*               7625               0-5.133226051E+007.9716532143E+01+
*       7.5000000000E+00               0
GRID*               7626               0-5.353543535E+007.8190039519E+01+
*       7.5000000000E+00               0
GRID*               7627               0-4.881133632E+008.9642197478E+01+
*       7.5000000000E+00               0
GRID*               7628               0-4.032523356E+008.8810547784E+01+
*       7.5000000000E+00               0
GRID*               7629               0-2.481441083E+009.0396993562E+01+
*       7.5000000000E+00               0
GRID*               7630               0-4.675438741E+009.2255798712E+01+
*       7.5000000000E+00               0
GRID*               7631               0-4.502176470E+008.6217154295E+01+
*       7.5000000000E+00               0
GRID*               7632               0-4.257005412E+008.7636190458E+01+
*       7.5000000000E+00               0
GRID*               7633               0-2.282054363E+009.1338089367E+01+
*       7.5000000000E+00               0
GRID*               7634               0-1.395595122E+009.5298035489E+01+
*       7.5000000000E+00               0
GRID*               7635               0-2.283402037E+009.4777287269E+01+
*       7.5000000000E+00               0
GRID*               7636               0-1.414937995E+009.3742275157E+01+
*       7.5000000000E+00               0
GRID*               7637               0-4.142442644E+009.4808000885E+01+
*       7.5000000000E+00               0
GRID*               7638               0-4.161785516E+009.3252240553E+01+
*       7.5000000000E+00               0
GRID*               7639               0-2.816398134E+009.2225085096E+01+
*       7.5000000000E+00               0
GRID*               7640               0-1.584322927E+009.3109287130E+01+
*       7.5000000000E+00               0
GRID*               7641               0-1.768401139E+009.2334531208E+01+
*       7.5000000000E+00               0
GRID*               7642               0-1.078642166E+013.6492191608E+01+
*       7.5000000000E+00               0
GRID*               7643               0-1.157743290E+013.4836900004E+01+
*       7.5000000000E+00               0
GRID*               7644               0-9.976179142E+003.8223851584E+01+
*       7.5000000000E+00               0
GRID*               7645               0-9.435973190E+003.9977096174E+01+
*       7.5000000000E+00               0
GRID*               7646               0-2.192637564E+012.1296430710E+01+
*       7.5000000000E+00               0
GRID*               7647               0-2.173152593E+011.8579531739E+01+
*       7.5000000000E+00               0
GRID*               7648               0-1.955076619E+012.0076234671E+01+
*       7.5000000000E+00               0
GRID*               7649               0-2.516588732E+012.1511367393E+01+
*       7.5000000000E+00               0
GRID*               7650               0-2.684731803E+012.0334016757E+01+
*       7.5000000000E+00               0
GRID*               7651               0-2.146894116E+012.4069715655E+01+
*       7.5000000000E+00               0
GRID*               7652               0-2.004098365E+012.5069582415E+01+
*       7.5000000000E+00               0
GRID*               7653               0-2.364970089E+012.2573012724E+01+
*       7.5000000000E+00               0
GRID*               7654               0-2.899440886E+011.8474979555E+01+
*       7.5000000000E+00               0
GRID*               7655               0-2.625422621E+011.7940690577E+01+
*       7.5000000000E+00               0
GRID*               7656               0-3.087508057E+011.7158118850E+01+
*       7.5000000000E+00               0
GRID*               7657               0-3.295821916E+011.5725527749E+01+
*       7.5000000000E+00               0
GRID*               7658               0-3.048445563E+011.4649062274E+01+
*       7.5000000000E+00               0
GRID*               7659               0-3.498268780E+011.4307979334E+01+
*       7.5000000000E+00               0
GRID*               7660               0-3.498268780E+011.1411427445E+01+
*       7.5000000000E+00               0
GRID*               7661               0-2.330675600E+011.6408750363E+01+
*       7.5000000000E+00               0
GRID*               7662               0-3.233922495E+016.7974394401E+00+
*       7.5000000000E+00               0
GRID*               7663               0-3.035878427E+016.7974394401E+00+
*       7.5000000000E+00               0
GRID*               7664               0-3.433865857E+019.1006312992E+00+
*       7.5000000000E+00               0
GRID*               7665               0-3.192356499E+011.0905675026E+01+
*       7.5000000000E+00               0
GRID*               7666               0-3.539834776E+017.3031918591E+00+
*       7.5000000000E+00               0
GRID*               7667               0-2.857239640E+016.3422484450E+00+
*       7.5000000000E+00               0
GRID*               7668               0-2.949314789E+018.1396878852E+00+
*       7.5000000000E+00               0
GRID*               7669               0-2.661073093E+016.3422484450E+00+
*       7.5000000000E+00               0
GRID*               7670               0-2.610679047E+018.1843497762E+00+
*       7.5000000000E+00               0
GRID*               7671               0-2.957270554E+019.8891217338E+00+
*       7.5000000000E+00               0
GRID*               7672               0-2.778631767E+019.4339307387E+00+
*       7.5000000000E+00               0
GRID*               7673               0-3.021673477E+011.2199917880E+01+
*       7.5000000000E+00               0
GRID*               7674               0-2.813359618E+011.3632508982E+01+
*       7.5000000000E+00               0
GRID*               7675               0-2.545384683E+011.4549713162E+01+
*       7.5000000000E+00               0
GRID*               7676               0-2.518612597E+011.2100568767E+01+
*       7.5000000000E+00               0
GRID*               7677               0-2.618634811E+019.9337836249E+00+
*       7.5000000000E+00               0
GRID*               7678               0-3.765391758E+002.7176045819E+01+
*       7.5000000000E+00               0
GRID*               7679               0-5.646563812E+002.6913914389E+01+
*       7.5000000000E+00               0
GRID*               7680               0-7.107757880E+002.7173972005E+01+
*       7.5000000000E+00               0
GRID*               7681               0-9.697905874E+002.6330274627E+01+
*       7.5000000000E+00               0
GRID*               7682               0-1.176371508E+013.3364481314E+01+
*       7.5000000000E+00               0
GRID*               7683               0-1.278849359E+013.1842798669E+01+
*       7.5000000000E+00               0
GRID*               7684               0-1.752951959E+012.1902502605E+01+
*       7.5000000000E+00               0
GRID*               7685               0-1.795957608E+012.4182737151E+01+
*       7.5000000000E+00               0
GRID*               7686               0-1.574347976E+012.3292106114E+01+
*       7.5000000000E+00               0
GRID*               7687               0-1.825494382E+012.6459185925E+01+
*       7.5000000000E+00               0
GRID*               7688               0-1.683341370E+012.7618901912E+01+
*       7.5000000000E+00               0
GRID*               7689               0-1.531148475E+012.9176775219E+01+
*       7.5000000000E+00               0
GRID*               7690               0-1.465160730E+012.7130213967E+01+
*       7.5000000000E+00               0
GRID*               7691               0-1.407501339E+013.0532071359E+01+
*       7.5000000000E+00               0
GRID*               7692               0-1.184315856E+012.9998814584E+01+
*       7.5000000000E+00               0
GRID*               7693               0-1.338601641E+012.4657045567E+01+
*       7.5000000000E+00               0
GRID*               7694               0-1.096349677E+012.8803443027E+01+
*       7.5000000000E+00               0
GRID*               7695               0-1.186408746E+012.6214918873E+01+
*       7.5000000000E+00               0
GRID*               9133               0-3.739778137E+015.0000000000E+00+
*       -7.500000000E+00               0
GRID*               8692               0-3.700435448E+015.0000000000E+00+
*       -9.222499847E+00               0
GRID*               6962               0-3.500492086E+015.0000000000E+00+
*       -9.222499847E+00               0
GRID*               6963               0-3.313788238E+015.0000000000E+00+
*       -9.222499847E+00               0
GRID*               6964               0-2.734647305E+015.0000000000E+00+
*       -9.222499847E+00               0
GRID*               6965               0-2.930813852E+015.0000000000E+00+
*       -9.222499847E+00               0
GRID*               6966               0-3.115744170E+015.0000000000E+00+
*       -9.222499847E+00               0
GRID*               9137               0-2.551470184E+015.0000000000E+00+
*       -7.500000000E+00               0
GRID*               9138               0-2.551470184E+015.0000000000E+00+
*       7.5000000000E+00               0
GRID*               9142               02.5514701843E+015.0000000000E+00+
*       -7.500000000E+00               0
GRID*               9143               02.5514701843E+015.0000000000E+00+
*       7.5000000000E+00               0
GRID*               8696               0-2.943803279E+015.0000000000E+00+
*       -7.500000000E+00               0
GRID*               8697               0-3.339891414E+015.0000000000E+00+
*       -7.500000000E+00               0
GRID*               8698               0-3.539834776E+015.0000000000E+00+
*       -7.500000000E+00               0
GRID*               8699               0-2.747636731E+015.0000000000E+00+
*       -7.500000000E+00               0
GRID*               8700               0-3.141847346E+015.0000000000E+00+
*       -7.500000000E+00               0
GRID*               8701               0-3.339891414E+015.0000000000E+00+
*       7.5000000000E+00               0
GRID*               8702               0-2.943803279E+015.0000000000E+00+
*       7.5000000000E+00               0
GRID*               8703               0-3.539834776E+015.0000000000E+00+
*       7.5000000000E+00               0
GRID*               8704               0-2.747636731E+015.0000000000E+00+
*       7.5000000000E+00               0
GRID*               8705               0-3.141847346E+015.0000000000E+00+
*       7.5000000000E+00               0
GRID*               8716               0-2.551470184E+015.0000000000E+00+
*       -9.222499847E+00               0
GRID*               8717               0-2.551470184E+015.0000000000E+00+
*       9.2224998474E+00               0
GRID*               8745               02.4506826532E+018.6842022063E+00+
*       -7.500000000E+00               0
GRID*               8746               02.2506376622E+011.3017772943E+01+
*       -7.500000000E+00               0
GRID*               8747               01.9355916522E+011.7359335742E+01+
*       -7.500000000E+00               0
GRID*               8748               01.5313423268E+012.1011871555E+01+
*       -7.500000000E+00               0
GRID*               8749               01.0598496578E+012.3741750500E+01+
*       -7.500000000E+00               0
GRID*               8750               05.4182005697E+002.5429145202E+01+
*       -7.500000000E+00               0
GRID*               8751               00.0000000000E+002.6000000000E+01+
*       -7.500000000E+00               0
GRID*               8752               0-5.418200570E+002.5429145202E+01+
*       -7.500000000E+00               0
GRID*               8753               0-1.059849658E+012.3741750500E+01+
*       -7.500000000E+00               0
GRID*               8754               0-1.531342327E+012.1011871555E+01+
*       -7.500000000E+00               0
GRID*               8755               0-1.935591652E+011.7359335742E+01+
*       -7.500000000E+00               0
GRID*               8756               0-2.250637662E+011.3017772943E+01+
*       -7.500000000E+00               0
GRID*               8757               0-2.450682653E+018.6842022063E+00+
*       -7.500000000E+00               0
GRID*               8758               0-2.724094713E+002.5856873039E+01+
*       -7.500000000E+00               0
GRID*               8759               0-1.302764984E+012.2500632484E+01+
*       -7.500000000E+00               0
GRID*               8760               0-8.052676294E+002.4721535387E+01+
*       -7.500000000E+00               0
GRID*               8761               0-2.507847473E+016.8606243167E+00+
*       -7.500000000E+00               0
GRID*               8762               0-2.360622748E+011.0896977423E+01+
*       -7.500000000E+00               0
GRID*               8763               0-1.743061122E+011.9291785547E+01+
*       -7.500000000E+00               0
GRID*               8764               0-2.104342195E+011.5270028867E+01+
*       -7.500000000E+00               0
GRID*               8765               02.5078474727E+016.8606243167E+00+
*       -7.500000000E+00               0
GRID*               8766               02.1043421955E+011.5270028867E+01+
*       -7.500000000E+00               0
GRID*               8767               02.3606227485E+011.0896977423E+01+
*       -7.500000000E+00               0
GRID*               8768               02.7240947130E+002.5856873039E+01+
*       -7.500000000E+00               0
GRID*               8769               08.0526762943E+002.4721535387E+01+
*       -7.500000000E+00               0
GRID*               8770               01.7430611216E+011.9291785547E+01+
*       -7.500000000E+00               0
GRID*               8771               01.3027649842E+012.2500632484E+01+
*       -7.500000000E+00               0
GRID*               8772               02.4506826532E+018.6842022063E+00+
*       7.5000000000E+00               0
GRID*               8773               02.2506376622E+011.3017772943E+01+
*       7.5000000000E+00               0
GRID*               8774               01.9355916522E+011.7359335742E+01+
*       7.5000000000E+00               0
GRID*               8775               01.5313423268E+012.1011871555E+01+
*       7.5000000000E+00               0
GRID*               8776               01.0598496578E+012.3741750500E+01+
*       7.5000000000E+00               0
GRID*               8777               05.4182005697E+002.5429145202E+01+
*       7.5000000000E+00               0
GRID*               8778               01.3322676296E-152.6000000000E+01+
*       7.5000000000E+00               0
GRID*               8779               0-5.418200570E+002.5429145202E+01+
*       7.5000000000E+00               0
GRID*               8780               0-1.059849658E+012.3741750500E+01+
*       7.5000000000E+00               0
GRID*               8781               0-1.531342327E+012.1011871555E+01+
*       7.5000000000E+00               0
GRID*               8782               0-1.935591652E+011.7359335742E+01+
*       7.5000000000E+00               0
GRID*               8783               0-2.250637662E+011.3017772943E+01+
*       7.5000000000E+00               0
GRID*               8784               0-2.450682653E+018.6842022063E+00+
*       7.5000000000E+00               0
GRID*               8785               02.7240947130E+002.5856873039E+01+
*       7.5000000000E+00               0
GRID*               8786               01.3027649842E+012.2500632484E+01+
*       7.5000000000E+00               0
GRID*               8787               08.0526762943E+002.4721535387E+01+
*       7.5000000000E+00               0
GRID*               8788               02.5078474727E+016.8606243167E+00+
*       7.5000000000E+00               0
GRID*               8789               02.3606227485E+011.0896977423E+01+
*       7.5000000000E+00               0
GRID*               8790               01.7430611216E+011.9291785547E+01+
*       7.5000000000E+00               0
GRID*               8791               02.1043421955E+011.5270028867E+01+
*       7.5000000000E+00               0
GRID*               8792               0-2.507847473E+016.8606243167E+00+
*       7.5000000000E+00               0
GRID*               8793               0-2.104342195E+011.5270028867E+01+
*       7.5000000000E+00               0
GRID*               8794               0-2.360622748E+011.0896977423E+01+
*       7.5000000000E+00               0
GRID*               8795               0-2.724094713E+002.5856873039E+01+
*       7.5000000000E+00               0
GRID*               8796               0-8.052676294E+002.4721535387E+01+
*       7.5000000000E+00               0
GRID*               8797               0-1.743061122E+011.9291785547E+01+
*       7.5000000000E+00               0
GRID*               8798               0-1.302764984E+012.2500632484E+01+
*       7.5000000000E+00               0
GRID*               8826               02.1298779013E+002.8921680925E+01+
*       -7.500000000E+00               0
GRID*               8827               0-2.112584456E+002.8922949392E+01+
*       -7.500000000E+00               0
GRID*               8828               0-4.002345664E+002.8722460765E+01+
*       -7.500000000E+00               0
GRID*               8829               04.0109324754E+002.8721262938E+01+
*       -7.500000000E+00               0
GRID*               8830               08.6699548465E-032.8999973634E+01+
*       -7.500000000E+00               0
GRID*               8831               02.1298779013E+002.8921680925E+01+
*       7.5000000000E+00               0
GRID*               8832               0-2.112584456E+002.8922949392E+01+
*       7.5000000000E+00               0
GRID*               8833               0-4.002345664E+002.8722460765E+01+
*       7.5000000000E+00               0
GRID*               8834               04.0109324754E+002.8721262938E+01+
*       7.5000000000E+00               0
GRID*               8835               08.6699548465E-032.8999973634E+01+
*       7.5000000000E+00               0
GRID*               8836               02.5514701843E+015.0000000000E+00+
*       -9.222499847E+00               0
GRID*               8837               02.5514701843E+015.0000000000E+00+
*       9.2224998474E+00               0
GRID*               8848               03.3398914140E+015.0000000000E+00+
*       -7.500000000E+00               0
GRID*               8849               02.9438032785E+015.0000000000E+00+
*       -7.500000000E+00               0
GRID*               8850               03.1418473463E+015.0000000000E+00+
*       -7.500000000E+00               0
GRID*               8851               03.5398347756E+015.0000000000E+00+
*       -7.500000000E+00               0
GRID*               8852               02.7476367314E+015.0000000000E+00+
*       -7.500000000E+00               0
GRID*               8853               02.9438032785E+015.0000000000E+00+
*       7.5000000000E+00               0
GRID*               8854               03.3398914140E+015.0000000000E+00+
*       7.5000000000E+00               0
GRID*               8855               03.1418473463E+015.0000000000E+00+
*       7.5000000000E+00               0
GRID*               8856               02.7476367314E+015.0000000000E+00+
*       7.5000000000E+00               0
GRID*               8857               03.5398347756E+015.0000000000E+00+
*       7.5000000000E+00               0
$*
$* ELEMENT CARDS
$*
$*  NX Mesh Collector: Solid(1)
$*  NX Mesh: 3d_mesh(1)
CTETRA         1       1       1       2       3    4225     177     178+
+            179     180     181     182
CTETRA         2       1       4       3       5       2     183     184+
+            185     186     178     187
CTETRA         3       1       4       2    4224    4225     186     188+
+            189     190     181    4329
CTETRA         4       1       6       7       8       4     191     192+
+            193     194     195     196
CTETRA         5       1       4       2       8    4224     186     197+
+            196     189     188     198
CTETRA         6       1       9      10      11      12     199     200+
+            201     202     203     204
CTETRA         7       1      13      14       9      15     205     206+
+            207     208     209     210
CTETRA         8       1      13      16      17      18     211     212+
+            213     214     215     216
CTETRA         9       1      13    4217       9      12     217     218+
+            207     219     220     202
CTETRA        10       1       7       6       8    4848     191     193+
+            192     221     222     223
CTETRA        11       1       7       6    4848    4849     191     222+
+            221     224     225    4953
CTETRA        12       1    4849       7    8877      19     224     226+
+            227     228     229     230
CTETRA        13       1    5681       7      20      19     231     232+
+            233     234     229     235
CTETRA        14       1      21    4849       7    8877     236     224+
+            237     238     227     226
CTETRA        15       1       6      21    4849       7     239     236+
+            225     191     237     224
CTETRA        16       1      22       6      21    4849     240     239+
+            241     242     225     236
CTETRA        17       1      23      24    5135    5142     243     244+
+            245     246     247    5227
CTETRA        18       1    5144      23    5138    5140     248     249+
+           5242    5215     250    5225
CTETRA        19       1      24      25      26      23     251     252+
+            253     243     254     255
CTETRA        20       1      27    4494    8055    8778     256     257+
+            258     259     260     261
CTETRA        21       1      28    7787      29    3743     262     263+
+            264     265    3828     266
CTETRA        22       1      28      30    3740    3747     267     268+
+            269     270     271    3832
CTETRA        23       1    7793    3771    7884    7792    3922     272+
+           7304    7801    3923    7306
CTETRA        24       1    7796    9051    7138      28    7799    7350+
+           7351     273     274     275
CTETRA        25       1    7796    7139      30      28    7352     276+
+            277     273     278     267
CTETRA        26       1      31      32      33      34     279     280+
+            281     282     283     284
CTETRA        27       1    8086      35    5511    8565     285     286+
+           5525    5524     287    5522
CTETRA        28       1    4379    7150    7965    7952     288     289+
+           4393    4399    7395    4398
CTETRA        29       1    7153      31    7146      32     290     291+
+           7407     292     279     293
CTETRA        30       1    9071    7965      31    7150    7967     294+
+            295    7394     289     296
CTETRA        31       1    8219    5172    8213    8218     297     298+
+           4971    8223     299    4968
CTETRA        32       1      36      37    4171    7848     300     301+
+            302     303     304    4174
CTETRA        33       1      28      30      36    7139     267     305+
+            306     278     276     307
CTETRA        34       1      36      38    8754    4473     308     309+
+            310     311     312     313
CTETRA        35       1      36      39      40      37     314     315+
+            316     300     317     318
CTETRA        36       1      36      38    7138    8754     308     319+
+            320     310     309    7343
CTETRA        37       1      36      40    8753    7847     316     321+
+            322     323     324     325
CTETRA        38       1      25      41    8317      24     326     327+
+            328     251     329     330
CTETRA        39       1      25      42    8775    4500     331     332+
+            333     334     335     336
CTETRA        40       1      25      41    8316    8317     326     337+
+            338     328     327    8320
CTETRA        41       1      25      42    7441    8775     331     339+
+            340     333     332    7591
CTETRA        42       1      25      43      44      41     341     342+
+            343     326     344     345
CTETRA        43       1      25    8316      44    8776     338     346+
+            343     347     348     349
CTETRA        44       1      45      46    7427    4382     350     351+
+            352     353     354     355
CTETRA        45       1      45      47      48    8563     356     357+
+            358     359     360     361
CTETRA        46       1      45      46      49      50     350     362+
+            363     364     365     366
CTETRA        47       1      41    5133    4987    8317     367     368+
+            369     327     370    4990
CTETRA        48       1    8087    5511      50      47    5526     371+
+            372     373     374     375
CTETRA        49       1      45      50      35      47     364     376+
+            377     356     375     378
CTETRA        50       1      45    7427      50    8087     352     379+
+            364     380    7498     372
CTETRA        51       1      51      52      16      53     381     382+
+            383     384     385     386
CTETRA        52       1      16      54      55      53     387     388+
+            389     386     390     391
CTETRA        53       1      16    4213      54      52     392     393+
+            387     382     394     395
CTETRA        54       1      56      57      11      14     396     397+
+            398     399     400     401
CTETRA        55       1    8581    8582      51      18    8589     402+
+            403     404     405     406
CTETRA        56       1      16    4213      58      54     392     407+
+            408     387     393     409
CTETRA        57       1      16      13    4213      18     211     410+
+            392     215     214     411
CTETRA        58       1      49      59      60    4718     412     413+
+            414     415     416     417
CTETRA        59       1      49      60      59      61     414     413+
+            412     418     419     420
CTETRA        60       1      49      35      60    6426     421     422+
+            414     423     424     425
CTETRA        61       1      49      35    6426    6425     421     424+
+            423     426     427    6525
CTETRA        62       1      49      62      50      46     428     429+
+            366     362     430     365
CTETRA        63       1      49      63      62    4713     431     432+
+            428     433     434     435
CTETRA        64       1    4713      49    4718      59     433     415+
+           4756     436     412     416
CTETRA        65       1      64    8434    8435    8533     437    8446+
+            438     439    5475    5474
CTETRA        66       1      49      50      63      35     366     440+
+            431     421     376     441
CTETRA        67       1      50      63    4715      62     440     442+
+            443     429     432     444
CTETRA        68       1    4491    4490    8057    4494    4579     445+
+            446    4587    4589     447
CTETRA        69       1      45      35      49      65     377     421+
+            363     448     449     450
CTETRA        70       1      50    4711    7426      66     451     452+
+            453     454     455     456
CTETRA        71       1      49      60    6410    6426     414     457+
+            458     423     425    6527
CTETRA        72       1    8087      47      50      45     373     375+
+            372     380     356     364
CTETRA        73       1    8086    8087    5511      50    8092    5526+
+           5525     459     372     371
CTETRA        74       1    9082      27    4497    8055     460     461+
+            462    8059     258     463
CTETRA        75       1      67      68    9117      69     464     465+
+            466     467     468     469
CTETRA        76       1    8998      69    8997    8488     470     471+
+           9021    6045     472    6058
CTETRA        77       1    8604      70    6947    6261     473     474+
+            475    6376     476     477
CTETRA        78       1      69      67    5972    9117     467     478+
+            479     469     466    6057
CTETRA        79       1      71      69    8997    4220     480     471+
+            481     482     483     484
CTETRA        80       1      69      71    5972      67     480     485+
+            479     467     486     478
CTETRA        81       1      69      57      67      68     487     488+
+            467     468     489     464
CTETRA        82       1      69      72      57      68     490     491+
+            487     468     492     489
CTETRA        83       1    6393    6392    8550      73    6466     493+
+            494     495     496     497
CTETRA        84       1      69    4220      71      74     483     482+
+            480     498     499     500
CTETRA        85       1      75      76      77      78     501     502+
+            503     504     505     506
CTETRA        86       1      75    5601      79    4831     507     508+
+            509     510     511     512
CTETRA        87       1      75      76      78      79     501     505+
+            504     509     513     514
CTETRA        88       1      75      77      76      80     503     502+
+            501     515     516     517
CTETRA        89       1      75    4831      79    4830     510     512+
+            509     518    4877     519
CTETRA        90       1      80    4830    4834      75     520    4887+
+            521     515     518     522
CTETRA        91       1    4833      80    4830    4834     523     520+
+           4883    4888     521    4887
CTETRA        92       1    6255    7136    8627    6256     524     525+
+           6348    6287     526    6389
CTETRA        93       1      21    5681       7      20     527     231+
+            237     528     233     232
CTETRA        94       1    7965      81      31      82     529     530+
+            294     531     532     533
CTETRA        95       1      75    5596    5597      80     534    5657+
+            535     515     536     537
CTETRA        96       1      76      83      79      64     538     539+
+            513     540     541     542
CTETRA        97       1      76      79    8435      64     513     543+
+            544     540     542     438
CTETRA        98       1      75    4830      79      78     518     519+
+            509     504     545     514
CTETRA        99       1      57      84    4841    4843     546     547+
+            548     549     550    4931
CTETRA       100       1      57      14      56      84     400     399+
+            396     546     551     552
CTETRA       101       1      57       9      67      10     553     554+
+            488     555     199     556
CTETRA       102       1    4843      72      68      57     557     492+
+            558     549     491     489
CTETRA       103       1      57       9      14      72     553     206+
+            400     491     559     560
CTETRA       104       1      57      84    4843      72     546     550+
+            549     491     561     557
CTETRA       105       1      85    8577      86    8576     562     563+
+            564     565    8587     566
CTETRA       106       1    8578      87      85      64     567     568+
+            569     570     571     572
CTETRA       107       1      85    5437      88      89     573     574+
+            575     576     577     578
CTETRA       108       1      85      88    5532      89     575     579+
+            580     576     578     581
CTETRA       109       1      85      89    8576      86     576     582+
+            565     564     583     566
CTETRA       110       1      85    8577      90      86     562     584+
+            585     564     563     586
CTETRA       111       1    8513      20    8514      19     587     588+
+           8520     589     235     590
CTETRA       112       1      47    6425    6441    6442     591    6570+
+            592     593    6572    6571
CTETRA       113       1      35    8565    6442      47     287     594+
+            595     378     596     593
CTETRA       114       1      50    5511      35      47     371     286+
+            376     375     374     378
CTETRA       115       1      49      46      91      62     362     597+
+            598     428     430     599
CTETRA       116       1    6425      35      47      65     427     378+
+            591     600     449     601
CTETRA       117       1      49      35    6425      65     421     427+
+            426     450     449     600
CTETRA       118       1    3737    3738    3803      92    3813    4029+
+           4037     602     603     604
CTETRA       119       1      92    7864    3763      93     605     606+
+            607     608     609     610
CTETRA       120       1    3800      92    3791      94     611     612+
+           4030     613     614     615
CTETRA       121       1      40    4179    4171      37     616     617+
+            618     318     619     301
CTETRA       122       1      92      37    3736    3737     620     621+
+            622     602     623    3837
CTETRA       123       1      92      94    3800    3736     614     613+
+            611     622     624    4016
CTETRA       124       1      94      92    3791    7867     614     612+
+            615     625     626     627
CTETRA       125       1      92    3791    7867    3790     612     627+
+            626     628    3992     629
CTETRA       126       1      95    4503    8774    8775     630     631+
+            632     633     634    8790
CTETRA       127       1    7436      95    6696    8774     635     636+
+            637    7576     632     638
CTETRA       128       1      95    6696    4506    6697     636     639+
+            640     641    6724     642
CTETRA       129       1    8112      96    8105    8106     643     644+
+            645     646     647    8107
CTETRA       130       1      95      97    4502    4499     648     649+
+            650     651     652    4617
CTETRA       131       1      95    4502    4506    4503     650    4633+
+            640     630    4623    4631
CTETRA       132       1    4979      98      41      99     653     654+
+            655     656     657     658
CTETRA       133       1    8298      99    5187    5186     659     660+
+            661     662     663    5384
CTETRA       134       1      98    5132      41    5131     664     665+
+            654     666    5232     667
CTETRA       135       1    5198    8301    5158      98     668     669+
+           5420     670     671     672
CTETRA       136       1    8112     100    8105    5528     673     674+
+            645    5540     675     676
CTETRA       137       1      98      41    5132    5198     654     665+
+            664     670     677    5432
CTETRA       138       1    8298    5191    5185    5186     678    5381+
+            679     662    5386    5387
CTETRA       139       1      98    8301    5158     101     671     669+
+            672     680     681     682
CTETRA       140       1     102      11      51      56     683     684+
+            685     686     398     687
CTETRA       141       1      56      84     103    4841     552     688+
+            689     690     547     691
CTETRA       142       1    6410      61     104    6394     692     693+
+            694    6469     695     696
CTETRA       143       1      56      84      14      17     552     551+
+            399     697     698     699
CTETRA       144       1    8414    8853    8413    6823     700     701+
+           8415    6833     702    6834
CTETRA       145       1      56      10      11      57     703     200+
+            398     396     555     397
CTETRA       146       1    5440    8105     100    5439    5490     674+
+            704    5489    5483     705
CTETRA       147       1    5684     103      17      84     706     707+
+            708     709     688     698
CTETRA       148       1      56     103      17      51     689     707+
+            697     687     710     711
CTETRA       149       1     105    7991     106    9078     712     713+
+            714     715    7996     716
CTETRA       150       1     105    4212    7859    5865     717    4270+
+            718     719     720     721
CTETRA       151       1     105    3787    7859    7858     722    3961+
+            718     723    3963    7863
CTETRA       152       1     105     107     106     108     724     725+
+            714     726     727     728
CTETRA       153       1     105     107     108    4212     724     727+
+            726     717     729     730
CTETRA       154       1     105     109     110    5865     731     732+
+            733     719     734     735
CTETRA       155       1     111     112    5150    5129     736     737+
+            738     739     740    5254
CTETRA       156       1     111    8358    7128    5128     741    7247+
+            742     743    5279     744
CTETRA       157       1     113     112     114     111     745     746+
+            747     748     736     749
CTETRA       158       1      99     113     112     114     750     745+
+            751     752     747     746
CTETRA       159       1     111     113    7128     114     748     753+
+            742     749     747     754
CTETRA       160       1     111    5128     113    5129     743     755+
+            748     739    5271     756
CTETRA       161       1    8999    4225       3     115     757     182+
+            758     759     760     761
CTETRA       162       1       8       7      20       2     192     232+
+            762     197     763     764
CTETRA       163       1       6       4     116       3     194     765+
+            766     767     183     768
CTETRA       164       1       5       2      74      21     187     769+
+            770     771     772     773
CTETRA       165       1       5       2       3       1     187     178+
+            184     774     177     179
CTETRA       166       1       1       2      74       5     177     769+
+            775     774     187     770
CTETRA       167       1    4222    8922    8921       2     776    8935+
+            777     778     779     780
CTETRA       168       1       5       6      22       1     781     240+
+            782     774     783     784
CTETRA       169       1       3       5       6       4     184     781+
+            767     183     185     194
CTETRA       170       1     116       4     115       3     765     785+
+            786     768     183     761
CTETRA       171       1       4    4226       8     115     787     788+
+            196     785     789     790
CTETRA       172       1       7       5       6      21     791     781+
+            191     237     771     239
CTETRA       173       1       4    4226     115    4225     787     789+
+            785     190    4333     760
CTETRA       174       1    3771    7884    7792    7878     272    7306+
+           3923     792    4197     793
CTETRA       175       1    8453    6071    9075    8549     794     795+
+           8454    5495    6137    5496
CTETRA       176       1     117     118    9126    9125     796     797+
+            798     799     800    8485
CTETRA       177       1     117     118    9125    7419     796     800+
+            799     801     802    7634
CTETRA       178       1       6     119       3     116     803     804+
+            767     766     805     768
CTETRA       179       1       6       8     119     116     193     806+
+            803     766     807     805
CTETRA       180       1       6      68    4846    4844     808     809+
+            810     811     812    4946
CTETRA       181       1       6      68    4844      22     808     812+
+            811     240     813     814
CTETRA       182       1     119    8952    4846       6     815     816+
+            817     803     818     810
CTETRA       183       1    5439    8063     100    5433    5485     819+
+            705    5486    5442     820
CTETRA       184       1       6      68      22       1     808     813+
+            240     783     821     784
CTETRA       185       1       5       6      21      22     781     239+
+            771     782     240     241
CTETRA       186       1      94     120    3734     121     822     823+
+            824     825     826     827
CTETRA       187       1     120     122    7453     123     828     829+
+            830     831     832     833
CTETRA       188       1     120    3733     122    3734     834     835+
+            828     823    3876     836
CTETRA       189       1     120    3756     124    3761     837     838+
+            839     840    3888     841
CTETRA       190       1     121    3758    3755    3756     842    3877+
+            843     844    3878    3867
CTETRA       191       1       9      69      57      67     845     487+
+            553     554     467     488
CTETRA       192       1      14      11      17      13     401     846+
+            699     205     847     213
CTETRA       193       1       9      12    4217    4221     202     220+
+            218     848     849    4304
CTETRA       194       1      15      74      72       9     850     851+
+            852     210     853     559
CTETRA       195       1    7986    8069     125    7993     854     855+
+            856     857    5575     858
CTETRA       196       1      57       9      72      69     553     559+
+            491     487     845     490
CTETRA       197       1       9      74    4219    4223     853     859+
+            860     861     862    4315
CTETRA       198       1    4223       9      15    4216     861     210+
+            863    4314     864     865
CTETRA       199       1       9      15    4216    4217     210     865+
+            864     218     866    4300
CTETRA       200       1       9      12    4221      71     202     849+
+            848     867     868     869
CTETRA       201       1     126    4477    4481    4478     870    4535+
+            871     872    4525    4533
CTETRA       202       1    6712    6713    9142    8745    6772     873+
+            874     875     876    8765
CTETRA       203       1    6257     126    6148    6258     877     878+
+            879    6295     880     881
CTETRA       204       1     126    7133    6148    7132     882     883+
+            878     884    7333     885
CTETRA       205       1     126    8754    4478    8755     886     887+
+            872     888    8763     889
CTETRA       206       1     126    7133    7132    8755     882    7333+
+            884     888    7330    7334
CTETRA       207       1    8869     127    8614     128     890     891+
+            892     893     894     895
CTETRA       208       1     129    6150    7738    6149     896    6175+
+            897     898    6171    6168
CTETRA       209       1     129     130    6262    8604     899     900+
+            901     902     903    6349
CTETRA       210       1     131    9066    8069    9065     904    8075+
+            905     906     907     908
CTETRA       211       1     131    8070    8069    4457     909    8074+
+            905     910    4468    4469
CTETRA       212       1     131    9065    8069    8062     906     908+
+            905     911    8068     912
CTETRA       213       1     132      40    7945    4490     913     914+
+            915     916     917     918
CTETRA       214       1     128    9116    8613     133     919     920+
+            921     922     923     924
CTETRA       215       1     131    7945    8069    9066     925    4472+
+            905     904    7947    8075
CTETRA       216       1    7942    7945    4490     131     926     918+
+            927     928     925     929
CTETRA       217       1      27    4694     131    4457     930     931+
+            932     933     934     910
CTETRA       218       1     134    8154    8064    9083     935    4697+
+            936     937    8155    8065
CTETRA       219       1     134    8070    8064    4693     938     939+
+            936     940     941    4699
CTETRA       220       1      44    4493    8157    8154     942     943+
+            944     945     946     947
CTETRA       221       1     135      44    8154    4493     948     945+
+            949     950     942     946
CTETRA       222       1    4693    4456     134    8070     951     952+
+            940     941    4467     938
CTETRA       223       1     134    8071    8157    9084     953    4460+
+            954     955    8072    8158
CTETRA       224       1    4493    8157    8154     134     943     947+
+            946     956     954     935
CTETRA       225       1      27    4493     134    8157     957     956+
+            958     959     943     954
CTETRA       226       1     136    9090     137    8111     960     961+
+            962     963    8116     964
CTETRA       227       1     137     138     139    8473     965     966+
+            967     968     969     970
CTETRA       228       1     137    8473     139    5530     968     970+
+            967     971    5549     972
CTETRA       229       1     137    8438     139     140     973     974+
+            967     975     976     977
CTETRA       230       1     137     139    8438    5435     967     974+
+            973     978     979    5450
CTETRA       231       1     137    8127     140     141     980     981+
+            975     982     983     984
CTETRA       232       1    8127     137     136     141     980     962+
+            985     983     982     986
CTETRA       233       1     137    5530     139    5529     971     972+
+            967     987    5546     988
CTETRA       234       1     137     141    9090     136     982     989+
+            961     962     986     960
CTETRA       235       1     133    6879    8612    6687     990     991+
+            992     993     994    6778
CTETRA       236       1     133    6878    6879    8427     995    6900+
+            990     996    6897    6904
CTETRA       237       1     133    7440    7437    8865     997    7573+
+            998     999    7568    7574
CTETRA       238       1     133    9112    7440    8865    1000    7567+
+            997     999    8866    7568
CTETRA       239       1     133    7440    9112    6879     997    7567+
+           1000     990    1001    6905
CTETRA       240       1     133    7440    6879    6687     997    1001+
+            990     993    1002     994
CTETRA       241       1      33    4378    7152    4379    1003    1004+
+           1005    1006    4402    1007
CTETRA       242       1    8134    7146      82      32    1008    1009+
+           1010    1011     293    1012
CTETRA       243       1      31      82    7147    7146     533    1013+
+           1014     291    1009    7390
CTETRA       244       1    3747      36    3749      28    1015    1016+
+           3846     270     306    1017
CTETRA       245       1      32    4710      33    4712    1018    1019+
+            280    1020    4735    1021
CTETRA       246       1    7154      33    7153    7151    1022    1023+
+           7411    7412    1024    7410
CTETRA       247       1      33    7153    7151      32    1023    7410+
+           1024     280     292    1025
CTETRA       248       1      32      34      82    8134     283    1026+
+           1012    1011    1027    1010
CTETRA       249       1      32    8140    4712    8134    1028    4732+
+           1020    1011    4731    4726
CTETRA       250       1      34      33    4712      32     284    1021+
+           1029     283     280    1020
CTETRA       251       1      66      34      33    4712    1030     284+
+           1031    1032    1029    1021
CTETRA       252       1      31    7150    4379      33     296     288+
+           1033     281    1034    1006
CTETRA       253       1    4386      48      65    6408    1035    1036+
+           1037    1038    1039    1040
CTETRA       254       1    6408    4386      73      65    1038    1041+
+           1042    1040    1037    1043
CTETRA       255       1      48    4390    6439    4391    1044    1045+
+           1046    1047    4452    1048
CTETRA       256       1      65    4386      73    4384    1037    1041+
+           1043    1049    4428    1050
CTETRA       257       1      48    4391    6423    4386    1047    1051+
+           1052    1035    4449    1053
CTETRA       258       1      48      65    4388    4384    1036    1054+
+           1055    1056    1049    4441
CTETRA       259       1    6425      48      65      47    1057    1036+
+            600     591     357     601
CTETRA       260       1      47    6441    6425      48     592    6570+
+            591     357    1058    1057
CTETRA       261       1      48    6441    6425    6424    1058    6570+
+           1057    1059    6569    6522
CTETRA       262       1     119     142    7115    8950    1060    1061+
+           1062    1063    1064    7178
CTETRA       263       1     119    4846    8952    8163     817     816+
+            815    1065    4943    7180
CTETRA       264       1     119       8     143     142     806    1066+
+           1067    1060    1068    1069
CTETRA       265       1     119    8492     116     142    1070    1071+
+            805    1060    1072    1073
CTETRA       266       1       8       4     116       6     196     765+
+            807     193     194     766
CTETRA       267       1     144    4201     145    5959    1074    1075+
+           1076    1077    1078    1079
CTETRA       268       1     144    4206    4202    4205    1080    4247+
+           1081    1082    4249    4246
CTETRA       269       1     144    4206     146    4203    1080    1083+
+           1084    1085    4248    1086
CTETRA       270       1      31      34    4379    7965     282    1087+
+           1033     294    1088    4393
CTETRA       271       1    8139    8140    4710    7151    8143    4737+
+           4733    7398    7396    1089
CTETRA       272       1      31      32    7153      33     279     292+
+            290     281     280    1023
CTETRA       273       1    5535     125     100    5534    1090    1091+
+           1092    5582    1093    1094
CTETRA       274       1    8140    4710    7151      32    4737    1089+
+           7396    1028    1018    1025
CTETRA       275       1      34    4379    7959    7432    1087    4395+
+           1095    1096    1097    7520
CTETRA       276       1    7959      34    7964    4379    1095    1098+
+           4394    4395    1087    4392
CTETRA       277       1      34      82    8134    8133    1026    1010+
+           1027    1099    1100    8135
CTETRA       278       1      34    7965      82    7964    1088     531+
+           1026    1098    7966    1101
CTETRA       279       1      34      33    4379      66     284    1006+
+           1087    1030    1031    1102
CTETRA       280       1      34    7432      66    4379    1096    1103+
+           1030    1087    1097    1102
CTETRA       281       1    4844      84    4845    8879    1104    1105+
+           4935    1106    1107    1108
CTETRA       282       1      84      72      14    9122     561     560+
+            551    1109    1110    1111
CTETRA       283       1      72      84    4843    4844     561     550+
+            557    1112    1104    4937
CTETRA       284       1      57     147    4843    4841    1113    1114+
+            549     548    1115    4931
CTETRA       285       1     135    4495      43    4496    1116    1117+
+           1118    1119    4596    1120
CTETRA       286       1     135    4496      44    4493    1119    1121+
+            948     950    4595     942
CTETRA       287       1    4492    8311    8750    9081    1122    1123+
+           1124    1125    8314    1126
CTETRA       288       1     135      43      99      44    1118    1127+
+           1128     948     342    1129
CTETRA       289       1    6151    9129      70    6149    6178    1130+
+           1131    6179    6172    1132
CTETRA       290       1     135    8154      44    4979     949     945+
+            948    1133    4982    1134
CTETRA       291       1      44    4500    8776    4497    1135    1136+
+            349    1137    4609    1138
CTETRA       292       1    4497    8316    8777    8776    1139    1140+
+           1141    1138     348    8787
CTETRA       293       1    9082    8316    8777    4497    8318    1140+
+           1142     462    1139    1141
CTETRA       294       1      44    4493    4497    9082     942    4600+
+           1137    1143    1144     462
CTETRA       295       1     135      43      44    4496    1118     342+
+            948    1119    1120    1121
CTETRA       296       1    8922    8921      21    8510    8935    1145+
+           1146    5925    5927    1147
CTETRA       297       1     126     148    4477    4474    1148    1149+
+            870    1150    1151    4520
CTETRA       298       1    4486    4473    4487    8753    4559    4564+
+           4566    1152    1153    1154
CTETRA       299       1    4486    7847    8752    8753    1155    1156+
+           1157    1152     325    8760
CTETRA       300       1    9063    7847    8752    4486    7849    1156+
+           1158    1159    1155    1157
CTETRA       301       1      40    9063    4490    4486    1160    1161+
+            917    1162    1159    4575
CTETRA       302       1      72      69      74       1     490     498+
+            851    1163    1164     775
CTETRA       303       1      60      61    6410    4717     419     692+
+            457    1165    1166    1167
CTETRA       304       1      49    6410      61      91     458     692+
+            418     598    1168    1169
CTETRA       305       1      85      90     144     149     585    1170+
+           1171    1172    1173    1174
CTETRA       306       1     146     150    8579     151    1175    1176+
+           1177    1178    1179    1180
CTETRA       307       1      64    8578      90      85     570    1181+
+           1182     572     569     585
CTETRA       308       1      90    8578      64     146    1181     570+
+           1182    1183    1184    1185
CTETRA       309       1      64      85      90     144     572     585+
+           1182    1186    1171    1170
CTETRA       310       1     144     150     151     145    1187    1179+
+           1188    1076    1189    1190
CTETRA       311       1     144    4203     146     150    1085    1086+
+           1084    1187    1191    1175
CTETRA       312       1      33    4377      66      46    1192    1193+
+           1031    1194    1195    1196
CTETRA       313       1      33      66    4711      62    1031     455+
+           1197    1198    1199    1200
CTETRA       314       1     146     150    4203    4204    1175    1191+
+           1086    1201    1202    4241
CTETRA       315       1    8577      87      85    8578    1203     568+
+            562    8590     567     569
CTETRA       316       1      34     152      82    8133    1204    1205+
+           1026    1099    1206    1100
CTETRA       317       1     117       8     153     154    1207    1208+
+           1209    1210    1211    1212
CTETRA       318       1     117     155     152    7421    1213    1214+
+           1215    1216    1217    1218
CTETRA       319       1    4841     103    4838    4845     691    1219+
+           4921    4928    1220    4927
CTETRA       320       1     103    8467     156    5682    1221    1222+
+           1223    1224    5726    1225
CTETRA       321       1     130    8681    8682    6946    1226    8684+
+           1227    1228    6951    6957
CTETRA       322       1     103     156    4839    5682    1223    1229+
+           1230    1224    1225    1231
CTETRA       323       1     103      51    8467    8466     710    1232+
+           1221    1233    1234    8480
CTETRA       324       1     103      51    8466      17     710    1234+
+           1233     707     711    1235
CTETRA       325       1    8882    4838    5682    5684    1236    1237+
+           5721    5719    1238    5720
CTETRA       326       1    4838    5682    5684     103    1237    5720+
+           1238    1219    1224     706
CTETRA       327       1       2      21     157    8922     772    1239+
+           1240     779    1146    1241
CTETRA       328       1      74    4223       9      15     862     861+
+            853     850     863     210
CTETRA       329       1    6273     158    7450    8784    1242    1243+
+           1244    1245    1246    7670
CTETRA       330       1    6274     158    7450    6273    1247    1243+
+           1248    6321    1242    1244
CTETRA       331       1    6274    6267    7451     158    6323    1249+
+           1250    1247    1251    1252
CTETRA       332       1      74      71    4219    4220     500    1253+
+            859     499     482    4313
CTETRA       333       1    8436      76      80      75    1254     517+
+           1255    1256     501     515
CTETRA       334       1      79     159    4828    5599    1257    1258+
+           1259    1260    1261    1262
CTETRA       335       1      75    4830    4834    4831     518    4887+
+            522     510    4877    4885
CTETRA       336       1      79     159    4827    4828    1257    1263+
+           1264    1259    1258    4865
CTETRA       337       1      79      78    4830    4827     514     545+
+            519    1264    1265    4872
CTETRA       338       1      58      11    8536    8537    1266    1267+
+           1268    1269    1270    8544
CTETRA       339       1    4215      58    4213      54    1271     407+
+           4288    1272     409     393
CTETRA       340       1      58      12      11    8537    1273     204+
+           1266    1269    1274    1270
CTETRA       341       1      16      58      55      54     408    1275+
+            389     387     409     388
CTETRA       342       1      58    8536      54    5969    1268    1276+
+            409    1277    6036    1278
CTETRA       343       1     150      52    4200    4199    1279    1280+
+           1281    1282    1283    4242
CTETRA       344       1     144     151     146      64    1188    1178+
+           1084    1186    1284    1185
CTETRA       345       1     151      64    8578     146    1284     570+
+           1285    1178    1185    1184
CTETRA       346       1     150    5863      52    4199    1286    1287+
+           1279    1282    1288    1283
CTETRA       347       1     150     145    4203    4200    1189    1289+
+           1191    1281    1290    4235
CTETRA       348       1     146      90    4207    4206    1183    1291+
+           1292    1083    1293    4253
CTETRA       349       1     146    4204    4203    4207    1201    4241+
+           1086    1292    4250    4252
CTETRA       350       1     159     160    8433     161    1294    1295+
+           1296    1297    1298    1299
CTETRA       351       1     159     160    4824    4823    1294    1300+
+           1301    1302    1303    4866
CTETRA       352       1      76     162      64    8435    1304    1305+
+            540     544    1306     438
CTETRA       353       1     159    5598     160    4823    1307    1308+
+           1294    1302    1309    1303
CTETRA       354       1     159     163    4827    4824    1310    1311+
+           1263    1301    1312    4859
CTETRA       355       1      79    4828    4827    4831    1259    4865+
+           1264     512    4874    4876
CTETRA       356       1     145      54     151    8535    1313    1314+
+           1190    1315    1316    1317
CTETRA       357       1     145      54    5958    4215    1313    1318+
+           1319    1320    1272    1321
CTETRA       358       1     145    4200      54    4215    1290    1322+
+           1313    1320    4281    1272
CTETRA       359       1     163    8468     156      83    1323    1324+
+           1325    1326    1327    1328
CTETRA       360       1     159      78     163      83    1329    1330+
+           1310    1331    1332    1326
CTETRA       361       1     163    5687      78    4825    1333    1334+
+           1330    1335    1336    1337
CTETRA       362       1     163     156    5686    4839    1325    1338+
+           1339    1340    1229    1341
CTETRA       363       1     163    4824     156    4839    1312    1342+
+           1325    1340    4905    1229
CTETRA       364       1     163      78    4827    4825    1330    1265+
+           1311    1335    1337    4858
CTETRA       365       1    8437     139     140      88    1343     977+
+           1344    1345    1346    1347
CTETRA       366       1     139     106     107    8530    1348     725+
+           1349    1350    1351    1352
CTETRA       367       1     139     106    8575     109    1348    1353+
+           1354    1355    1356    1357
CTETRA       368       1     139      89    8575    5531    1358    1359+
+           1354    1360    1361    5551
CTETRA       369       1     139    5531      88      89    1360    1362+
+           1346    1358    1361     578
CTETRA       370       1     137     139    5435    5529     967     979+
+            978     987     988    1363
CTETRA       371       1    5435    5529    5434     137    1363    1364+
+           5451     978     987    1365
CTETRA       372       1     139      89    5436    8530    1358    1366+
+           1367    1350    1368    5456
CTETRA       373       1    4384    4381    4383      73    4423    4417+
+           4425    1050    1369    1370
CTETRA       374       1      73    6392    8550    9075     496     493+
+            497    1371    1372    5497
CTETRA       375       1      73    6409      65      91    1373    1374+
+           1043    1375    1376    1377
CTETRA       376       1    9075      73    8079    8550    1371    1378+
+           8080    5497     497    5498
CTETRA       377       1      33    4710      62    4711    1019    1379+
+           1198    1197    4736    1200
CTETRA       378       1      31      34      33    4379     282     284+
+            281    1033    1087    1006
CTETRA       379       1      34      66    7433    4712    1030    1380+
+           1381    1029    1032    1382
CTETRA       380       1    8133      34    7429    4712    1099    1383+
+           1384    4725    1029    1385
CTETRA       381       1    7432      34    7433    7430    1096    1381+
+           7528    7521    1386    7527
CTETRA       382       1      31    7147      82    7149    1014    1013+
+            533    1387    7380    1388
CTETRA       383       1      33      46    4378    4377    1194    1389+
+           1003    1192    1195    4403
CTETRA       384       1    7867    7853    3792      94    4180    1390+
+           1391     625    1392    1393
CTETRA       385       1    7450    7451    8784     158    7672    7677+
+           7670    1243    1252    1246
CTETRA       386       1      94    3801    3800    3735    1394    4014+
+            613    1395    4017    4015
CTETRA       387       1    3734      94    3801     122     824    1394+
+           4018     836    1396    1397
CTETRA       388       1     120      94     123     121     822    1398+
+            831     826     825    1399
CTETRA       389       1     122    7806    9028    3793    1400    7683+
+           1401    1402    4006    1403
CTETRA       390       1     122    3733    7453    7806     835    1404+
+            829    1400    4021    7691
CTETRA       391       1     122    7453    9028    7806     829    7692+
+           1401    1400    7691    7683
CTETRA       392       1     122     123      94    7853     832    1398+
+           1396    1405    1406    1392
CTETRA       393       1     126     148    4474      38    1148    1151+
+           1150    1407    1408    1409
CTETRA       394       1     119     116    8492    8491     805    1071+
+           1070    1410    1411    8506
CTETRA       395       1     119    7115     142     143    1062    1061+
+           1060    1067    1412    1069
CTETRA       396       1     119     116    8490       3     805    1413+
+           1414     804     768    1415
CTETRA       397       1     116    8490       3    5971    1413    1415+
+            768    1416    6051    1417
CTETRA       398       1     116     142    8492     115    1073    1072+
+           1071     786    1418    1419
CTETRA       399       1     116     115       8     142     786     790+
+            807    1073    1418    1068
CTETRA       400       1     116    5971     115    8491    1416    1420+
+            786    1411    6050    1421
CTETRA       401       1      12      10    8537    8538     203    1422+
+           1274    1423    1424    8543
CTETRA       402       1      12      71    8996    4221     868    1425+
+           1426     849     869    1427
CTETRA       403       1      13      18    4217    4213     214    1428+
+            217     410     411    4296
CTETRA       404       1      12      13    4217    4214     219     217+
+            220    1429    1430    4297
CTETRA       405       1     164    5529    8111    5434    1431    5576+
+           1432    1433    1364    1434
CTETRA       406       1      12       9      13      11     202     207+
+            219     204     201     847
CTETRA       407       1      58      12    8537    5970    1273    1274+
+           1269    1435    1436    6041
CTETRA       408       1       9    4219      71    4221     860    1253+
+            867     848    4312     869
CTETRA       409       1      13      58    4214      12    1437    1438+
+           1430     219    1273    1429
CTETRA       410       1    5440    7985    5535     164    5488    1439+
+           1440    1441    1442    1443
CTETRA       411       1     141     138    4832    4836    1444    1445+
+           1446    1447    1448    4900
CTETRA       412       1     164    7985    5535    7991    1442    1439+
+           1443    1449    1450    5588
CTETRA       413       1    8780    7852    8779    4491    1451    1452+
+           8796    1453    1454    1455
CTETRA       414       1    4179    7852      94      39    4183    1456+
+           1457    1458    1459    1460
CTETRA       415       1      40     132    4487    4490     913    1461+
+           1462     917     916    4576
CTETRA       416       1     132      39    4487    4488    1463    1464+
+           1461    1465    1466    4568
CTETRA       417       1    4491    7852    8779    9064    1454    1452+
+           1455    1467    7854    1468
CTETRA       418       1     132    4490    7945    9064     916     918+
+            915    1469    1470    7946
CTETRA       419       1    5529     164    5535    7991    1431    1443+
+           5587    5543    1449    5588
CTETRA       420       1    5130     113     112      99    1471     745+
+           1472    1473     750     751
CTETRA       421       1    5130    5195    5196      99    5410    5409+
+           5412    1473    1474    1475
CTETRA       422       1    5535    8112    5440     164    5585    1476+
+           1440    1443    1477    1441
CTETRA       423       1     113    5188    8357    9033    1478    5401+
+           1479    1480    1481    7241
CTETRA       424       1     113    5128    7128    8357     755     744+
+            753    1479    5416    7249
CTETRA       425       1     113    7128    9033    8357     753    7250+
+           1480    1479    7249    7241
CTETRA       426       1     113     114      99    8312     747     752+
+            750    1482    1483    1484
CTETRA       427       1      60      63    4718    4722    1485    1486+
+            417    1487    1488    4774
CTETRA       428       1      50      35    8086    8085     376     285+
+            459    1489    1490    8091
CTETRA       429       1      49      63      50      62     431     440+
+            366     428     432     429
CTETRA       430       1    4715      63    4713      62     442     434+
+           4741     444     432     435
CTETRA       431       1      50    4715      63    8085     443     442+
+            440    1489    1491    1492
CTETRA       432       1    8615    6822    6714     127    1493    1494+
+           6802    1495    1496    1497
CTETRA       433       1     105     165     106    7991    1498    1499+
+            714     712    1500     713
CTETRA       434       1     106    7969     108    5968    1501    1502+
+            728    1503    6017    1504
CTETRA       435       1     106     107    8530    5968     725    1352+
+           1351    1503    1505    6020
CTETRA       436       1    6453    8265    5783    9106    6647    5836+
+           1506    6648    8293    5837
CTETRA       437       1     106     108    7969     165     728    1502+
+           1501    1499    1507    1508
CTETRA       438       1     105     108     106     165     726     728+
+            714    1498    1507    1499
CTETRA       439       1    8399    7435    9110    8376    7578    7590+
+           8405    6887    1509    8379
CTETRA       440       1     165    7991    7984    9077    1500    1510+
+           1511    1512    1513    7989
CTETRA       441       1     106    7991    5529    9078     713    5543+
+           1514     716    7996    5542
CTETRA       442       1     103      51     156    8467     710    1515+
+           1223    1221    1232    1222
CTETRA       443       1     103     102    4841    4837    1516    1517+
+            691    1518    1519    4920
CTETRA       444       1     103     160     102    4837    1520    1521+
+           1516    1518    1522    1519
CTETRA       445       1     156     160    4837    4824    1523    1522+
+           1524    1342    1300    4914
CTETRA       446       1    8956     102    8957    4842    1525    1526+
+           8975    1527    1528    1529
CTETRA       447       1     102      55      11    8432    1530    1531+
+            683    1532    1533    1534
CTETRA       448       1     102     160    8432    5595    1521    1535+
+           1532    1536    1537    5647
CTETRA       449       1     102    4823    5595    8957    1538    1539+
+           1536    1526    1540    5648
CTETRA       450       1     102      55     161      51    1530    1541+
+           1542     685    1543    1544
CTETRA       451       1     102     160    4823    4837    1521    1303+
+           1538    1519    1522    4915
CTETRA       452       1      18    8582    5861    8581     405    5878+
+           1545     404    8589    5875
CTETRA       453       1     102    4842    4823    8957    1528    4916+
+           1538    1526    1529    1540
CTETRA       454       1      58      55      54    8536    1275     388+
+            409    1268    1546    1276
CTETRA       455       1      16      52      18    4213     382    1547+
+            215     392     394     411
CTETRA       456       1    5969      54      58    4215    1278     409+
+           1277    1548    1272    1271
CTETRA       457       1      54      52    4213    4200     395     394+
+            393    1322    1280    4290
CTETRA       458       1    8956     147     102    4842    1549    1550+
+           1525    1527    1551    1528
CTETRA       459       1      14      17    5684    8465     699     708+
+           1552    1553    1554    5728
CTETRA       460       1      57    4841      56     147     548     690+
+            396    1113    1115    1555
CTETRA       461       1      67     147    5589      68    1556    1557+
+           1558     464    1559    1560
CTETRA       462       1      57      84      72      14     546     561+
+            491     400     551     560
CTETRA       463       1      69      71       9      74     480     867+
+            845     498     500     853
CTETRA       464       1      68     147    8954    4843    1559    1561+
+           1562     558    1114    1563
CTETRA       465       1      97    8378     166    8377    1564    1565+
+           1566    1567    8381    1568
CTETRA       466       1      97    7120    8378    6881    1569    1570+
+           1564    1571    1572    6916
CTETRA       467       1      97      42     166     114    1573    1574+
+           1566    1575    1576    1577
CTETRA       468       1    7127    7120    5154      97    7243    1578+
+           1579    1580    1569    1581
CTETRA       469       1      97    8655    6691    7121    1582    6814+
+           1583    1584    1585    1586
CTETRA       470       1      97    7121    6691    8747    1584    1586+
+           1583    1587    7203    1588
CTETRA       471       1    8654      97    6691    6690    1589    1583+
+           6815    6816    1590    6731
CTETRA       472       1     152    7428    9093    7429    1591    7505+
+           1592    1593    7513    7514
CTETRA       473       1      97    6690    8654    6876    1590    6816+
+           1589    1594    1595    6891
CTETRA       474       1     148     124    7786    7785    1596    1597+
+           1598    1599    1600    7790
CTETRA       475       1    8624     148    6259    6258    1601    1602+
+           6383    6384    1603    6299
CTETRA       476       1     148    6258    8624    6147    1603    6384+
+           1601    1604    1605    6162
CTETRA       477       1     148     123      38     124    1606    1607+
+           1408    1596    1608    1609
CTETRA       478       1    7452     148    7785     124    1610    1599+
+           1611    1612    1596    1600
CTETRA       479       1     126      38    4474    4478    1407    1409+
+           1150     872    1613    4523
CTETRA       480       1    6258     126    6148    6147     880     878+
+            881    1605    1614    6163
CTETRA       481       1      18      15    4217    4218    1615     866+
+           1428    1616    1617    4298
CTETRA       482       1      18      52    4199    4213    1547    1283+
+           1618     411     394    4291
CTETRA       483       1      18    5872      15    8918    1619    1620+
+           1615    1621    5930    1622
CTETRA       484       1      18      52    8581    5862    1547    1623+
+            404    1624    1625    5877
CTETRA       485       1      18    8917    8918    4218    1626    8936+
+           1621    1616    1627    1628
CTETRA       486       1      18    8918      15    4218    1621    1622+
+           1615    1616    1628    1617
CTETRA       487       1     127    6822    6714    8848    1496    1494+
+           1497    1629    1630    1631
CTETRA       488       1     140    5592    4835    4836    1632    1633+
+           1634    1635    1636    4898
CTETRA       489       1     140    5597      80    4833    1637     537+
+           1638    1639    1640     523
CTETRA       490       1    5596     140    5597      80    1641    1637+
+           5657     536    1638     537
CTETRA       491       1     140    8437      80    5596    1344    1642+
+           1638    1641    5650     536
CTETRA       492       1     140     138      80      88    1643    1644+
+           1638    1347    1645    1646
CTETRA       493       1     139    8473     138      88     970     969+
+            966    1346    1647    1645
CTETRA       494       1    8438     137    8127     140     973     980+
+           5637     976     975     981
CTETRA       495       1     141     140     138    4836     984    1643+
+           1444    1447    1635    1448
CTETRA       496       1     138      88      77      80    1645    1648+
+           1649    1644    1646     516
CTETRA       497       1     140      80     138    4833    1638    1644+
+           1643    1639     523    1650
CTETRA       498       1    6707     127    6714    8848    1651    1497+
+           6777    1652    1629    1631
CTETRA       499       1     141    8473    8130    5689    1653    5758+
+           1654    1655    5759    5753
CTETRA       500       1      90    4206     149    4209    1293    1656+
+           1173    1657    4259    1658
CTETRA       501       1     149    4205    5961    5963    1659    1660+
+           1661    1662    1663    5998
CTETRA       502       1     149      86    4209     107    1664    1665+
+           1658    1666    1667    1668
CTETRA       503       1     149    4208     107    4209    1669    1670+
+           1666    1658    4260    1668
CTETRA       504       1      89     149     107      86    1671    1666+
+           1672     583    1664    1667
CTETRA       505       1    8106     167    8112     101    1673    1674+
+            646    1675    1676    1677
CTETRA       506       1    5181    5184    5174     136    5367    5365+
+           5355    1678    1679    1680
CTETRA       507       1    5179    4806    5180     167    1681    1682+
+           5350    1683    1684    1685
CTETRA       508       1    8615     127    6714    6707    1495    1497+
+           6802    6804    1651    6777
CTETRA       509       1     167    8104    8112     136    1686    1687+
+           1674    1688    1689    1690
CTETRA       510       1     167     136    4807    8104    1688    1691+
+           1692    1686    1689    4815
CTETRA       511       1     167     101    5180    5163    1676    1693+
+           1685    1694    1695    5346
CTETRA       512       1     167     101    8106    4806    1676    1675+
+           1673    1684    1696    4813
CTETRA       513       1     168    3784    4344    3787    1697    1698+
+           1699    1700    3965    1701
CTETRA       514       1     168    3786     165    3789    1702    1703+
+           1704    1705    3972    1706
CTETRA       515       1     168    7984     165    7991    1707    1511+
+           1704    1708    1510    1500
CTETRA       516       1    7991     105     165    4344     712    1498+
+           1500    4352    1709    1710
CTETRA       517       1     168    4344    3784    3766    1699    1698+
+           1697    1711    1712    3954
CTETRA       518       1     168    3766      93    4343    1711    1713+
+           1714    1715    1716    1717
CTETRA       519       1     168      93    3785    3768    1714    1718+
+           1719    1720    1721    3951
CTETRA       520       1     168      93    7993    4343    1714    1722+
+           1723    1715    1717    4350
CTETRA       521       1       9      15      14      72     210     209+
+            206     559     852     560
CTETRA       522       1       9    4223    4219    4216     861    4315+
+            860     864    4314    4308
CTETRA       523       1    5861      18    8917    8918    1545    1626+
+           5881    5928    1621    8936
CTETRA       524       1      15    4218    8918    7921    1617    1628+
+           1622    1724    4295    7618
CTETRA       525       1      15      17      14    8583    1725     699+
+            209    1726    1727    1728
CTETRA       526       1      15    8583      14    5873    1726    1728+
+            209    1729    5940    1730
CTETRA       527       1    8919    8920    5873      15    8939    5936+
+           5937    1731    1732    1729
CTETRA       528       1     136    8305    5181    5182    1733    5354+
+           1678    1734    5358    5359
CTETRA       529       1     136    8112    4790    8111    1690    4793+
+           1735     963    8115    4798
CTETRA       530       1      36      29      38     169    1736    1737+
+            308    1738    1739    1740
CTETRA       531       1    8865     133    7723    6701     999    1741+
+           7731    1742    1743    1744
CTETRA       532       1      38     169      29     124    1740    1739+
+           1737    1609    1745    1746
CTETRA       533       1      38     124     123      39    1609    1608+
+           1607    1747    1748    1749
CTETRA       534       1    8106    9084    8113      96    1750    8117+
+           1751     647    1752    1753
CTETRA       535       1      36      38      29    7138     308    1737+
+           1736     320     319    1754
CTETRA       536       1      38      39    4474    4487    1747    1755+
+           1409    1756    1464    4565
CTETRA       537       1      39    4487      38      36    1464    1756+
+           1747     314    1757     308
CTETRA       538       1      38    4473    4474    4478     312    4524+
+           1409    1613    4516    4523
CTETRA       539       1      81     170    7130    7131    1758    1759+
+           1760    1761    1762    7294
CTETRA       540       1      81     171    4226    7130    1763    1764+
+           1765    1760    1766    1767
CTETRA       541       1      81    7894    4226    7965    1768    4331+
+           1765     529    4337    4338
CTETRA       542       1      81    4227      82    7965    1769    1770+
+            532     529    4335     531
CTETRA       543       1    4226       8     171    4227     788    1771+
+           1764    4339    1772    1773
CTETRA       544       1    7965    7142      31      81    1774    1775+
+            294     529    1776     530
CTETRA       545       1      96    9084    8113    8071    1752    8117+
+           1753    1777    8072    5538
CTETRA       546       1      16      54      53      52     387     390+
+            386     382     395     385
CTETRA       547       1    5528      96    8113    8071    1778    1753+
+           5539    5536    1777    5538
CTETRA       548       1    8239    6399    6398    8334    6670    6490+
+           6671    6089    1779    1780
CTETRA       549       1      11    8432    8431     102    1534    8445+
+           1781     683    1532    1782
CTETRA       550       1     135    8749     114    4495    1783    1784+
+           1785    1116    1786    1787
CTETRA       551       1    8536    8432    8431      11    5472    8445+
+           5471    1267    1534    1781
CTETRA       552       1      55      53     151     161     391    1788+
+           1789    1541    1790    1791
CTETRA       553       1      54      53     151      55     390    1788+
+           1314     388     391    1789
CTETRA       554       1      55    8433    8535    8432    1792    5478+
+           1793    1533    8447    5477
CTETRA       555       1      30      36     169    3747     305    1738+
+           1794     271    1015    1795
CTETRA       556       1      30    3739    3738    7848    1796    3809+
+           1797    1798    1799    1800
CTETRA       557       1      37     169      30      36    1801    1794+
+           1802     300    1738     305
CTETRA       558       1      30    7795    9023    7139    1803    7337+
+           1804     276    7353    7347
CTETRA       559       1    7139      30    7848    9023     276    1798+
+           1805    7347    1804    4164
CTETRA       560       1      30    3739    7795    3742    1796    3817+
+           1803    1806    3810    3816
CTETRA       561       1      30    7796    3740    7795     277    3815+
+            268    1803    7797    3814
CTETRA       562       1     103     156    4837    4839    1223    1524+
+           1518    1230    1229    4912
CTETRA       563       1      16      55      51      53     389    1543+
+            383     386     391     384
CTETRA       564       1     156      51     161      53    1515    1544+
+           1807    1808     384    1790
CTETRA       565       1     156      53    8468    8467    1808    1809+
+           1324    1222    1810    8482
CTETRA       566       1      71    4220    8997    7897     482     484+
+            481    1811    4309    7275
CTETRA       567       1    4221      12    7898    8996     849    1812+
+           4305    1427    1426    7276
CTETRA       568       1    8113      96    8112    8106    1753     643+
+           8114    1751     647     646
CTETRA       569       1      71    4220    7897    4221     482    4309+
+           1811     869    4311    4306
CTETRA       570       1       9      72      69      74     559     490+
+            845     853     851     498
CTETRA       571       1    8510      74      22    8509    1813    1814+
+           1815    8526    1816    1817
CTETRA       572       1      18      15    5872    8582    1615    1620+
+           1619     405    1818    5931
CTETRA       573       1       9      12      71      67     202     868+
+            867     554    1819     486
CTETRA       574       1      69       1    8998    4220    1164    1820+
+            470     483    1821    1822
CTETRA       575       1    8582      51      18      17     402     406+
+            405    1823     711     216
CTETRA       576       1      55      51      53     161    1543     384+
+            391    1541    1544    1790
CTETRA       577       1      18    8917    4218    4199    1626    1627+
+           1616    1618    1824    4292
CTETRA       578       1     161     103     160     102    1825    1520+
+           1298    1542    1516    1521
CTETRA       579       1      16      51      11      17     383     684+
+           1826     212     711     846
CTETRA       580       1      93    7864    3763    3775     609     606+
+            610    1827    1828    3904
CTETRA       581       1     168    7993     125    7992    1723     858+
+           1829    1830    7994    1831
CTETRA       582       1      93    3795    4343    3766    1832    1833+
+           1717    1713    3979    1716
CTETRA       583       1      93    7867    3795    3796    1834    1835+
+           1832    1836    1837    3980
CTETRA       584       1    5535     100    5528    5534    1092     675+
+           5584    5582    1094    5581
CTETRA       585       1      93    7867    3796    3790    1834    1837+
+           1836    1838     629    3986
CTETRA       586       1      92      93    7867    9066     608    1834+
+            626    1839    1840    7869
CTETRA       587       1    4844      72      68    4843    1112     492+
+            812    4937     557     558
CTETRA       588       1      68       1    8489    8488     821    1841+
+           1842    1843    1844    8504
CTETRA       589       1      68    4847    8954    8953    1845    1846+
+           1562    1847    1848    8969
CTETRA       590       1    5589      68    9117      67    1560     465+
+           5614    1558     464     466
CTETRA       591       1      68     147    5589    8954    1559    1557+
+           1560    1562    1561    5610
CTETRA       592       1    4843     147    8954    4840    1114    1561+
+           1563    4932    1849    1850
CTETRA       593       1      69      68       1      72     468     821+
+           1164     490     492    1163
CTETRA       594       1     172     118    7444    8925    1851    1852+
+           1853    1854    1855    7641
CTETRA       595       1     172     154    7444     118    1856    1857+
+           1853    1851    1858    1852
CTETRA       596       1       8     172      20      19    1859    1860+
+            762    1861    1862     235
CTETRA       597       1     157    8514      20     172    1863     588+
+           1864    1865    1866    1860
CTETRA       598       1     153     118     154     172    1867    1858+
+           1212    1868    1851    1856
CTETRA       599       1     118     153     155    8516    1867    1869+
+           1870    1871    1872    1873
CTETRA       600       1     172     118    8925    8516    1851    1855+
+           1854    1874    1871    5955
CTETRA       601       1       8     172     154     157    1859    1856+
+           1211    1875    1865    1876
CTETRA       602       1     119    7115    4848    8163    1062    1877+
+           1878    1065    7176    4950
CTETRA       603       1     119     142    8950    8492    1060    1064+
+           1063    1070    1072    5620
CTETRA       604       1       4       8     116     115     196     807+
+            765     785     790     786
CTETRA       605       1     119     143       8    4848    1067    1066+
+            806    1878    1879     223
CTETRA       606       1       8     171     142     115    1771    1880+
+           1068     790    1881    1418
CTETRA       607       1      21    5681      20    8511     527     233+
+            528    1882    5713    1883
CTETRA       608       1      22    8877    8878    4849    1884    8896+
+           1885     242     227    1886
CTETRA       609       1      21    8877       7    5681     238     226+
+            237     527    5710     231
CTETRA       610       1       2       5       4       7     187     185+
+            186     763     791     195
CTETRA       611       1       7       5       4       6     791     185+
+            195     191     781     194
CTETRA       612       1       2     157       8    4224    1240    1875+
+            197     188    1887     198
CTETRA       613       1       2      21      20     157     772     528+
+            764    1240    1239    1864
CTETRA       614       1      98      41      99    5131     654     658+
+            657     666     667    1888
CTETRA       615       1      41      24      25      26     329     251+
+            326    1889     253     252
CTETRA       616       1      25      41      26      43     326    1889+
+            252     341     344    1890
CTETRA       617       1      41      26      43      99    1889    1890+
+            344     658    1891    1127
CTETRA       618       1     139      88    8437      89    1346    1345+
+           1343    1358     578    1892
CTETRA       619       1     162    5437    8436      80    1893    5463+
+           1894    1895    1896    1255
CTETRA       620       1     137     141    8473    9090     982    1653+
+            968     961     989    8475
CTETRA       621       1     139    8473      88    5531     970    1647+
+           1346    1360    5552    1362
CTETRA       622       1      88    5532      89    5531     579     581+
+            578    1362    5555    1361
CTETRA       623       1      88      87    5532    8471    1897    1898+
+            579    1899    1900    5558
CTETRA       624       1      77    8471      76      88    1901    1902+
+            502    1648    1899    1903
CTETRA       625       1      85      88     162      87     575    1904+
+           1905     568    1897    1906
CTETRA       626       1      76      77      88      80     502    1648+
+           1903     517     516    1646
CTETRA       627       1     130    6269    7134    6262    1907    1908+
+           1909     900    6308    1910
CTETRA       628       1     129    6262    7137    6255     901    1911+
+           1912    1913    6283    1914
CTETRA       629       1    6269    6930    8605     130    1915    1916+
+           6351    1907    1917    1918
CTETRA       630       1    5535     100    8112    5528    1092     673+
+           5585    5584     675    5540
CTETRA       631       1     130    8681    6946    6947    1226    6951+
+           1228    1919    6950    6952
CTETRA       632       1     130    9044    6947    8604    1920    6953+
+           1919     903    1921     475
CTETRA       633       1     129     130    9044    6931     899    1920+
+           1922    1923    1924    6937
CTETRA       634       1     130    8605    6946    8682    1918    1925+
+           1228    1227    1926    6957
CTETRA       635       1     130    8682    6930    8605    1227    6941+
+           1917    1918    1926    1916
CTETRA       636       1       8     143      82    4851    1066    1927+
+           1928    1929    1930    1931
CTETRA       637       1       8     154     172     153    1211    1856+
+           1859    1208    1212    1868
CTETRA       638       1       8     115    4226     171     790     789+
+            788    1771    1881    1764
CTETRA       639       1     172    7444     154    7443    1853    1857+
+           1856    1932    7639    1933
CTETRA       640       1       4    4224       8    4226     189     198+
+            196     787    4334     788
CTETRA       641       1     154    4224    7917    4227    1934    4327+
+           1935    1936    4342    4341
CTETRA       642       1     172     154     157    7443    1856    1876+
+           1865    1932    1933    1937
CTETRA       643       1     173     170    9124    8497    1938    1939+
+           1940    1941    1942    8500
CTETRA       644       1     142     170     171     143    1943    1944+
+           1880    1069    1945    1946
CTETRA       645       1     142    8949     173    7115    1947    1948+
+           1949    1061    7182    1950
CTETRA       646       1     173    7116     143    7115    1951    1952+
+           1953    1950    7184    1412
CTETRA       647       1     143     170     171      82    1945    1944+
+           1946    1927    1954    1955
CTETRA       648       1     173     170    8497    8496    1938    1942+
+           1941    1956    1957    8499
CTETRA       649       1     173     170    8496    8495    1938    1957+
+           1956    1958    1959    8498
CTETRA       650       1     142     171    8494    8493    1880    1960+
+           1961    1962    1963    8501
CTETRA       651       1     142    7115    8950    8949    1061    7178+
+           1064    1947    7182    8966
CTETRA       652       1     143    8134    9094    7114    1964    8137+
+           1965    1966    1967    7187
CTETRA       653       1    4987      98      41    4979    1968     654+
+            369    1969     653     655
CTETRA       654       1     173     143    7114      82    1953    1966+
+           1970    1971    1927    1972
CTETRA       655       1     143    8134    8162    9094    1964    4964+
+           1973    1965    8137    8184
CTETRA       656       1     143    4848    8162    4851    1879    4951+
+           1973    1930    4966    4965
CTETRA       657       1    8578     151    8579      83    1285    1180+
+           8591    1974    1975    1976
CTETRA       658       1     144     150     145    4203    1187    1189+
+           1076    1085    1191    1289
CTETRA       659       1      75      76    8435    8436     501     544+
+           1977    1256    1254    8444
CTETRA       660       1      64      79    8434     151     542    1978+
+            437    1284    1979    1980
CTETRA       661       1      64    8534     151    8434    1981    1982+
+           1284     437    5476    1980
CTETRA       662       1     144      64     146      90    1186    1185+
+           1084    1170    1182    1183
CTETRA       663       1    8533     162    8435      64    1983    1306+
+           5474     439    1305     438
CTETRA       664       1     100    8105    5528    5439     674     676+
+            675     705    5483    1984
CTETRA       665       1      76      87      64     162    1985     571+
+            540    1304    1906    1305
CTETRA       666       1     163      78    8469      83    1330    1986+
+           1987    1326    1332    1988
CTETRA       667       1     161     159     151    8433    1297    1989+
+           1791    1299    1296    1990
CTETRA       668       1      79      83     151      64     539    1975+
+           1979     542     541    1284
CTETRA       669       1     159     151    8433    8434    1989    1990+
+           1296    1991    1980    8448
CTETRA       670       1      78    4827    4825    4826    1265    4858+
+           1337    1992    4861    4855
CTETRA       671       1      78      83    8470    8469    1332    1993+
+           1994    1986    1988    8481
CTETRA       672       1     166     174    8377    5147    1995    1996+
+           1568    1997    1998    5250
CTETRA       673       1    4499      97     114      42     652    1575+
+           1999    2000    1573    1576
CTETRA       674       1    5528     100    8070    5534     675    2001+
+           5537    5581    1094    5580
CTETRA       675       1     112     166      42     114    2002    1574+
+           2003     746    1577    1576
CTETRA       676       1      95      97    4499      42     648     652+
+            651    2004    1573    2000
CTETRA       677       1      20    8511    8923      21    1883    5942+
+           2005     528    1882    2006
CTETRA       678       1     157    4222    8922    7918    2007     776+
+           1241    2008    4319    7631
CTETRA       679       1     157    7443    4224    7918    1937    2009+
+           1887    2008    7627    4326
CTETRA       680       1    8511    8923    8512      20    5942    5948+
+           8528    1883    2005    2010
CTETRA       681       1      20    8923    8512    5874    2005    5948+
+           2010    2011    5949    5944
CTETRA       682       1     117     153     152     155    1209    2012+
+           1215    1213    1869    1214
CTETRA       683       1    8999       3    5971     115     758    1417+
+           6048     759     761    1420
CTETRA       684       1    8999     115    7129    4225     759    2013+
+           7283     757     760    2014
CTETRA       685       1     115     171    9001    7129    1881    2015+
+           2016    2013    2017    7282
CTETRA       686       1     117       8     154      82    1207    1211+
+           1210    2018    1928    2019
CTETRA       687       1     142     171    8495    8494    1880    2020+
+           2021    1961    1960    8502
CTETRA       688       1    4225       3     115       4     182     761+
+            760     190     183     785
CTETRA       689       1     115     171    7129    4226    1881    2017+
+           2013     789    1764    2022
CTETRA       690       1      81     170    7131    7118    1758    1762+
+           1761    2023    2024    7297
CTETRA       691       1      32    4712      34    8134    1020    1029+
+            283    1011    4726    1027
CTETRA       692       1     143      82    4851    8134    1927    1931+
+           1930    1964    1010    4960
CTETRA       693       1      34    7431     152    7429    2025    2026+
+           1204    1383    7509    1593
CTETRA       694       1     117     152     153       8    1215    2012+
+           1209    1207    2027    1208
CTETRA       695       1       8      82     143     171    1928    1927+
+           1066    1771    1955    1946
CTETRA       696       1     119     116    8491    8490     805    1411+
+           1410    1414    1413    8508
CTETRA       697       1     117     153     155     118    1209    1869+
+           1213     796    1867    1870
CTETRA       698       1      81     170      82     171    1758    1954+
+            532    1763    1944    1955
CTETRA       699       1      82    4851    8133     152    1931    4959+
+           1100    1205    2028    1206
CTETRA       700       1     171    4227      81    4226    1773    1769+
+           1763    1764    4339    1765
CTETRA       701       1       8     142     171     143    1068    1880+
+           1771    1066    1069    1946
CTETRA       702       1      19    8875     153    8514    2029    2030+
+           2031     590    5694    2032
CTETRA       703       1      74       5      22       1     770     782+
+           1814     775     774     784
CTETRA       704       1      97    4502    4498    8747     649    4616+
+           2033    1587    2034    2035
CTETRA       705       1    8513    8924    8514     157    5945    5947+
+           8520    2036    2037    1863
CTETRA       706       1    6707    8614     127     128    6803     891+
+           1651    2038     895     894
CTETRA       707       1       7      19    4849    4850     229     228+
+            224    2039    2040    4957
CTETRA       708       1       7       8      20      19     192     762+
+            232     229    1861     235
CTETRA       709       1      19      20    8512    8513     235    2010+
+           2041     589     587    8527
CTETRA       710       1     152     153       8    4850    2012    1208+
+           2027    2042    2043    2044
CTETRA       711       1      19      20    5681    8512     235     233+
+            234    2041    2010    5712
CTETRA       712       1    7706     128    8848     127    2045    2046+
+           2047    2048     894    1629
CTETRA       713       1    5022    5005    5006    6414    5083    5047+
+           5081    2049    2050    2051
CTETRA       714       1      85    5437      89    8531     573     577+
+            576    2052    5461    2053
CTETRA       715       1    8580     151    8579     150    2054    1180+
+           8593    2055    1179    1176
CTETRA       716       1     144    8534      64    8533    2056    1981+
+           1186    2057    8546     439
CTETRA       717       1      76      78      79      83     505     514+
+            513     538    1332     539
CTETRA       718       1      88    8472      77    8471    2058    2059+
+           1648    1899    8477    1901
CTETRA       719       1      85     144    8533    8532    1171    2057+
+           2060    2061    2062    8545
CTETRA       720       1      85    8532     162    5437    2061    2063+
+           1905     573    5464    1893
CTETRA       721       1    5535    7985     100     125    1439    2064+
+           1092    1090    2065    1091
CTETRA       722       1     146     150    4204    5867    1175    1202+
+           1201    2066    2067    2068
CTETRA       723       1      85    8576      89    5532     565     582+
+            576     580    5556     581
CTETRA       724       1    4477    8782    4475     148    2069    2070+
+           4519    1149    2071    2072
CTETRA       725       1      38     124      39     169    1609    1748+
+           1747    1740    1745    2073
CTETRA       726       1     126    7132    7138    8754     884    7344+
+           2074     886    7335    7343
CTETRA       727       1      46     175    4378    4383    2075    2076+
+           1389    2077    2078    4416
CTETRA       728       1      45      47      35      65     356     378+
+            377     448     601     449
CTETRA       729       1      50    7427      66    7434     379    2079+
+            454    2080    7531    2081
CTETRA       730       1      49      91      46      65     598     597+
+            362     450    1377    2082
CTETRA       731       1      46      62     175      91     430    2083+
+           2075     597     599    2084
CTETRA       732       1      73     175      46    4383    2085    2075+
+           2086    1370    2078    2077
CTETRA       733       1      45      46    4381      65     350    2087+
+           2088     448    2082    2089
CTETRA       734       1      45    4380      65    4381    2090    2091+
+            448    2088    4414    2089
CTETRA       735       1     166     112    5149    5151    2002    2092+
+           2093    2094    2095    5261
CTETRA       736       1     166     174      26      42    1995    2096+
+           2097    1574    2098    2099
CTETRA       737       1      26    5147    5144     174    2100    5245+
+           2101    2096    1998    2102
CTETRA       738       1    5145      26    5147    5144    2103    2100+
+           5246    5244    2101    5245
CTETRA       739       1      97     166     174    8377    1566    1995+
+           2104    1567    1568    1996
CTETRA       740       1     174      97    8377      95    2104    1567+
+           1996    2105     648    2106
CTETRA       741       1      97     166      42     174    1566    1574+
+           1573    2104    1995    2098
CTETRA       742       1    7985     100     125    5433    2064    1091+
+           2065    5445     820    2107
CTETRA       743       1    7986     125    5433    7985     856    2107+
+           5444    7987    2065    5445
CTETRA       744       1    7441     174      23    8376    2108    2109+
+           2110    2111    2112    2113
CTETRA       745       1      25     174      42      26    2114    2098+
+            331     252    2096    2099
CTETRA       746       1     148    4474    8781    4475    1151    2115+
+           2116    2072    4521    2117
CTETRA       747       1    8781     123    4474     148    2118    2119+
+           2115    2116    1606    1151
CTETRA       748       1     148    8781     123    7452    2116    2118+
+           1606    1610    7686    2120
CTETRA       749       1    5433     125    8062    5534    2107    2121+
+           5441    2122    1093    2123
CTETRA       750       1    3747     169    3749      36    1795    2124+
+           3846    1015    1738    1016
CTETRA       751       1     148    7785    7786    6153    1599    7790+
+           1598    2125    6192    6191
CTETRA       752       1      29     169    3754     124    1739    2126+
+           2127    1746    1745    2128
CTETRA       753       1     156      83     159     163    1328    1331+
+           2129    1325    1326    1310
CTETRA       754       1    5590    8956     147     102    5627    1549+
+           2130    2131    1525    1550
CTETRA       755       1     161     102     160    8432    1542    1521+
+           1298    2132    1532    1535
CTETRA       756       1     160     161    8432    8433    1298    2132+
+           1535    1295    1299    8447
CTETRA       757       1     159    4823    4824    4828    1302    4866+
+           1301    1258    4862    4864
CTETRA       758       1     102    4837    4842    4841    1519    4917+
+           1528    1517    4920    4922
CTETRA       759       1    4501    8747    6690    6698    2133    2134+
+           2135    2136    2137    6729
CTETRA       760       1     159    8433     160    5598    1296    1295+
+           1294    1307    5662    1308
CTETRA       761       1     102    4837    4823    4842    1519    4915+
+           1538    1528    4917    4916
CTETRA       762       1      62      59    4713    4710    2138     436+
+            435    1379    2139    4747
CTETRA       763       1     144     146     151     150    1084    1178+
+           1188    1187    1175    1179
CTETRA       764       1    8433     161      55     151    1299    1541+
+           1792    1990    1791    1789
CTETRA       765       1    6698     176    6706    6705    2140    2141+
+           6754    6752    2142    6753
CTETRA       766       1     150     145    4200      54    1189    1290+
+           1281    2143    1313    1322
CTETRA       767       1     145     151    8534    8535    1190    1982+
+           2144    1315    1317    8548
CTETRA       768       1     146      90    8578    5870    1183    1181+
+           1184    2145    2146    5917
CTETRA       769       1      64      83    8578    8470     541    1974+
+            570    2147    1993    5569
CTETRA       770       1     144      64    8534     151    1186    1981+
+           2056    1188    1284    1982
CTETRA       771       1      56      51      17      11     687     711+
+            697     398     684     846
CTETRA       772       1     145    4215    4201    4200    1320    4280+
+           1075    1290    4281    4236
CTETRA       773       1     145      54    8535    5958    1313    1316+
+           1315    1319    1318    5977
CTETRA       774       1      90    5869    4207    4210    2148    2149+
+           1291    2150    2151    4261
CTETRA       775       1     150    8580      52    5863    2055    2152+
+           1279    1286    5884    1287
CTETRA       776       1     103    5684      17    8466     706     708+
+            707    1233    5727    1235
CTETRA       777       1     163    5686     156    8468    1339    1338+
+           1325    1323    5738    1324
CTETRA       778       1      57       9      11      14     553     201+
+            397     400     206     401
CTETRA       779       1     156    8468      53      83    1324    1809+
+           1808    1328    1327    2153
CTETRA       780       1      53    8581      51      52    2154     403+
+            384     385    1623     381
CTETRA       781       1     148      29    7786     124    2155    2156+
+           1598    1596    1746    1597
CTETRA       782       1     126    6147     148    7787    1614    1604+
+           1148    2157    6164    2158
CTETRA       783       1    3759     120    7807    7452    2159    2160+
+           3881    2161    2162    7688
CTETRA       784       1    3734    3758    3755     121    3874    3877+
+           3859     827     842     843
CTETRA       785       1     123      39    4488    4474    1749    1466+
+           2163    2119    1755    4567
CTETRA       786       1    7445    7452     148    7785    7685    1610+
+           2164    2165    1611    1599
CTETRA       787       1     122      94     120    3734    1396     822+
+            828     836     824     823
CTETRA       788       1     122     123    7853    7453     832    1406+
+           1405     829     833    2166
CTETRA       789       1     123      94    7853    7852    1398    1392+
+           1406    2167    1456    7856
CTETRA       790       1     132    8780     123    4488    2168    2169+
+           2170    1465    2171    2163
CTETRA       791       1     132    7852     123    8780    2172    2167+
+           2170    2168    1451    2169
CTETRA       792       1      25      43      26      42     341    1890+
+            252     331    2173    2099
CTETRA       793       1    6699     176    6706    6698    2174    2141+
+           6755    6732    2140    6754
CTETRA       794       1      97    8655    7121    6881    1582    1585+
+           1584    1571    6924    2175
CTETRA       795       1      95    4503    4506    8774     630    4631+
+            640     632     631    2176
CTETRA       796       1    5142    5136    5143      26    5228    5233+
+           5234    2177    2178    2179
CTETRA       797       1      23      26      24    5142     255     253+
+            243     246    2177     247
CTETRA       798       1      37    3736     169      94     621    2180+
+           1801    2181     624    2182
CTETRA       799       1    7848      92    3738      37    2183     603+
+           1800     304     620    2184
CTETRA       800       1      30      37    7848    3738    1802     304+
+           1798    1797    2184    1800
CTETRA       801       1      37      39      94     169     317    1460+
+           2181    1801    2073    2182
CTETRA       802       1    3747      30    3741     169     271    2185+
+           3833    1795    1794    2186
CTETRA       803       1      41      44    4979      99     345    1134+
+            655     658    1129     656
CTETRA       804       1     135    4496    4492    4495    1119    4594+
+           2187    1116    4596    4592
CTETRA       805       1    5138    8376    5141      23    5223    5220+
+           5222     249    2113    2188
CTETRA       806       1      43    4499     114      42    2189    1999+
+           2190    2173    2000    1576
CTETRA       807       1      43      42    4496    4499    2173    2191+
+           1120    2189    2000    4606
CTETRA       808       1      26      43      99     112    1890    1127+
+           1891    2192    2193     751
CTETRA       809       1     135     114    8311      99    1785    2194+
+           2195    1128     752    2196
CTETRA       810       1     146     151    8579    8578    1178    1180+
+           1177    1184    1285    8591
CTETRA       811       1    8220    5175    4790    8130    2197    2198+
+           4796    4799    2199    4800
CTETRA       812       1     150    4199    4204    5863    1282    4238+
+           1202    1286    1288    2200
CTETRA       813       1     150    4199    4200    4204    1282    4242+
+           1281    1202    4238    4240
CTETRA       814       1     144     145     151    8534    1076    1190+
+           1188    2056    2144    1982
CTETRA       815       1     144    4203    4201    4202    1085    4234+
+           1074    1081    4237    4231
CTETRA       816       1      18    4213    4199    4218     411    4291+
+           1618    1616    4293    4292
CTETRA       817       1      53    8581      52    8580    2154    1623+
+            385    2201    8592    2152
CTETRA       818       1      23      25    7442      24     254    2202+
+           2203     243     251    2204
CTETRA       819       1    7126     176    6706    6699    2205    2141+
+           2206    2207    2174    6755
CTETRA       820       1      98      99    4979    8298     657     656+
+            653    2208     659    4986
CTETRA       821       1      23    8369    5135      24    2209    5210+
+            245     243    2210     244
CTETRA       822       1    5136    5133      41      24    5206     367+
+           2211    2212    2213     329
CTETRA       823       1      41    5131      26      99     667    2214+
+           1889     658    1888    1891
CTETRA       824       1    5133    4987    8317    8301     368    4990+
+            370    2215    4994    4989
CTETRA       825       1      41    4979      44    4987     655    1134+
+            345     369    1969    2216
CTETRA       826       1      25    7442    8317    8316    2202    2217+
+            328     338    2218    8320
CTETRA       827       1    7125     176    6706    7126    2219    2141+
+           2220    7228    2205    2206
CTETRA       828       1    6062    6393    8550     104    2221     494+
+           6091    2222    2223    2224
CTETRA       829       1      48    6407    6424    6408    2225    6520+
+           1059    1039    6459    6521
CTETRA       830       1    8563    8564    8088      45    8573    5521+
+           5520     359    2226    2227
CTETRA       831       1      45      49      35      50     363     421+
+            377     364     366     376
CTETRA       832       1      46      65      73    4381    2082    1043+
+           2086    2087    2089    1369
CTETRA       833       1      73     104     175    8079    2228    2229+
+           2085    1378    2230    2231
CTETRA       834       1      45      47      65      48     356     601+
+            448     358     357    1036
CTETRA       835       1    5190     101    5160    4806    2232    2233+
+           5373    2234    1696    2235
CTETRA       836       1     101    5191    8298    5190    2236     678+
+           2237    2232    5375    2238
CTETRA       837       1     101    9084    8106    9083    2239    1750+
+           1675    2240    2241    8110
CTETRA       838       1     101    8113    8106    9084    2242    1751+
+           1675    2239    8117    1750
CTETRA       839       1    5185    8298      98     101     679    2208+
+           2243    2244    2237     680
CTETRA       840       1     101      98    5185    5158     680    2243+
+           2244     682     672    5382
CTETRA       841       1     101    8106    8298    9083    1675    4820+
+           2237    2240    8110    8299
CTETRA       842       1      45      48      65    4388     358    1036+
+            448    2245    1055    1054
CTETRA       843       1    7141    4710      59     175    2246    2139+
+           2247    2248    2249    2250
CTETRA       844       1     144    4203    4202    4206    1085    4237+
+           1081    1080    4248    4247
CTETRA       845       1    6706     176    6713    6705    2141    2251+
+           6774    6753    2142    6773
CTETRA       846       1      86     109    8576    5864    2252    2253+
+            566    2254    2255    5888
CTETRA       847       1     110      90    5871      86    2256    2257+
+           2258    2259     586    2260
CTETRA       848       1    5865     105    4212     110     719     717+
+            720     735     733    2261
CTETRA       849       1     144      90    4206     149    1170    1293+
+           1080    1174    1173    1656
CTETRA       850       1     144    5960     149    4205    2262    2263+
+           1174    1082    2264    1659
CTETRA       851       1     149    4209    4206    4205    1658    4259+
+           1656    1659    4258    4249
CTETRA       852       1     149    4205    5963    4208    1659    1663+
+           1662    1669    4257    2265
CTETRA       853       1      61     104    6394    6066     693     696+
+            695    2266    2267    2268
CTETRA       854       1      49      60      63    4718     414    1485+
+            431     415     417    1486
CTETRA       855       1      59    9085    4716    8076    2269    4752+
+           2270    2271    8081    2272
CTETRA       856       1      59      60    4717      61     413    1165+
+           2273     420     419    1166
CTETRA       857       1    8449    8554    9085    4717    5500    5501+
+           8450    4755    2274    4753
CTETRA       858       1    6394    6410    6393     104    6469    6468+
+           6470     696     694    2223
CTETRA       859       1    4717    9085    4716      59    4753    4752+
+           4754    2273    2269    2270
CTETRA       860       1    4718      59      60    4717     416     413+
+            417    4759    2273    1165
CTETRA       861       1     117     118     155    9126     796    1870+
+           1213     798     797    2275
CTETRA       862       1      81      82    7148    7149     532    2276+
+           2277    2278    1388    7382
CTETRA       863       1     172    8515     153    8516    2279    2280+
+           1868    1874    8521    1872
CTETRA       864       1     118    7444    8925    8926    1852    7641+
+           1855    2281    7640    8944
CTETRA       865       1    8923      21     157      20    2006    1239+
+           2282    2005     528    1864
CTETRA       866       1     117     152      34    7431    1215    1204+
+           2283    2284    2026    2025
CTETRA       867       1     117    7422    8945    9127    2285    7489+
+           2286    2287    7488    8947
CTETRA       868       1    7964    7419    7917     154    2288    7637+
+           4340    2289    2290    1935
CTETRA       869       1    8604      70    6261    8603     473     476+
+           6376    8608    2291    6375
CTETRA       870       1     155    7420    7425     153    2292    7483+
+           2293    1869    2294    2295
CTETRA       871       1     117     154    7964      82    1210    2289+
+           2296    2018    2019    1101
CTETRA       872       1       8     153     172      19    1208    1868+
+           1859    1861    2031    1862
CTETRA       873       1      19     153    7423    4850    2031    2297+
+           2298    2040    2043    2299
CTETRA       874       1     173      82    7114    8983    1971    1972+
+           1970    2300    2301    7189
CTETRA       875       1    8877       7    5681      19     226     231+
+           5710     230     229     234
CTETRA       876       1     120    7453     122    3733     830     829+
+            828     834    1404     835
CTETRA       877       1     120    7807    7452    7453    2160    7688+
+           2162     830    7689    7690
CTETRA       878       1     121     169    3754    3751    2302    2126+
+           2303    2304    2305    3864
CTETRA       879       1     121      94    3751    3735     825    2306+
+           2304    2307    1395    3841
CTETRA       880       1     121      94    3735    3734     825    1395+
+           2307     827     824    3860
CTETRA       881       1     124     121     169    3754    2308    2302+
+           1745    2128    2303    2126
CTETRA       882       1      36    7848      30      37     303    1798+
+            305     300     304    1802
CTETRA       883       1     126      29     148      38    2309    2155+
+           1148    1407    1737    1408
CTETRA       884       1      40     132      39    4487     913    1463+
+            315    1462    1461    1464
CTETRA       885       1     132    4488     123      39    1465    2163+
+           2170    1463    1466    1749
CTETRA       886       1      39    7852      94     123    1459    1456+
+           1460    1749    2167    1398
CTETRA       887       1     123     121      94      39    1399     825+
+           1398    1749    2310    1460
CTETRA       888       1      36    4487      38    4473    1757    1756+
+            308     311    4564     312
CTETRA       889       1      40    4179     132    7945     616    2311+
+            913     914    4182     915
CTETRA       890       1     123    4488    8780    8781    2163    2171+
+           2169    2118    2312    8798
CTETRA       891       1     132    4488    4487    4491    1465    4568+
+           1461    2313    4573    4578
CTETRA       892       1    4502    6697    4506    4505    2314     642+
+           4633    4628    2315    4634
CTETRA       893       1    4477    6265     148     126    2316    2317+
+           1149     870    2318    1148
CTETRA       894       1     123     132      39    7852    2170    1463+
+           1749    2167    2172    1459
CTETRA       895       1     166      26    5149     112    2097    2319+
+           2093    2002    2192    2092
CTETRA       896       1    5131    5132      41      26    5232     665+
+            667    2214    2320    1889
CTETRA       897       1    5131      99     112      26    1888     751+
+           2321    2214    1891    2192
CTETRA       898       1      97    5154     166    8378    1581    2322+
+           1566    1564    5275    1565
CTETRA       899       1     111     166     112     114    2323    2002+
+            736     749    1577     746
CTETRA       900       1    5129    5130     113     112    5255    1471+
+            756     740    1472     745
CTETRA       901       1     112    5131    5146    5130    2321    5235+
+           2324    1472    5237    5236
CTETRA       902       1    8369    7442      24      23    7600    2204+
+           2210    2209    2203     243
CTETRA       903       1     166      26     174    5147    2097    2096+
+           1995    1997    2100    1998
CTETRA       904       1     135      43    4495     114    1118    1117+
+           1116    1785    2190    1787
CTETRA       905       1      44      41    4987    8316     345     369+
+           2216     346     337    4991
CTETRA       906       1     114     112      43      42     746    2193+
+           2190    1576    2003    2173
CTETRA       907       1     139      89     109    8575    1358    2325+
+           1355    1354    1359    1357
CTETRA       908       1     108    3779     165    7858    2326    2327+
+           1507    2328    3932    2329
CTETRA       909       1    3779    3780    7857     108    3928    3933+
+           3931    2326    2330    2331
CTETRA       910       1     108    4208    5966    7857    2332    2333+
+           2334    2331    4278    2335
CTETRA       911       1     108    7857    5966    7969    2331    2335+
+           2334    1502    2336    6012
CTETRA       912       1     108     107    4208    4212     727    1670+
+           2332     730     729    4276
CTETRA       913       1    4208     108    5968     107    2332    1504+
+           2337    1670     727    1505
CTETRA       914       1     106     108     107    5968     728     727+
+            725    1503    1504    1505
CTETRA       915       1      56     147     102      10    1555    1550+
+            686     703    2338    2339
CTETRA       916       1     156      83      53     161    1328    2153+
+           1808    1807    2340    1790
CTETRA       917       1     103    4838    5682    4839    1219    1237+
+           1224    1230    4911    1231
CTETRA       918       1      53      83    8468    8580    2153    1327+
+           1809    2201    2341    5573
CTETRA       919       1      54      55    8535    8536     388    1793+
+           1316    1276    1546    8547
CTETRA       920       1    8466      51    8582      17    1234     402+
+           5561    1235     711    1823
CTETRA       921       1     156    8467      51      53    1222    1232+
+           1515    1808    1810     384
CTETRA       922       1       9      11      14      13     201     401+
+            206     207     847     205
CTETRA       923       1      75      80    4830      77     515     520+
+            518     503     516    2342
CTETRA       924       1     138      77      88    8472    1649    1648+
+           1645    2343    2059    2058
CTETRA       925       1      76      80      88     162     517    1646+
+           1903    1304    1895    1904
CTETRA       926       1      80    5437    8436    8437    1896    5463+
+           1255    1642    5462    8442
CTETRA       927       1    6268    8604    6947    6261    6373     475+
+           2344    6306    6376     477
CTETRA       928       1     162    8436      76      80    1894    1254+
+           1304    1895    1255     517
CTETRA       929       1    5600    5596    5597      75    5670    5657+
+           5669    2345     534     535
CTETRA       930       1     138    4829    4832    4833    2346    4881+
+           1445    1650    4882    4884
CTETRA       931       1     141     138    5690    4832    1444    2347+
+           2348    1446    1445    2349
CTETRA       932       1    8438    8437     139     140    8441    1343+
+            974     976    1344     977
CTETRA       933       1      78    5688      77    4829    2350    2351+
+            506    2352    2353    2354
CTETRA       934       1     138      80      77    4833    1644     516+
+           1649    1650     523    2355
CTETRA       935       1     140      88      80    8437    1347    1646+
+           1638    1344    1345    1642
CTETRA       936       1     140     138    4836    4833    1643    1448+
+           1635    1639    1650    4899
CTETRA       937       1     141    4836    8305    8127    1447    4895+
+           2356     983    2357    2358
CTETRA       938       1     138    4833      77    4829    1650    2355+
+           1649    2346    4882    2354
CTETRA       939       1      88    8471    5532    8472    1899    5558+
+            579    2058    8477    5557
CTETRA       940       1      77    5692    5693    8472    2359    5770+
+           2360    2059    5769    5768
CTETRA       941       1     156     103     160     161    1223    1520+
+           1523    1807    1825    1298
CTETRA       942       1      56     102     103      51     686    1516+
+            689     687     685     710
CTETRA       943       1      70    6947    6261    7741     474     477+
+            476    2361    6954    2362
CTETRA       944       1     151      53      83     161    1788    2153+
+           1975    1791    1790    2340
CTETRA       945       1     150    4204    4200    4203    1202    4240+
+           1281    1191    4241    4235
CTETRA       946       1     151    8433    8535      55    1990    5478+
+           1317    1789    1792    1793
CTETRA       947       1      83    8469    8579    8578    1988    5571+
+           1976    1974    5570    8591
CTETRA       948       1     149    8532    8531    5961    2363    8542+
+           2364    1661    5993    5994
CTETRA       949       1     144    8532     149    5960    2062    2363+
+           1174    2262    5989    2263
CTETRA       950       1     139    5435     106    8530     979    2365+
+           1348    1350    5454    1351
CTETRA       951       1     139      89    8530     107    1358    1368+
+           1350    1349    1672    1352
CTETRA       952       1      85     144      64    8533    1171    1186+
+            572    2060    2057     439
CTETRA       953       1     110    5869    4210    5868    2366    2151+
+           2367    2368    5916    2369
CTETRA       954       1     110    5865    4211    4212     735    2370+
+           2371    2261     720    4274
CTETRA       955       1     105     106    8575    9078     714    1353+
+           2372     715     716    8585
CTETRA       956       1     105     106     109    8575     714    1356+
+            731    2372    1353    1357
CTETRA       957       1    3787    4344     168     165    1701    1699+
+           1700    2373    1710    1704
CTETRA       958       1     110     109      86    5864     732    2252+
+           2259    2374    2255    2254
CTETRA       959       1      89    8530    8531    5436    1368    8541+
+           2053    1366    5456    5459
CTETRA       960       1     108    4212    4208    7858     730    4276+
+           2332    2328    4271    4279
CTETRA       961       1    5964    5968    5962    4208    6022    6021+
+           6004    2375    2337    2376
CTETRA       962       1    6151      70    6261    7741    1131     476+
+           2377    6183    2361    2362
CTETRA       963       1     149    5962     107    4208    2378    2379+
+           1666    1669    2376    1670
CTETRA       964       1    6261      70    8621    8603     476    2380+
+           6378    6375    2291    6377
CTETRA       965       1      85     162      64      87    1905    1305+
+            572     568    1906     571
CTETRA       966       1     111     166     114    7127    2323    1577+
+            749    2381    2382    2383
CTETRA       967       1     111     112     166    5151     736    2002+
+           2323    2384    2095    2094
CTETRA       968       1    8298    8312    5187      99    4980    2385+
+            661     659    1484     660
CTETRA       969       1     135    4979      99    8311    1133     656+
+           1128    2195    4983    2196
CTETRA       970       1      25    8776      44    4500     347     349+
+            343     334    1136    1135
CTETRA       971       1      43    4495     114    4499    1117    1787+
+           2190    2189    4605    1999
CTETRA       972       1    8748    4499      97     114    2386     652+
+           2387    2388    1999    1575
CTETRA       973       1     113     114    8312    7128     747    1483+
+           1482     753     754    2389
CTETRA       974       1     114      99    8312    8311     752    1484+
+           1483    2194    2196    8315
CTETRA       975       1      25      41      44    8316     326     345+
+            343     338     337     346
CTETRA       976       1     114    4495    8749    8748    1787    1786+
+           1784    2388    2390    8771
CTETRA       977       1    6390    6072    6391    7836    2391    2392+
+           6458    2393    2394    2395
CTETRA       978       1      38    4487    4474    4473    1756    4565+
+           1409     312    4564    4524
CTETRA       979       1     126    7787     148      29    2157    2158+
+           1148    2309     263    2155
CTETRA       980       1     121      39     169      94    2310    2073+
+           2302     825    1460    2182
CTETRA       981       1     120     124    3756     121     839     838+
+            837     826    2308     844
CTETRA       982       1     126    7138      29      38    2074    1754+
+           2309    1407     319    1737
CTETRA       983       1    7852     132      39    4179    2172    1463+
+           1459    4183    2311    1458
CTETRA       984       1    3743      28    3749      29     265    1017+
+           3847     266     264    2396
CTETRA       985       1     148     124    7452     123    1596    1612+
+           1610    1606    1608    2120
CTETRA       986       1     124     123      39     121    1608    1749+
+           1748    2308    1399    2310
CTETRA       987       1    7119     170      81    7118    2397    1758+
+           2398    7302    2024    2023
CTETRA       988       1      84    4844      72    8879    1104    1112+
+            561    1107    1106    2399
CTETRA       989       1      56     102     147    4841     686    1550+
+           1555     690    1517    1115
CTETRA       990       1      84    9122      14    5683    1109    1111+
+            551    2400    5715    2401
CTETRA       991       1    5684      84    4845     103     709    1105+
+           2402     706     688    1220
CTETRA       992       1      57     147      67      68    1113    1556+
+            488     489    1559     464
CTETRA       993       1      67      71       9      69     486     867+
+            554     467     480     845
CTETRA       994       1      68       6    8952       1     808     818+
+           2403     821     783    2404
CTETRA       995       1    4846      68       6    8952     809     808+
+            810     816    2403     818
CTETRA       996       1      84      17    5684      14     698     708+
+            709     551     699    1552
CTETRA       997       1     175    7140    8079    8078    2405    7355+
+           2231    2406    7356    8082
CTETRA       998       1      33      46      62     175    1194     430+
+           1198    2407    2075    2083
CTETRA       999       1     175      59    7141    8077    2250    2247+
+           2248    2408    2409    7361
CTETRA      1000       1    4710      33     175    7141    1019    2407+
+           2249    2246    2410    2248
CTETRA      1001       1      32    7151      33    4710    1025    1024+
+            280    1018    1089    1019
CTETRA      1002       1      33     175    7155    7140    2407    2411+
+           2412    2413    2405    7417
CTETRA      1003       1      73      91     175     104    1375    2084+
+           2085    2228    2414    2229
CTETRA      1004       1    6393      73    8550     104     495     497+
+            494    2223    2228    2224
CTETRA      1005       1      33     175    7140    4378    2407    2405+
+           2413    1003    2076    2415
CTETRA      1006       1      45    4382    7427    8088     353     355+
+            352    2227    2416    7497
CTETRA      1007       1      33      31    7150    7153     281     296+
+           1034    1023     290    7405
CTETRA      1008       1      65    6425    6408    6424     600    6523+
+           1040    2417    6522    6521
CTETRA      1009       1      49      91      65    6425     598    1377+
+            450     426    2418     600
CTETRA      1010       1      45    4382    8088    4380     353    2416+
+           2227    2090    4413    2419
CTETRA      1011       1      65    4384    4381    4380    1049    4423+
+           2089    2091    4424    4414
CTETRA      1012       1      49      91    6426    6410     598    2420+
+            423     458    1168    6527
CTETRA      1013       1      35      60    6442      63     422    2421+
+            595     441    1485    2422
CTETRA      1014       1      33      46     175    4378    1194    2075+
+           2407    1003    1389    2076
CTETRA      1015       1       4       7       8       2     195     192+
+            196     186     763     197
CTETRA      1016       1       5       6       1       3     781     783+
+            774     184     767     179
CTETRA      1017       1       2       8     157      20     197    1875+
+           1240     764     762    1864
CTETRA      1018       1      74       1      69    4220     775    1164+
+            498     499    1821     483
CTETRA      1019       1       1       3    8998    4225     179    2423+
+           1820     180     182    2424
CTETRA      1020       1    4223    8920      15      74    2425    1732+
+            863     862    2426     850
CTETRA      1021       1      74      72       1      22     851    1163+
+            775    1814    2427     784
CTETRA      1022       1    4221    4214    7898      12    4303    4286+
+           4305     849    1429    1812
CTETRA      1023       1    5972      69    8997      71     479     471+
+           6059     485     480     481
CTETRA      1024       1    8085      35    8086    8565    1490     285+
+           8091    5516     287    5524
CTETRA      1025       1    7435    7441    8376      95    7592    2111+
+           1509    2428    2429    2430
CTETRA      1026       1      26    5131    5146     112    2214    5235+
+           2431    2192    2321    2324
CTETRA      1027       1      26    5145    5143    5142    2103    5239+
+           2179    2177    5243    5234
CTETRA      1028       1     111     166    5156    5151    2323    2432+
+           2433    2384    2094    5283
CTETRA      1029       1     135    8311     114    8749    2195    2194+
+           1785    1783    2434    1784
CTETRA      1030       1    7441      23    5141    8376    2110    2188+
+           2435    2111    2113    5220
CTETRA      1031       1     111    5156     166    5154    2433    2432+
+           2323    2436    5284    2322
CTETRA      1032       1      25    4496      42    4500    2437    2191+
+            331     334    4611     335
CTETRA      1033       1    6394    6393    8244    6066    6470    6681+
+           6680    2268    2438    6094
CTETRA      1034       1     175     104      59    8077    2229    2439+
+           2250    2408    2440    2409
CTETRA      1035       1    4717    6065    8553      61    2441    6102+
+           2442    1166    2443    2444
CTETRA      1036       1    6393     104    6066    6394    2223    2267+
+           2438    6470     696    2268
CTETRA      1037       1    7150    9071    7144      31    7394    7375+
+           7392     296     295    2445
CTETRA      1038       1      11      10    8431    8537     200    2446+
+           1781    1270    1422    5466
CTETRA      1039       1    6072    6391    7836    9119    2392    2395+
+           2394    6146    2447    4436
CTETRA      1040       1      12      10      11    8537     203     200+
+            204    1274    1422    1270
CTETRA      1041       1      18    4213    4218    4217     411    4293+
+           1616    1428    4296    4298
CTETRA      1042       1      15      17    8582      18    1725    1823+
+           1818    1615     216     405
CTETRA      1043       1     159     151      83     161    1989    1975+
+           1331    1297    1791    2340
CTETRA      1044       1    8538    8430    9117      67    5446    8439+
+           8539    2448    2449     466
CTETRA      1045       1     147      10      67    5589    2338     556+
+           1556    1557    2450    1558
CTETRA      1046       1      67    8430    9117    5589    2449    8439+
+            466    1558    5623    5614
CTETRA      1047       1     102    4842     147    4841    1528    1551+
+           1550    1517    4922    1115
CTETRA      1048       1     102    8431      10    5590    1782    2446+
+           2339    2131    5640    2451
CTETRA      1049       1      13      11      16      58     847    1826+
+            211    1437    1266     408
CTETRA      1050       1     147    8954    4840    8955    1561    1850+
+           1849    2452    8968    2453
CTETRA      1051       1      57      56    4841      84     396     690+
+            548     546     552     547
CTETRA      1052       1    5022    6398    5005    6414    2454    2455+
+           5083    2049    6485    2050
CTETRA      1053       1      58      16      13    4213     408     211+
+           1437     407     392     410
CTETRA      1054       1       2      74    4222    4220     769    2456+
+            778    2457     499    4322
CTETRA      1055       1    8922      21     157    8923    1146    1239+
+           1241    8940    2006    2282
CTETRA      1056       1    5175     136    5174    5173    2458    1680+
+           5323    5324    2459    5325
CTETRA      1057       1    8510    8877    8878      22    5708    8896+
+           5707    1815    1884    1885
CTETRA      1058       1    8878    8879    8509      22    8895    5704+
+           5706    1885    2460    1817
CTETRA      1059       1      74    4222    4223    8921    2456    4320+
+            862    2461     777    2462
CTETRA      1060       1    8921       2      74    4222     780     769+
+           2461     777     778    2456
CTETRA      1061       1      52    8581      51      18    1623     403+
+            381    1547     404     406
CTETRA      1062       1    5969    7899      58    8994    2463    2464+
+           1277    6038    7269    2465
CTETRA      1063       1      51    8581    8467    8466     403    5567+
+           1232    1234    5566    8480
CTETRA      1064       1       1    4225    8998    4220     180    2424+
+           1820    1821    4323    1822
CTETRA      1065       1       2     157    4224    4222    1240    1887+
+            188     778    2007    4328
CTETRA      1066       1       1    8489       3    8952    1841    2466+
+            179    2404    5617    2467
CTETRA      1067       1       3    4225    8999    8998     182     757+
+            758    2423    2424    9018
CTETRA      1068       1      81      31      82    7149     530     533+
+            532    2278    1387    1388
CTETRA      1069       1      21       2      74    8921     772     769+
+            773    1145     780    2461
CTETRA      1070       1      72      14    9122    5873     560    1111+
+           1110    2468    1730    5939
CTETRA      1071       1    5589      10    5590     147    2450    2451+
+           5624    1557    2338    2130
CTETRA      1072       1    5008    5007    5011    6430    5033    5032+
+           5031    2469    2470    2471
CTETRA      1073       1      68    4847    4846    4843    1845    4944+
+            809     558    4939    4945
CTETRA      1074       1     165    4361    3778    3780    2472    2473+
+           2474    2475    2476    3929
CTETRA      1075       1    7984    7985     168    4361    7988    2477+
+           1707    4369    4364    2478
CTETRA      1076       1    6068    6395    6065    4720    2479    2480+
+           6114    2481    2482    2483
CTETRA      1077       1    4720    4717    6411    6395    4762    2484+
+           2485    2482    2486    6473
CTETRA      1078       1    6062    6392    6071    8550    2487    2488+
+           6135    6091     493    6136
CTETRA      1079       1    8245    6392    6071    6062    6683    2488+
+           6133    6132    2487    6135
CTETRA      1080       1    6066    6394    6065    8243    2268    2489+
+           6100    6099    6679    6097
CTETRA      1081       1    8488       1    8998      69    1844    1820+
+           6045     472    1164     470
CTETRA      1082       1    5007    5021    6414    5020    5076    2490+
+           2491    5074    5078    2492
CTETRA      1083       1    8323    5013    5014    6396    5054    5056+
+           5053    2493    2494    2495
CTETRA      1084       1    6441    8276    5785    6442    6624    5849+
+           2496    6571    6625    2497
CTETRA      1085       1    8563    5784    6440    8278    5847    2498+
+           2499    5845    5843    6621
CTETRA      1086       1      66    4711    7426    7433     455     452+
+            456    1380    2500    7536
CTETRA      1087       1     104      59    8077    8076    2439    2409+
+           2440    2501    2271    8084
CTETRA      1088       1      18      52      16      51    1547     382+
+            215     406     381     383
CTETRA      1089       1      48    6440    6441    6424    2502    6568+
+           1058    1059    6567    6569
CTETRA      1090       1    7127      97    5154     166    1580    1581+
+           1579    2382    1566    2322
CTETRA      1091       1     104    8078    8077     175    2503    8083+
+           2440    2229    2406    2408
CTETRA      1092       1    8554    6065    4720    6068    6107    2483+
+           2504    6115    6114    2481
CTETRA      1093       1    4381      65      73    4384    2089    1043+
+           1369    4423    1049    1050
CTETRA      1094       1    8453      73    4387    4385    2505    2506+
+           4431    4421    2507    4429
CTETRA      1095       1    8120    8119    4660    6434    8124    4683+
+           4680    2508    2509    2510
CTETRA      1096       1    6448    5025    6447    5024    2511    2512+
+           6589    2513    5102    2514
CTETRA      1097       1      56      14      11      17     399     401+
+            398     697     699     846
CTETRA      1098       1    6449    5776    6448    8118    2515    2516+
+           6592    2517    2518    2519
CTETRA      1099       1    8689    7449    6268    7447    7664    2520+
+           2521    7660    7665    2522
CTETRA      1100       1      73    6392    6408    6409     496    6461+
+           1042    1373    6464    6463
CTETRA      1101       1      14    5873    8583    9122    1730    5940+
+           1728    1111    5939    8584
CTETRA      1102       1    5785    6442      47    6441    2497     593+
+           2523    2496    6571     592
CTETRA      1103       1    5015    5006    6430    5007    5059    2524+
+           2525    5057    5061    2470
CTETRA      1104       1    6392    9075    6071    8550    1372     795+
+           2488     493    5497    6136
CTETRA      1105       1    6697    4504    6705    4505    2526    2527+
+           6751    2315    4629    2528
CTETRA      1106       1     175      91      59     104    2084    2529+
+           2250    2229    2414    2439
CTETRA      1107       1    7446    6267    6260    6259    2530    6302+
+           2531    2532    6301    6303
CTETRA      1108       1    6407    6391    6408    4387    6457    6460+
+           6459    2533    2534    2535
CTETRA      1109       1      61    9085    8076    8553    2536    8081+
+           2537    2444    5502    5503
CTETRA      1110       1    6698    6705    6697    4504    6752    6751+
+           6728    2538    2527    2526
CTETRA      1111       1    7741    6261    6151    7447    2362    2377+
+           6183    2539    2540    2541
CTETRA      1112       1    6151    7447    9045    7741    2541    7659+
+           6184    6183    2539    7743
CTETRA      1113       1     158    8783    8784    6273    2542    8794+
+           1246    1242    2543    1245
CTETRA      1114       1     148    6152    7785    6153    2544    6187+
+           1599    2125    6194    6192
CTETRA      1115       1     126    8755    7132    8754     888    7334+
+            884     886    8763    7335
CTETRA      1116       1    7448    6268    7447    6261    2545    2522+
+           7658    2546    6306    2540
CTETRA      1117       1    7138    7787      29      28    2547     263+
+           1754     275     262     264
CTETRA      1118       1      92      94    4179    7867     614    1457+
+           2548     626     625    4186
CTETRA      1119       1    4478    8000    4481    8755    4532    4534+
+           4533     889    2549    2550
CTETRA      1120       1    4478    4473    8001    8754    4516    4515+
+           4517     887     313    2551
CTETRA      1121       1    4475    8026    4488    8781    4561    4563+
+           4562    2117    2552    2312
CTETRA      1122       1    8025    8782    4475    4476    2553    2070+
+           4513    4511    2554    4512
CTETRA      1123       1     148      29    7787    7786    2155     263+
+           2158    1598    2156    7789
CTETRA      1124       1     126    4478    4474    4477     872    4523+
+           1150     870    4525    4520
CTETRA      1125       1    4481    4480    6264    6271    4536    2555+
+           2556    2557    2558    6314
CTETRA      1126       1    4481    8755    8756    6264    2550    8764+
+           2559    2556    2560    2561
CTETRA      1127       1    4481    4482    4480    6271    4537    4538+
+           4536    2557    2562    2558
CTETRA      1128       1    4481    7999    4482    8756    4539    4540+
+           4537    2559    2563    2564
CTETRA      1129       1      95      97    6690    4502     648    1590+
+           2565     650     649    2566
CTETRA      1130       1      95      42    4503    8775    2004    2567+
+            630     633     332     634
CTETRA      1131       1    4506    8773    6696    8774    2568    2569+
+            639    2176    8791     638
CTETRA      1132       1    4506    4505    6696    6703    4634    2570+
+            639    2571    2572    6746
CTETRA      1133       1    4506    4507    4505    6703    4635    4636+
+           4634    2571    2573    2572
CTETRA      1134       1    4506    4507    8773    8033    4635    2574+
+           2568    4637    4638    2575
CTETRA      1135       1    4490    4486    9063    8050    4575    1159+
+           1161    2576    2577    8054
CTETRA      1136       1      15    4216    7921    8919     865    4301+
+           1724    1731    2578    7619
CTETRA      1137       1     169      94    3736    3751    2182     624+
+           2180    2305    2306    3840
CTETRA      1138       1    4474    4475    4488    8781    4521    4562+
+           4567    2115    2117    2312
CTETRA      1139       1     148    4475    4477    4474    2072    4519+
+           1149    1151    4521    4520
CTETRA      1140       1      36    7847    7139    7848     323    2579+
+            307     303    7851    1805
CTETRA      1141       1      36    8753    4473    8754     322    1153+
+            311     310    8759     313
CTETRA      1142       1      36      28    3747      30     306     270+
+           1015     305     267     271
CTETRA      1143       1      94      39      37    4179    1460     317+
+           2181    1457    1458     619
CTETRA      1144       1     148    8623    6259    7446    2580    6382+
+           1602    2581    2582    2532
CTETRA      1145       1    4491    8780    8027    8779    1453    2583+
+           4574    1455    8796    2584
CTETRA      1146       1     111    5154     166    7127    2436    2322+
+           2323    2381    1579    2382
CTETRA      1147       1      23      26    5142    5144     255    2177+
+            246     248    2101    5241
CTETRA      1148       1      23      25     174    7441     254    2114+
+           2109    2110     340    2108
CTETRA      1149       1      25    4500      44    4496     334    1135+
+            343    2437    4611    1121
CTETRA      1150       1    4500    4497    8030    8776    4609    4608+
+           4610    1136    1138    2585
CTETRA      1151       1    4489    8048    4492    8750    2586    2587+
+           4581    2588    2589    1124
CTETRA      1152       1    4489    8750    4492    8004    2588    1124+
+           4581    4571    2590    4580
CTETRA      1153       1    4489    8751    8050    8049    2591    2592+
+           2593    2594    2595    8053
CTETRA      1154       1    4486    8752    9063    8050    1157    1158+
+           1159    2577    2596    8054
CTETRA      1155       1    4489    4694    8049    8050    2597    4704+
+           2594    2593    4705    8053
CTETRA      1156       1    8154    4493    4492     135     946    4585+
+           2598     949     950    2187
CTETRA      1157       1    4492    8154    9081    8048    2598    8156+
+           1125    2587    4700    8052
CTETRA      1158       1    8055      27    4497    4494     258     461+
+            463     257     256    4598
CTETRA      1159       1      27    8778    8057    4494     259    2599+
+           2600     256     260     447
CTETRA      1160       1    4489    8751    8049    8048    2591    2595+
+           2594    2586    2601    8051
CTETRA      1161       1      29    7786     124    3752    2156    1597+
+           1746    2602    3855    2603
CTETRA      1162       1      69    8488    9117    5972     472    8503+
+            469     479    6056    6057
CTETRA      1163       1      25      43      42    4496     341    2173+
+            331    2437    1120    2191
CTETRA      1164       1      27    8055    8157    4456     258    4463+
+            959    2604    4458    4462
CTETRA      1165       1    8879    4844      22    8878    1106     814+
+           2460    8895    2605    1885
CTETRA      1166       1      44    4500    4497    4496    1135    4609+
+           1137    1121    4611    4601
CTETRA      1167       1      25    4496      44      43    2437    1121+
+            343     341    1120     342
CTETRA      1168       1    4497    8030    8777    8029    4608    2606+
+           1141    4599    8042    2607
CTETRA      1169       1    8776      44    4497    8316     349    1137+
+           1138     348     346    1139
CTETRA      1170       1     135    4493    4492    4496     950    4585+
+           2187    1119    4595    4594
CTETRA      1171       1    8749    8311    8750    4492    2434    1123+
+           8769    2608    1122    1124
CTETRA      1172       1     128    7722    8869    8868    2609    7733+
+            893    2610    7728    8871
CTETRA      1173       1    4499    4498    4495    8748    4607    4603+
+           4605    2386    2611    2390
CTETRA      1174       1    4497    8776    8777    8030    1138    8787+
+           1141    4608    2585    2606
CTETRA      1175       1      42    4503    8775    4500    2567     634+
+            332     335    4620     336
CTETRA      1176       1      72    8509    5873    9122    2612    5938+
+           2468    1110    8525    5939
CTETRA      1177       1      95    4503      42    4499     630    2567+
+           2004     651    4622    2000
CTETRA      1178       1      44    4979    8154    4987    1134    4982+
+            945    2216    1969    2613
CTETRA      1179       1    4495    4492    8749    8005    4592    2608+
+           1786    4591    4582    2614
CTETRA      1180       1      95      97    6876    6690     648    1594+
+           2615    2565    1590    1595
CTETRA      1181       1      95      97    8377    6876     648    1567+
+           2106    2615    1594    6914
CTETRA      1182       1     111    5150     112    5151     738     737+
+            736    2384    5262    2095
CTETRA      1183       1    4500    8031    8776    8030    4619    2616+
+           1136    4610    8043    2585
CTETRA      1184       1    4489    8003    8752    8751    4569    2617+
+           2618    2591    2619    8758
CTETRA      1185       1    4489    4492    8048    4493    4581    2587+
+           2586    4583    4585    2620
CTETRA      1186       1     111    7127    7128    8358    2381    7248+
+            742     741    7246    7247
CTETRA      1187       1    9142    4508    8745    8009    2621    2622+
+           8765    2623    4643    2624
CTETRA      1188       1    8669    6711    8670    8384    6794    6795+
+           8677    6831    2625    6857
CTETRA      1189       1    4508    4505    4510    6711    4653    4654+
+           4650    2626    2627    2628
CTETRA      1190       1    4508    6711    8670    6712    2626    6795+
+           2629    2630    6769    6796
CTETRA      1191       1    4483    8784    8023    4479    2631    2632+
+           4545    4546    2633    4528
CTETRA      1192       1    9138    4483    8784    8023    2634    2631+
+           8792    2635    4545    2632
CTETRA      1193       1    8639    6279    8638    7779    6362    6363+
+           8647    6210    2636    6231
CTETRA      1194       1    4483    4480    4485    6279    4555    4556+
+           4552    2637    2638    2639
CTETRA      1195       1      31      82      34    7965     533    1026+
+            282     294     531    1088
CTETRA      1196       1      50      46      66    7427     365    1196+
+            454     379     351    2079
CTETRA      1197       1      62    4715    4711    4713     444    4748+
+           1200     435    4741    4746
CTETRA      1198       1      32    7151    8140    7146    1025    7396+
+           1028     293    7397    7388
CTETRA      1199       1    7134    8696    6270    6269    7313    2640+
+           2641    1908    2642    6309
CTETRA      1200       1      66    4377    4379    7432    1193    4397+
+           1102    1103    2643    1097
CTETRA      1201       1    7899    8993    8994    5969    7268    9016+
+           7269    2463    6037    6038
CTETRA      1202       1      33    4710    7151    7141    1019    1089+
+           1024    2410    2246    7399
CTETRA      1203       1      33    7152    7154    7153    1005    7415+
+           1022    1023    7404    7411
CTETRA      1204       1    4379    7959    7432    4377    4395    7520+
+           1097    4397    4396    2643
CTETRA      1205       1    4849    8878    4844    8187    1886    2605+
+           4947    4948    7472    4934
CTETRA      1206       1       7    4850    4849    4848    2039    4957+
+            224     221    4958    4953
CTETRA      1207       1    4225    8998    4220    7896    2424    1822+
+           4323    4324    7280    4310
CTETRA      1208       1     117    7419    9125    8945     801    7634+
+            799    2286    7517    8946
CTETRA      1209       1    8509    8921    8510      74    5933    5927+
+           8526    1816    2461    1813
CTETRA      1210       1      19    7423    8877    4849    2298    7467+
+            230     228    2644     227
CTETRA      1211       1       8     157     154    4224    1875    1876+
+           1211     198    1887    1934
CTETRA      1212       1    6700    8613    7707    8424    6805    2645+
+           2646    2647    2648    7714
CTETRA      1213       1     128    7707    8613    9116    2649    2645+
+            921     919    7713     920
CTETRA      1214       1      19     153    8875    7423    2031    2030+
+           2029    2298    2297    7466
CTETRA      1215       1     154    4224     157    7443    1934    1887+
+           1876    1933    2009    1937
CTETRA      1216       1     153    7423    7424    8875    2297    7477+
+           2650    2030    7466    7478
CTETRA      1217       1    4850       8     152    4851    2044    2027+
+           2042    4963    1929    2028
CTETRA      1218       1     142     173    8495     170    1949    1958+
+           2021    1943    1938    1959
CTETRA      1219       1    7148      82      81    8983    2276     532+
+           2277    7384    2301    2651
CTETRA      1220       1       8    4227    4226    4224    1772    4339+
+            788     198    4342    4334
CTETRA      1221       1       6    4846     119    4848     810     817+
+            803     222    4952    1878
CTETRA      1222       1     143    8162    4848    7115    1973    4951+
+           1879    1412    7179    1877
CTETRA      1223       1     115    4225    4226    7129     760    4333+
+            789    2013    2014    2022
CTETRA      1224       1     115    5971    9000    8491    1420    6047+
+           2652    1421    6050    6049
CTETRA      1225       1      82    4227      81     171    1770    1769+
+            532    1955    1773    1763
CTETRA      1226       1       1    8488    8998    8489    1844    6045+
+           1820    1841    8504    6044
CTETRA      1227       1    8954    4843    4847      68    1563    4939+
+           1846    1562     558    1845
CTETRA      1228       1     171    7129    7130    9001    2017    7289+
+           1766    2015    7282    7290
CTETRA      1229       1      81    7965    4226    4227     529    4338+
+           1765    1769    4335    4339
CTETRA      1230       1    7118    9128    7119     170    7301    7299+
+           7302    2024    2653    2397
CTETRA      1231       1      81    7965    7142    7894     529    1774+
+           1776    1768    4337    7366
CTETRA      1232       1       2    4225    4222    4224     181    4325+
+            778     188    4329    4328
CTETRA      1233       1    8335    8336    5005    8240    8338    5050+
+           5084    6088    6105    2654
CTETRA      1234       1     153     152     155    7420    2012    1214+
+           1869    2294    2655    2292
CTETRA      1235       1       2       7      20      21     763     232+
+            764     772     237     528
CTETRA      1236       1     117     153     118     154    1209    1867+
+            796    1210    1212    1858
CTETRA      1237       1     171    4226    7130    7129    1764    1767+
+           1766    2017    2022    7289
CTETRA      1238       1     157    8924    7918    8923    2037    7628+
+           2008    2282    8941    7632
CTETRA      1239       1     154    7917    4224    7443    1935    4327+
+           1934    1933    7630    2009
CTETRA      1240       1    4508    4504    6705    8745    4644    2527+
+           2656    2622    2657    2658
CTETRA      1241       1    4508    4505    6704    6705    4653    2659+
+           2660    2656    2528    6750
CTETRA      1242       1    6268    7448    6260    6261    2545    2661+
+           6305    6306    2546    6307
CTETRA      1243       1    4506    6697    6696    4505     642    6724+
+            639    4634    2315    2570
CTETRA      1244       1    4506    8773    6703    6696    2568    2662+
+           2571     639    2569    6746
CTETRA      1245       1      44      43      99      41     342    1127+
+           1129     345     344     658
CTETRA      1246       1      58    5969    8994    5970    1277    6038+
+           2465    1435    6040    6042
CTETRA      1247       1    4505    6703    4507    4510    2572    2573+
+           4636    4654    2663    4655
CTETRA      1248       1    4508    6711    4510    8384    2626    2628+
+           4650    4641    2625    4649
CTETRA      1249       1    4504    4501    6698    8746    4625    2136+
+           2538    2664    2665    2666
CTETRA      1250       1    4508    6712    8745    6705    2630     875+
+           2622    2656    6771    2658
CTETRA      1251       1    4504    4501    8746    8008    4625    2665+
+           2664    4624    4615    2667
CTETRA      1252       1    4504    8745    8009    8718    2657    2624+
+           4626    2668    7069    7006
CTETRA      1253       1    8718    4504    8746    8008    2668    2664+
+           7073    7010    4624    2667
CTETRA      1254       1    8383    6712    6828    9142    2669    2670+
+           6865    2671     874    2672
CTETRA      1255       1    4508    8383    8009    9142    4640    4642+
+           4643    2621    2671    2623
CTETRA      1256       1    4503    8032    4506    8774    4630    4632+
+           4631     631    2673    2176
CTETRA      1257       1      44    4493    4496    4497     942    4595+
+           1121    1137    4600    4601
CTETRA      1258       1    4481    4480    6265    6264    4536    2674+
+           2675    2556    2555    6292
CTETRA      1259       1    4483    6273    8784    4479    2676    1245+
+           2631    4546    2677    2633
CTETRA      1260       1    4480    4479    4476    6273    4531    4527+
+           4529    2678    2677    2679
CTETRA      1261       1    4483    4480    6279    6272    4555    2638+
+           2637    2680    2681    6336
CTETRA      1262       1    4480    6264    6271    6272    2555    6314+
+           2558    2681    6316    6315
CTETRA      1263       1    6266    6273    6265    4476    6320    6319+
+           6296    2682    2679    2683
CTETRA      1264       1    4480    6271    4482    4485    2558    2562+
+           4538    4556    2684    4557
CTETRA      1265       1    4483    6279    4485    7779    2637    2639+
+           4552    4543    2636    4551
CTETRA      1266       1    4476    8783    6266    6273    2685    2686+
+           2682    2679    2543    6320
CTETRA      1267       1    8024    8783    4476    4479    2687    2685+
+           4514    4526    2688    4527
CTETRA      1268       1    4479    8784    8023    8811    2633    2632+
+           4528    2689    7096    7044
CTETRA      1269       1    8811    4479    8783    8024    2689    2688+
+           7100    7048    4526    2687
CTETRA      1270       1    7780    6280    6206    9138    2690    2691+
+           6239    2692    2693    2694
CTETRA      1271       1    4483    7780    8023    9138    4542    4544+
+           4545    2634    2692    2635
CTETRA      1272       1    4479    8783    6273    8784    2688    2543+
+           2677    2633    8794    1245
CTETRA      1273       1     126    4477    6265    4481     870    2316+
+           2318     871    4535    2675
CTETRA      1274       1    6266    8783    4476    8782    2686    2685+
+           2682    2695    8793    2554
CTETRA      1275       1    6261    7448    6260    7771    2546    2661+
+           6307    2696    7654    2697
CTETRA      1276       1    3736    3737      37     169    3837     623+
+            621    2180    2698    1801
CTETRA      1277       1     115    7129    9001    9000    2013    7282+
+           2016    2652    7281    9014
CTETRA      1278       1    7438    7436    6689    6696    7554    2699+
+           2700    2701     637    6722
CTETRA      1279       1    6695    7440    6687    7438    2702    1002+
+           6717    2703    7572    2704
CTETRA      1280       1    8869    6822    9115    6825    2705    6844+
+           8872    2706    6846    6848
CTETRA      1281       1    8869    7722    8614    8615    7733    2707+
+            892    2708    2709    8619
CTETRA      1282       1     128    8614    8869    7722     895     892+
+            893    2609    2707    7733
CTETRA      1283       1    8682    6207    9046    6201    2710    6246+
+           8685    2711    6245    6244
CTETRA      1284       1    8605    6930    6276    8606    1916    2712+
+           6354    8610    2713    6353
CTETRA      1285       1     130    8681    6930    8682    1226    6936+
+           1917    1227    8684    6941
CTETRA      1286       1      22    8879    8509      72    2460    5704+
+           1817    2427    2399    2612
CTETRA      1287       1    8880    8879    8188    4845    8898    7457+
+           7456    2714    1108    4930
CTETRA      1288       1      68    8953    4846    4847    1847    2715+
+            809    1845    1848    4944
CTETRA      1289       1     170     173     143     142    1938    1953+
+           1945    1943    1949    1069
CTETRA      1290       1      72    4844      22    8879    1112     814+
+           2427    2399    1106    2460
CTETRA      1291       1      68    4844    4843    4846     812    4937+
+            558     809    4946    4945
CTETRA      1292       1      71    8996    4221    7897    1425    1427+
+            869    1811    7274    4306
CTETRA      1293       1      74    5873      72    8509    2716    2468+
+            851    1816    5938    2612
CTETRA      1294       1      21       5       2       7     771     187+
+            772     237     791     763
CTETRA      1295       1      68      22      72    4844     813    2427+
+            492     812     814    1112
CTETRA      1296       1       1       3       6    8952     179     767+
+            783    2404    2467     818
CTETRA      1297       1    8273    5017    6444    6445    2717    2718+
+           6630    6631    2719    6580
CTETRA      1298       1    7121    6698    8746    6699    2720    2666+
+           7217    2721    6732    2722
CTETRA      1299       1    7121    6699    8746    7123    2721    2722+
+           7217    7211    2723    7231
CTETRA      1300       1    7123    8746    7126    6699    7231    7232+
+           7230    2723    2722    2207
CTETRA      1301       1    7123    6700    6692    6699    2724    6737+
+           2725    2723    6736    6734
CTETRA      1302       1    8783    6266    7446    8782    2686    2726+
+           7661    8793    2695    7647
CTETRA      1303       1    6067    6397    8241    6396    2727    6674+
+           6104    2728    6482    6675
CTETRA      1304       1    7448    6261    7772    7771    2546    2729+
+           7656    7654    2696    7776
CTETRA      1305       1     155    7425    9127    8873    2293    7486+
+           2730    2731    7480    8892
CTETRA      1306       1     152    8185     153    4850    2732    2733+
+           2012    2042    4955    2043
CTETRA      1307       1    7421    7420    7425     155    7485    7483+
+           7484    1217    2292    2293
CTETRA      1308       1     173    8983    7114    9123    2300    7189+
+           1970    2734    8984    7188
CTETRA      1309       1     143    4851    8162    8134    1930    4965+
+           1973    1964    4960    4964
CTETRA      1310       1      82    7965    4227    7964     531    4335+
+           1770    1101    7966    4336
CTETRA      1311       1      28    7796    3740      30     273    3815+
+            269     267     277     268
CTETRA      1312       1      32    8134    7146    8140    1011    1008+
+            293    1028    4731    7388
CTETRA      1313       1      82    8134    7114    7146    1010    1967+
+           1972    1009    1008    7389
CTETRA      1314       1    8983      82      81     170    2301     532+
+           2651    2735    1954    1758
CTETRA      1315       1     175    4710      59      62    2249    2139+
+           2250    2083    1379    2138
CTETRA      1316       1    6445    6429    5016    6428    6582    2736+
+           2737    6581    6534    2738
CTETRA      1317       1     128    8868    7723    7722    2610    7726+
+           2739    2609    7728    7727
CTETRA      1318       1     154    4227    7917    7964    1936    4341+
+           1935    2289    4336    4340
CTETRA      1319       1     128    9116    8868    7707     919    8870+
+           2610    2649    7713    7710
CTETRA      1320       1      61    4717    6065    6394    1166    2441+
+           2443     695    2740    2489
CTETRA      1321       1    4845     103    4838    5684    1220    1219+
+           4927    2402     706    1238
CTETRA      1322       1    8086      50    5511      35     459     371+
+           5525     285     376     286
CTETRA      1323       1    8682    7747    9046    6207    6960    7749+
+           8685    2710    6251    6246
CTETRA      1324       1    8682    9046    7744    6201    8685    7746+
+           6944    2711    6244    6228
CTETRA      1325       1    8869    8615     127    6822    2708    1495+
+            890    2705    1493    1496
CTETRA      1326       1    8869    9115    8421    6825    8872    8423+
+           7736    2706    6848    6853
CTETRA      1327       1    6692    8392    6693    7123    2741    2742+
+           6739    2725    7210    2743
CTETRA      1328       1    6693    6700    6692    7123    6738    6737+
+           6739    2743    2724    2725
CTETRA      1329       1    8393    8657    8392    6693    6911    6927+
+           8397    2744    6810    2742
CTETRA      1330       1    6259    8623    6260    7446    6382    6381+
+           6303    2532    2582    2531
CTETRA      1331       1    7122    8424    6880    6700    2745    6912+
+           2746    2747    2647    2748
CTETRA      1332       1    7122    6700    7707    8424    2747    2646+
+           2749    2745    2647    7714
CTETRA      1333       1    6700    8862    7122    7707    2750    7216+
+           2747    2646    7715    2749
CTETRA      1334       1    6260    7771    8622    6261    2697    6196+
+           6380    6307    2696    6379
CTETRA      1335       1    7447    6947    8689    9045    2751    6955+
+           7660    7659    6956    8691
CTETRA      1336       1    7449    6267    7447    7451    2752    2753+
+           7665    7671    1249    7673
CTETRA      1337       1    7771    7448    6260    7446    7654    2661+
+           2697    7650    7655    2531
CTETRA      1338       1    4845    8189    8881    4838    4929    7454+
+           2754    4927    4910    2755
CTETRA      1339       1    6390    8247    6069    9105    6609    6141+
+           2756    6608    8263    6128
CTETRA      1340       1    4044    5781    7829    7839    2757    5829+
+           4075    4106    2758    4105
CTETRA      1341       1    4845    8189    8880    8881    4929    7458+
+           2714    2754    7454    8900
CTETRA      1342       1      71    7897    8997    8996    1811    7275+
+            481    1425    7274    9022
CTETRA      1343       1    4214      13    4217    4213    1430     217+
+           4297    4289     410    4296
CTETRA      1344       1      12    4214    7898    5970    1429    4286+
+           1812    1436    2759    2760
CTETRA      1345       1      12    4221    4214    4217     849    4303+
+           1429     220    4304    4297
CTETRA      1346       1    4214    4215      58    4213    4287    1271+
+           1438    4289    4288     407
CTETRA      1347       1     129    7738    9043    6931     897    7740+
+           2761    1923    6938    6940
CTETRA      1348       1     129    6150    9043    7738     896    6176+
+           2761     897    6175    7740
CTETRA      1349       1    7137    7134    6263    6262    7327    2762+
+           2763    1911    1910    6284
CTETRA      1350       1     129    8686    6931    9043    2764    6939+
+           1923    2761    8688    6940
CTETRA      1351       1    7137    6150    6255    7763    2765    2766+
+           1914    7323    6174    2767
CTETRA      1352       1    7440    6879    6687    8402    1001     994+
+           1002    7569    6903    2768
CTETRA      1353       1    4507    8034    4509    9143    4639    4645+
+           4646    2769    2770    2771
CTETRA      1354       1    8772    8033    8799    8773    2772    7031+
+           7089    8789    2575    7090
CTETRA      1355       1    8034    8033    8799    8772    8046    7031+
+           7030    2773    2772    7089
CTETRA      1356       1    4507    4510    6703    6710    4655    2663+
+           2573    2774    2775    6765
CTETRA      1357       1    7448    7446    6267    6260    7655    2530+
+           2776    2661    2531    6302
CTETRA      1358       1    4505    4504    6705    4508    4629    2527+
+           2528    4653    4644    2656
CTETRA      1359       1    4503    8774    8775    8032     631    8790+
+            634    4630    2673    2777
CTETRA      1360       1    8781    4475    8782     148    2117    2070+
+           8797    2116    2072    2071
CTETRA      1361       1    9137    6278    4484    4482    2778    2779+
+           2780    2781    2782    4548
CTETRA      1362       1    4482    7998    4484    9137    4541    4547+
+           4548    2781    2783    2780
CTETRA      1363       1    8757    7999    8730    8756    2784    6993+
+           7062    8762    2563    7063
CTETRA      1364       1    7998    7999    8730    8757    8013    6993+
+           6992    2785    2784    7062
CTETRA      1365       1     126      38    8754    7138    1407     309+
+            886    2074     319    7343
CTETRA      1366       1    4476    8782    4475    4477    2554    2070+
+           4512    4522    2069    4519
CTETRA      1367       1    6151    6149      70    7741    6179    1132+
+           1131    6183    6177    2361
CTETRA      1368       1    4482    4485    6271    6278    4557    2684+
+           2562    2782    2786    6333
CTETRA      1369       1      15    4217    4218    4216     866    4298+
+           1617     865    4300    4299
CTETRA      1370       1     102     160    5595    4823    1521    1537+
+           1536    1538    1303    1539
CTETRA      1371       1    6444    5780    8274    6443    2787    5813+
+           6629    6577    2788    6628
CTETRA      1372       1    4842    4823    8957    8167    4916    1540+
+           1529    4918    4853    7169
CTETRA      1373       1     102     147    5590      10    1550    2130+
+           2131    2339    2338    2451
CTETRA      1374       1     163    4825    4839    5686    1335    4904+
+           1340    1339    2789    1341
CTETRA      1375       1     163      83    8469    8468    1326    1988+
+           1987    1323    1327    8483
CTETRA      1376       1     103      51     161     156     710    1544+
+           1825    1223    1515    1807
CTETRA      1377       1    4838    8190    8883    4839    4909    7463+
+           2790    4911    4908    2791
CTETRA      1378       1    4838    8882    8190    8189    1236    7459+
+           4909    4910    7455    8202
CTETRA      1379       1    8882    8190    8883    4838    7459    7463+
+           8902    1236    4909    2790
CTETRA      1380       1     150      54    4200      52    2143    1322+
+           1281    1279     395    1280
CTETRA      1381       1      13      58      12      11    1437    1273+
+            219     847    1266     204
CTETRA      1382       1      76      78    8470    5688     505    1994+
+           2792    2793    2350    5747
CTETRA      1383       1    4215      58    7899    4214    1271    2464+
+           4284    4287    1438    4285
CTETRA      1384       1      58      12    5970    4214    1273    1436+
+           1435    1438    1429    2759
CTETRA      1385       1    6444    4723    5780    6443    2794    2795+
+           2787    6577    2796    2788
CTETRA      1386       1    4214    8994    7899    7898    2797    7269+
+           4285    4286    7272    7911
CTETRA      1387       1    5969    4215      58    7899    1548    1271+
+           1277    2463    4284    2464
CTETRA      1388       1      52    5862    4199    5863    1625    2798+
+           1283    1287    5883    1288
CTETRA      1389       1    4218    7922    8917    8918    4294    7620+
+           1627    1628    7621    8936
CTETRA      1390       1    4218    4199    8917    7922    4292    1824+
+           1627    4294    4229    7620
CTETRA      1391       1      79    8435      64    8434     543     438+
+            542    1978    8446     437
CTETRA      1392       1      52    4213    4200    4199     394    4290+
+           1280    1283    4291    4242
CTETRA      1393       1     160    4823    5598    5595    1303    1309+
+           1308    1537    1539    5661
CTETRA      1394       1    4842    8167    8957    8956    4918    7169+
+           1529    1527    7170    8975
CTETRA      1395       1    6424      48      65    6425    1059    1036+
+           2417    6522    1057     600
CTETRA      1396       1      53      54     151     150     390    1314+
+           1788    2799    2143    1179
CTETRA      1397       1      17      14    8583    8465     699    1728+
+           1727    1554    1553    5541
CTETRA      1398       1    9120    8326    5778    9108    4783    2800+
+           5811    8460    8330    5814
CTETRA      1399       1    6391    6072    6390    8247    2392    2391+
+           6458    6686    6142    6609
CTETRA      1400       1     130    6947    6946    8605    1919    6952+
+           1228    1918    2801    1925
CTETRA      1401       1    9129      70    6149    8603    1130    1132+
+           6172    8607    2291    2802
CTETRA      1402       1    6930    8686    8697    9133    6932    7329+
+           2803    6933    8687    8698
CTETRA      1403       1    8682    6207    6946    7747    2710    2804+
+           6957    6960    6251    6961
CTETRA      1404       1    7744    9133    6204    9047    6943    2805+
+           6226    7745    6942    6225
CTETRA      1405       1    8421    6826    9114    9148    6852    6851+
+           8422    7735    2806    7734
CTETRA      1406       1    8869    7722    6825    8421    7733    2807+
+           2706    7736    7737    6853
CTETRA      1407       1    7722    8865    8854    9148    7724    7575+
+           2808    7725    8867    8857
CTETRA      1408       1     128    8868    7706    7707    2610    7711+
+           2045    2649    7710    7712
CTETRA      1409       1    8869    9115    6822    8418    8872    6844+
+           2705    7720    8419    6845
CTETRA      1410       1     128    8868    8869    7706    2610    8871+
+            893    2045    7711    7717
CTETRA      1411       1    8421    6825    9148    7722    6853    2809+
+           7735    7737    2807    7725
CTETRA      1412       1    4204    7924    8915    7923    4243    7609+
+           2810    4239    7929    7610
CTETRA      1413       1     145    4201    5958    5959    1075    2811+
+           1319    1079    1078    5981
CTETRA      1414       1      83     151    8579    8580    1975    1180+
+           1976    2341    2054    8593
CTETRA      1415       1      61    8076     104    8553    2537    2501+
+            693    2444    5503    2812
CTETRA      1416       1      54     151     150     145    1314    1179+
+           2143    1313    1190    1189
CTETRA      1417       1      18      51      16      17     406     383+
+            215     216     711     212
CTETRA      1418       1    4199    7923    5863    8916    4228    2813+
+           1288    2814    7616    5885
CTETRA      1419       1    4204    5863    7923    8915    2200    2813+
+           4239    2810    5886    7610
CTETRA      1420       1     159    4828    4824    4827    1258    4864+
+           1301    1263    4865    4859
CTETRA      1421       1     103    5682    8466    8467    1224    5725+
+           1233    1221    5726    8480
CTETRA      1422       1      75    5596      80    8436     534     536+
+            515    1256    5652    1255
CTETRA      1423       1      76    8436     162    8435    1254    1894+
+           1304     544    8444    1306
CTETRA      1424       1    4823    8167    8958    8957    4853    7166+
+           2815    1540    7169    8976
CTETRA      1425       1      79    8434     159    5599    1978    1991+
+           1257    1260    5667    1261
CTETRA      1426       1    4823    8168    5598    8958    4852    2816+
+           1309    2815    7159    5658
CTETRA      1427       1      84    5683    4845    8880    2400    2817+
+           1105    2818    5718    2714
CTETRA      1428       1    4828    5598    8168    8959    2819    2816+
+           4863    2820    5659    7158
CTETRA      1429       1    8191    5686    4839    4825    2821    1341+
+           4907    4906    2789    4904
CTETRA      1430       1      78    5687    8469    8470    1334    5739+
+           1986    1994    5740    8481
CTETRA      1431       1    9072    7959    7430    7964    7960    7507+
+           7506    7968    4394    2822
CTETRA      1432       1      49      61      59      91     418     420+
+            412     598    1169    2529
CTETRA      1433       1    4710    8138    8139    7141    4734    8142+
+           4733    2246    7362    7363
CTETRA      1434       1      59    4713    4710    4716     436    4747+
+           2139    2270    4750    4749
CTETRA      1435       1     175    7155    8077    7141    2411    7409+
+           2408    2248    7408    7361
CTETRA      1436       1    8134    7146    8140    9094    1008    7388+
+           4731    8137    7387    8141
CTETRA      1437       1    4390    8562    4388      48    2823    2824+
+           4446    1044    2825    1055
CTETRA      1438       1    4509    6824    8385    6710    2826    6839+
+           4648    2827    2828    2829
CTETRA      1439       1    4509    8385    6824    9080    4648    6839+
+           2826    4647    8388    6841
CTETRA      1440       1    8034    9143    9080    4509    2770    2830+
+           8047    4645    2771    4647
CTETRA      1441       1    6067    6068    6396    8241    6110    2831+
+           2728    6104    6111    6675
CTETRA      1442       1    8326    6444    4724    4723    2832    2833+
+           4781    4784    2794    4785
CTETRA      1443       1    4509    4510    6710    8385    4652    2775+
+           2827    4648    4651    2829
CTETRA      1444       1    4510    8668    8385    8384    2834    6832+
+           4651    4649    6830    8389
CTETRA      1445       1    4510    8669    8384    6711    2835    6831+
+           4649    2628    6794    2625
CTETRA      1446       1    4506    8773    8774    8032    2568    8791+
+           2176    4632    2836    2673
CTETRA      1447       1    6703    6704    6711    4505    6747    6768+
+           6767    2572    2659    2627
CTETRA      1448       1    4484    7778    6278    6203    4550    2837+
+           2779    2838    6218    2839
CTETRA      1449       1    4484    7778    6203    9049    4550    6218+
+           2838    4549    7783    6220
CTETRA      1450       1    7998    9137    9049    4484    2783    2840+
+           8014    4547    2780    4549
CTETRA      1451       1    4723      60    6443    4724    2841    2842+
+           2796    4785    2843    2844
CTETRA      1452       1     104    8552    8076    8077    2845    5504+
+           2501    2440    5510    8084
CTETRA      1453       1    4484    4485    6278    7778    4554    2786+
+           2779    4550    4553    2837
CTETRA      1454       1    4485    8640    7778    7779    2846    6211+
+           4553    4551    6209    7784
CTETRA      1455       1    4485    8639    7779    6279    2847    6210+
+           4551    2639    6362    2636
CTETRA      1456       1    6272    6279    6271    4480    6336    6335+
+           6315    2681    2638    2558
CTETRA      1457       1    7122    7707    8862    9111    2749    7715+
+           7216    7215    7716    8863
CTETRA      1458       1    8686    8697    7134    6930    7329    7314+
+           7328    6932    2803    2848
CTETRA      1459       1     133    7437    7440    6694     998    7573+
+            997    2849    2850    2851
CTETRA      1460       1    6275    8689    7449    6268    2852    7664+
+           2853    6326    2521    2520
CTETRA      1461       1    8605    6268    8604    6947    6374    6373+
+           8609    2801    2344     475
CTETRA      1462       1    7134    6262    6270    6263    1910    6310+
+           2641    2762    6284    6311
CTETRA      1463       1    8697    7134    6930    6269    7314    2848+
+           2803    2854    1908    1915
CTETRA      1464       1    7437    6701    8854    8853    2855    2856+
+           7560    7559    2857    8855
CTETRA      1465       1    7440    6687    6694    6695    1002    6715+
+           2851    2702    6717    6716
CTETRA      1466       1    8614    6701    7722    7723    6783    2858+
+           2707    2859    1744    7727
CTETRA      1467       1     172    7443    8925    7444    1932    7633+
+           1854    1853    7639    7641
CTETRA      1468       1     104    8077    5494    8552    2440    5509+
+           2860    2845    5510    5506
CTETRA      1469       1    5970      12    8995    7898    1436    2861+
+           6043    2760    1812    7273
CTETRA      1470       1    4220      69    8997    8998     483     471+
+            484    1822     470    9021
CTETRA      1471       1      71      67    8538    5972     486    2448+
+           2862     485     478    6061
CTETRA      1472       1     156    5685    8467    8468    2863    5732+
+           1222    1324    5737    8482
CTETRA      1473       1    8336    5014    6067    9107    5049    2864+
+           6106    8337    5052    6108
CTETRA      1474       1      84    8879    9122    8880    1107    5705+
+           1109    2818    8898    5717
CTETRA      1475       1    8956    4840     147    4842    2865    1849+
+           1549    1527    4923    1551
CTETRA      1476       1    8879      84    4845    8880    1107    1105+
+           1108    8898    2818    2714
CTETRA      1477       1     146    4207    5867    4204    1292    2866+
+           2066    1201    4250    2068
CTETRA      1478       1    6268    7449    6275    6267    2520    2853+
+           6326    6304    2752    6325
CTETRA      1479       1      35    5511    8565      47     286    5522+
+            287     378     374     596
CTETRA      1480       1    8989    5960    7902    4205    5990    2867+
+           7264    2868    2264    4244
CTETRA      1481       1    4202    7902    7901    8990    4233    7905+
+           4230    2869    7263    7259
CTETRA      1482       1     144    5959    4202    4201    1077    2870+
+           1081    1074    1078    4231
CTETRA      1483       1    4201    5959    7901    8991    1078    2871+
+           4232    2872    5982    7260
CTETRA      1484       1      90    4210    4206    4209    2150    4263+
+           1293    1657    4264    4259
CTETRA      1485       1    4202    8990    7901    5959    2869    7259+
+           4230    2870    5985    2871
CTETRA      1486       1     144    5960    4202    5959    2262    2873+
+           1081    1077    5986    2870
CTETRA      1487       1      64      87    8470    8578     571    2874+
+           2147     570     567    5569
CTETRA      1488       1    8776    8030    8031    8803    2585    8043+
+           2616    7085    7038    7037
CTETRA      1489       1    7449    6267    7451    6274    2752    1249+
+           7671    2875    6323    1250
CTETRA      1490       1    4215    4201    7900    8992    4280    4282+
+           4283    2876    2877    7270
CTETRA      1491       1     150    5863    4204    5867    1286    2200+
+           1202    2067    5902    2068
CTETRA      1492       1     126    4478    4481    8755     872    4533+
+            871     888     889    2550
CTETRA      1493       1     146    4207    5870    5867    1292    2878+
+           2145    2066    2866    5911
CTETRA      1494       1     173    8949    8495    8948    1948    5608+
+           1958    2879    8967    5603
CTETRA      1495       1      79    4831    5599    4828     512    2880+
+           1260    1259    4874    1262
CTETRA      1496       1    4826    8887    4829    8193    2881    2882+
+           4870    4857    7547    4868
CTETRA      1497       1     163    5687    5686    8469    1333    5742+
+           1339    1987    5739    5741
CTETRA      1498       1    4825    8192    8885    5687    4856    7461+
+           2883    1336    2884    5743
CTETRA      1499       1      78    5688    4826    5687    2350    2885+
+           1992    1334    5745    2886
CTETRA      1500       1    4826    8192    5687    8886    4854    2884+
+           2886    2887    7544    5744
CTETRA      1501       1      75      76      79    8435     501     513+
+            509    1977     544     543
CTETRA      1502       1      79    4831    5601    5599     512     511+
+            508    1260    2880    5677
CTETRA      1503       1      78    4827    4826    4830    1265    4861+
+           1992     545    4872    4871
CTETRA      1504       1    5014    8240    5005    8336    2888    2654+
+           5051    5049    6105    5050
CTETRA      1505       1    8147    4711    7433    8146    4730    2500+
+           7526    8151    4745    7534
CTETRA      1506       1      90    4206    4210    4207    1293    4263+
+           2150    1291    4253    4261
CTETRA      1507       1     149    4208    5963    5962    1669    2265+
+           1662    2378    2376    6001
CTETRA      1508       1    4205    7903    8988    5963    4245    7265+
+           2889    1663    2890    5999
CTETRA      1509       1     144     145    4201    4203    1076    1075+
+           1074    1085    1289    4234
CTETRA      1510       1     144    4205     149    4206    1082    1659+
+           1174    1080    4249    1656
CTETRA      1511       1    5960    7902    4205    4202    2867    4244+
+           2264    2873    4233    4246
CTETRA      1512       1    4205    8989    8988    7903    2868    9008+
+           2889    4245    7266    7265
CTETRA      1513       1     110      90    5869    5871    2256    2148+
+           2366    2258    2257    5922
CTETRA      1514       1    4210    7926    5868    8912    4265    2891+
+           2369    2892    7611    5909
CTETRA      1515       1     158    7451    8784    8783    1252    7677+
+           1246    2542    7676    8794
CTETRA      1516       1    4210    7926    8912    7925    4265    7611+
+           2892    4262    7931    7613
CTETRA      1517       1     149    5961    4205    5960    1661    1660+
+           1659    2263    5991    2264
CTETRA      1518       1    5869    7925    4207    4210    2893    4254+
+           2149    2151    4262    4261
CTETRA      1519       1    7991     106    9077     165     713    2894+
+           1513    1500    1499    1512
CTETRA      1520       1    6275    9134    8605    8606    2895    2896+
+           6371    6372    2897    8610
CTETRA      1521       1      75    4831    4834    5601     510    4885+
+            522     507     511    2898
CTETRA      1522       1    4826    5688    4829    8887    2885    2353+
+           4870    2881    5771    2882
CTETRA      1523       1      63    4714    4718    4722    2899    4757+
+           1486    1488    4770    4774
CTETRA      1524       1     138    4832    4829    5692    1445    4881+
+           2346    2900    2901    2902
CTETRA      1525       1    4829    8888    8193    8887    2903    7548+
+           4868    2882    8909    7547
CTETRA      1526       1    4829    5692    8194    8888    2902    2904+
+           4869    2903    5765    7546
CTETRA      1527       1      80      75    4834    5597     515     522+
+            521     537     535    2905
CTETRA      1528       1    4834    8962    8171    5597    2906    7160+
+           4889    2905    5671    2907
CTETRA      1529       1    4825    8885    8191    5686    2883    7460+
+           4906    2789    5735    2821
CTETRA      1530       1      80      77    4833    4830     516    2355+
+            523     520    2342    4883
CTETRA      1531       1     159    5598    4828    5599    1307    2819+
+           1258    1261    5666    1262
CTETRA      1532       1    4834    8170    8171    8962    4886    8176+
+           4889    2906    7162    7160
CTETRA      1533       1      77    5693    4829    5688    2360    2908+
+           2354    2351    5767    2353
CTETRA      1534       1    8961    4834    8962    8170    2909    2906+
+           8981    7164    4886    7162
CTETRA      1535       1    4724    4721    4723      60    4788    4780+
+           4785    2843    2910    2841
CTETRA      1536       1      34    7432    7959    7430    1096    7520+
+           1095    1386    7521    7507
CTETRA      1537       1    9072    7964    7430    7419    7968    2822+
+           7506    7511    2288    7512
CTETRA      1538       1    4502    8747    4501    4498    2034    2133+
+           4618    4616    2035    4614
CTETRA      1539       1    8004    8724    8003    8751    7003    7005+
+           8016    2911    7056    2619
CTETRA      1540       1    8670    6712    6828    8383    6796    2670+
+           6864    6858    2669    6865
CTETRA      1541       1    4202    5959    5960    8990    2870    5986+
+           2873    2869    5985    5987
CTETRA      1542       1     170    8497    9128    9124    1942    6025+
+           2653    1939    8500    8487
CTETRA      1543       1    4489    8003    8751    8004    4569    2619+
+           2591    4571    8016    2911
CTETRA      1544       1    4481    8756    8755    8000    2559    8764+
+           2550    4534    2912    2549
CTETRA      1545       1    8004    8723    8751    8750    7004    7074+
+           2911    2590    7075    8768
CTETRA      1546       1    8003    8751    8725    8752    2619    7054+
+           7002    2617    8758    7055
CTETRA      1547       1    4489    8004    8751    8750    4571    2911+
+           2591    2588    2590    8768
CTETRA      1548       1    8028    8778    8779    8806    2913    8795+
+           2914    7043    7101    7102
CTETRA      1549       1    8028    8805    8029    8778    7042    7041+
+           8041    2913    7083    2915
CTETRA      1550       1    8638    6280    6206    7780    6364    2691+
+           6238    6232    2690    6239
CTETRA      1551       1     139    8438    5435    5436     974    5450+
+            979    1367    5457    5455
CTETRA      1552       1    8118    5776    8099    6449    2518    5791+
+           4688    2517    2515    2916
CTETRA      1553       1      82     173     143     170    1971    1953+
+           1927    1954    1938    1945
CTETRA      1554       1    8028    8806    8779    8027    7043    7102+
+           2914    8040    7049    2584
CTETRA      1555       1    8655    7121    6692    6691    1585    2917+
+           6813    6814    1586    6735
CTETRA      1556       1      97    6881    6882    8655    1571    6923+
+           2918    1582    6924    6922
CTETRA      1557       1    6264    7135    6256    6257    2919    2920+
+           6289    6290    2921    6291
CTETRA      1558       1    6257    7135    6256    7136    2921    2920+
+           6291    2922    7319     526
CTETRA      1559       1    7135    7133    6257    6264    7308    2923+
+           2921    2919    2924    6290
CTETRA      1560       1      68    8488    8954    9117    1843    5613+
+           1562     465    8503    5612
CTETRA      1561       1    6257    7133     126    6264    2923     882+
+            877    6290    2924    2925
CTETRA      1562       1    6439    8279    5786    8278    6619    5858+
+           2926    6620    8297    5857
CTETRA      1563       1     170    9003    8497    8496    2927    6026+
+           1942    1957    6029    8499
CTETRA      1564       1    7761    6257    7136    7133    2928    2922+
+           7317    7320    2923    7318
CTETRA      1565       1    6689    8400    6877    7436    2929    6895+
+           2930    2699    7566    2931
CTETRA      1566       1    8653    6689    8400    6877    6818    2929+
+           6896    6894    2930    6895
CTETRA      1567       1    7436    8399    8400    6877    7577    8406+
+           7566    2931    6888    6895
CTETRA      1568       1    7436    8773    8774    6696    7555    8791+
+           7576     637    2569     638
CTETRA      1569       1    4723    5779    5780    6443    2932    5817+
+           2795    2796    2933    2788
CTETRA      1570       1    8400    6689    7439    7436    2929    2934+
+           7563    7566    2699    7564
CTETRA      1571       1    7446    7769    7445    6152    7653    7651+
+           7646    2935    6188    2936
CTETRA      1572       1     130    8605    8604    6947    1918    8609+
+            903    1919    2801     475
CTETRA      1573       1     148    6152    8623    7446    2544    6195+
+           2580    2581    2935    2582
CTETRA      1574       1    9054    7872    9067    9070    2937    7874+
+           2938    7605    4189    7941
CTETRA      1575       1    6267    8783    6266    7446    2939    2686+
+           6300    2530    7661    2726
CTETRA      1576       1     111     114    7128    7127     749     754+
+            742    2381    2383    7248
CTETRA      1577       1      28    9051    7138    7787     274    7350+
+            275     262    7788    2547
CTETRA      1578       1    8623    8624     148    6259    8633    1601+
+           2580    6382    6383    1602
CTETRA      1579       1    7127    9109    5154    7120    7245    5274+
+           1579    7243    7208    1578
CTETRA      1580       1     111    8358    5154    7127     741    5276+
+           2436    2381    7246    1579
CTETRA      1581       1    6265     148     126    6258    2317    1148+
+           2318    6294    1603     880
CTETRA      1582       1    8564      47      45    8563    2940     356+
+           2226    8573     360     359
CTETRA      1583       1      28    7139    7138    7796     278    7349+
+            275     273    7352    7351
CTETRA      1584       1    7829    5781    9058    7839    5829    5832+
+           7833    4105    2758    7844
CTETRA      1585       1     107    8530    5968    5962    1352    6020+
+           1505    2379    5996    6021
CTETRA      1586       1    7837    4386    4387    6407    4434    4430+
+           4433    2941    2942    2533
CTETRA      1587       1    5030    8119    6432    8118    5124    2943+
+           2944    5125    8125    2945
CTETRA      1588       1      23    7442    7441    8369    2203    7597+
+           2110    2209    7600    7599
CTETRA      1589       1     124      29    3752    3754    1746    2602+
+           2603    2128    2127    3863
CTETRA      1590       1    7452    7445    9052    7785    7685    7652+
+           7687    1611    2165    7791
CTETRA      1591       1    8565    6442      47    5785     594     593+
+            596    5850    2497    2523
CTETRA      1592       1    8414    8853    6823    6824     700     702+
+           6833    6840    2946    6837
CTETRA      1593       1    8413    8843    8853    8844    7017    7705+
+            701    7018    8846    7704
CTETRA      1594       1    7756    8712    9138    8702    7029    6969+
+           2947    2948    6970    8704
CTETRA      1595       1    7756    8702    7755    8712    2948    2949+
+           7757    7029    6970    7025
CTETRA      1596       1    7755    8711    8712    8702    7024    8715+
+           7025    2949    6971    6970
CTETRA      1597       1    6202    7751    8707    6203    6212    6984+
+           2950    6216    6219    2951
CTETRA      1598       1    5529    7991     106    5434    5543     713+
+           1514    1364    2952    2953
CTETRA      1599       1    6277    6203    8640    8641    2954    6217+
+           6359    6358    6214    8644
CTETRA      1600       1    8707    7750    6202    8706    6980    6213+
+           2950    8710    6979    2955
CTETRA      1601       1    8409    8849    8408    8839    2956    2957+
+           8410    6991    7699    6987
CTETRA      1602       1    8408    8849    8838    8839    2957    7700+
+           6986    6987    7699    8841
CTETRA      1603       1     129    6255    8603    6262    1913    6346+
+           2958     901    6283    6350
CTETRA      1604       1    6423    6407    7838    6406    6518    2959+
+           2960    6517    6455    2961
CTETRA      1605       1      74    4220    4219    4222     499    4313+
+            859    2456    4322    4321
CTETRA      1606       1      34    7964    4379    7965    1098    4392+
+           1087    1088    7966    4393
CTETRA      1607       1    8702    8701    6281    6205    8705    2962+
+           2963    2964    2965    2966
CTETRA      1608       1    8326    5017    6444    8274    5071    2718+
+           2832    2967    2968    6629
CTETRA      1609       1    6207    9134    8606    6946    2969    2897+
+           2970    2804    6949    2971
CTETRA      1610       1    8274    5017    6444    8273    2968    2718+
+           6629    8287    2717    6630
CTETRA      1611       1    4044    7839    6438    5781    4106    2972+
+           2973    2757    2758    2974
CTETRA      1612       1    4044    4043    4045    8594    4068    4067+
+           4069    2975    2976    2977
CTETRA      1613       1    4044    5781    6438    5782    2757    2974+
+           2973    2978    5830    2979
CTETRA      1614       1    4044    6438    7839    4050    2973    2972+
+           4106    4102    2980    4104
CTETRA      1615       1    4481    4477    6265    4480    4535    2316+
+           2675    4536    4530    2674
CTETRA      1616       1    6447    8270    5777    6448    6636    5800+
+           2981    6589    6637    2982
CTETRA      1617       1    5777    5776    8343    5025    5801    5802+
+           5797    2983    2984    5097
CTETRA      1618       1    6946    7747    6207    9134    6961    6251+
+           2804    6949    6959    2969
CTETRA      1619       1    8596    4046    6406    4048    2985    2986+
+           6610    2987    4093    2988
CTETRA      1620       1      63    4713      49    4718     434     433+
+            431    1486    4756     415
CTETRA      1621       1    4657    4656    6418    4660    4667    2989+
+           2990    4679    4681    2991
CTETRA      1622       1    4657    4658    8094    6402    4668    4671+
+           4672    2992    2993    2994
CTETRA      1623       1    6450    4659    6451    8100    2995    2996+
+           6598    2997    4691    2998
CTETRA      1624       1     172    8925    8924    8514    1854    8943+
+           2999    1866    5954    5947
CTETRA      1625       1    4659    4661    6434    4660    4687    3000+
+           3001    4682    4686    2510
CTETRA      1626       1     173    9123    9124    8983    2734    8484+
+           1940    2300    8984    5774
CTETRA      1627       1    4210    5868    7926    4211    2369    2891+
+           4265    4268    3002    4266
CTETRA      1628       1    5600    8961    4834    8962    5673    2909+
+           3003    5672    8981    2906
CTETRA      1629       1    4656    6434    4660    4659    3004    2510+
+           4681    4676    3001    4682
CTETRA      1630       1    7965    9071    7142    7894    7967    7368+
+           1774    4337    7916    7366
CTETRA      1631       1    6451    4659    7976    7975    2996    4675+
+           3005    3006    4677    7982
CTETRA      1632       1    6419    4656    4658    7977    3007    4666+
+           3008    3009    4662    4664
CTETRA      1633       1    7904    8986    8987    5965    7255    9010+
+           7261    3010    6007    6006
CTETRA      1634       1     130    6930    6931    8686    1917    6935+
+           1924    3011    6932    6939
CTETRA      1635       1    6417    6434    8120    6418    6550    2508+
+           3012    6499    6551    3013
CTETRA      1636       1    8780    7453    9029    7852    7695    7694+
+           7681    1451    3014    4167
CTETRA      1637       1    4657    4658    6402    6418    4668    2993+
+           2992    2990    3015    6501
CTETRA      1638       1    6418    8120    4657    4660    3013    4678+
+           2990    2991    4680    4679
CTETRA      1639       1    8606    6930    6276    6201    2713    2712+
+           6353    3016    3017    3018
CTETRA      1640       1    4057    6452    4063    6451    3019    3020+
+           4156    3021    6601    3022
CTETRA      1641       1    4057    4038    4058    6452    4130    4134+
+           4135    3019    3023    3024
CTETRA      1642       1    4038    6452    4057    7826    3023    3019+
+           4130    4077    3025    4129
CTETRA      1643       1    7826    6452    4057    7825    3025    3019+
+           4129    7834    3026    4131
CTETRA      1644       1    4482    9137    8757    7998    2781    8761+
+           3027    4541    2783    2785
CTETRA      1645       1    4484    9137    6203    6278    2780    3028+
+           2838    2779    2778    2839
CTETRA      1646       1    6705    6698    8745    4504    6752    3029+
+           2658    2527    2538    2657
CTETRA      1647       1      27     134    4693    4456     958     940+
+           3030    2604     952     951
CTETRA      1648       1    4712      34    7429    7433    1029    1383+
+           1385    1382    1381    7525
CTETRA      1649       1    8961    4831    4834    8170    3031    4885+
+           2909    7164    4878    4886
CTETRA      1650       1    6278    8640    6277    6203    6360    6359+
+           6331    2839    6217    2954
CTETRA      1651       1    7878    7879    7792    3771    7883    3032+
+            793     792    3033    3923
CTETRA      1652       1    6279    6271    4480    4485    6335    2558+
+           2638    2639    2684    4556
CTETRA      1653       1     126    6148    6147    7787     878    6163+
+           1614    2157    6160    6164
CTETRA      1654       1    9142    4508    8383    6712    2621    4640+
+           2671     874    2630    2669
CTETRA      1655       1    4473    8754    8753    8001     313    8759+
+           1153    4515    2551    3034
CTETRA      1656       1    8304    5592    5593    8127    3035    5633+
+           3036    3037    5632    5630
CTETRA      1657       1    4507    9143    8772    8034    2769    8788+
+           3038    4639    2770    2773
CTETRA      1658       1    4509    6710    9143    6824    2827    3039+
+           2771    2826    2828    3040
CTETRA      1659       1    6423    7838    6407    4386    2960    2959+
+           6518    1053    4448    2942
CTETRA      1660       1    9138    4483    7780    6280    2634    4542+
+           2692    2693    3041    2690
CTETRA      1661       1    4498    8007    8748    8747    4604    3042+
+           2611    2035    3043    8770
CTETRA      1662       1    3762      92    3803    3738    3044     604+
+           4027    4028     603    4029
CTETRA      1663       1    6826    8854    6708    6823    3045    3046+
+           3047    6850    3048    3049
CTETRA      1664       1    6826    6708    8854    6825    3047    3046+
+           3045    6854    3050    3051
CTETRA      1665       1    8421    9148    6825    6826    7735    2809+
+           6853    6852    2806    6854
CTETRA      1666       1    6826    8854    9148    6825    3045    8857+
+           2806    6854    3051    2809
CTETRA      1667       1    8413    6826    8854    9114    6849    3045+
+           3052    8417    6851    3053
CTETRA      1668       1     167    8105    4807    4806    3054    4814+
+           1692    1684    4812    4811
CTETRA      1669       1    6264    7135    6271    6263    2919    3055+
+           6314    6288    3056    6313
CTETRA      1670       1    8413    9114    8854    8843    8417    3053+
+           3052    7017    7016    7702
CTETRA      1671       1    6208    9134    6207    7747    3057    2969+
+           6252    6250    6959    6251
CTETRA      1672       1    6445    8272    5012    6446    6632    3058+
+           3059    6583    6633    3060
CTETRA      1673       1    6208    9048    8701    9134    6249    3061+
+           3062    3057    6958    8703
CTETRA      1674       1    7453    7853    9028    9029    2166    4169+
+           7692    7694    4170    9032
CTETRA      1675       1    7755    8701    6208    9048    3063    3062+
+           6247    7759    3061    6249
CTETRA      1676       1    7755    9048    8711    8701    7759    7023+
+           7024    3063    3061    6968
CTETRA      1677       1    8246    6392    6391    6071    6684    6462+
+           6685    6134    2488    3064
CTETRA      1678       1    4390      48    6439    8562    1044    1046+
+           1045    2823    2825    3065
CTETRA      1679       1    7744    6201    6204    9133    6228    6227+
+           6226    6943    3066    2805
CTETRA      1680       1      12    8996    8538    8995    1426    6055+
+           1423    2861    9020    6054
CTETRA      1681       1    6204    9135    9047    9133    3067    8694+
+           6225    2805    8692    6942
CTETRA      1682       1    9047    7750    8706    6204    7754    6979+
+           6978    6225    6223    3068
CTETRA      1683       1    8706    9135    9047    6204    8708    8694+
+           6978    3068    3067    6225
CTETRA      1684       1    8134    9094    7114    7146    8137    7187+
+           1967    1008    7387    7389
CTETRA      1685       1    4490    8057    4494      27     445     447+
+           4589    3069    2600     256
CTETRA      1686       1     148    6258    6265    6266    1603    6294+
+           2317    3070    6297    6296
CTETRA      1687       1    5008    6447    6446    5009    3071    6586+
+           3072    5038    3073    3074
CTETRA      1688       1    5784    8563    6440    6441    5847    2499+
+           2498    3075    3076    6568
CTETRA      1689       1     143    7114    9094    7116    1966    7187+
+           1965    1952    7186    7185
CTETRA      1690       1    9044    6947    6149    7741    6953    3077+
+           6169    7742    6954    6177
CTETRA      1691       1    8345    5009    8271    8344    5043    3078+
+           5794    8349    5044    5798
CTETRA      1692       1     130    6931    8681    9044    1924    6934+
+           1226    1920    6937    8683
CTETRA      1693       1    8702    7449    6281    8701    7663    3079+
+           2963    8705    7662    2962
CTETRA      1694       1    8345    8272    5009    5012    5793    3080+
+           5043    5045    3058    5039
CTETRA      1695       1    7133    7132    7760    6148    7333    7332+
+           7331     883     885    6159
CTETRA      1696       1    8594    8280    9106    5782    6616    8292+
+           8602    3081    5833    5834
CTETRA      1697       1    6439    6438    5781    8279    6562    2974+
+           3082    6619    6618    5854
CTETRA      1698       1    5011    5010    5012    6445    5036    5035+
+           5034    3083    3084    3059
CTETRA      1699       1    4038    6453    4045    4039    3085    3086+
+           4071    4072    3087    4070
CTETRA      1700       1      57     147      68    4843    1113    1559+
+            489     549    1114     558
CTETRA      1701       1      45      50    7427      46     364     379+
+            352     350     365     351
CTETRA      1702       1    7826    6453    8265    7827    3088    6647+
+           5823    7831    3089    5838
CTETRA      1703       1      47    5785    6441    5784    2523    2496+
+            592    3090    5852    3075
CTETRA      1704       1    4044    8594    5783    5782    2975    3091+
+           3092    2978    3081    5842
CTETRA      1705       1    8232    7815    4056    8233    6130    4128+
+           3093    8260    6118    3094
CTETRA      1706       1    4056    4053    4052    6404    4121    4120+
+           4119    3095    3096    3097
CTETRA      1707       1    4056    7816    7815    8232    4125    7823+
+           4128    3093    6131    6130
CTETRA      1708       1    5785    6441    5784    8277    2496    3075+
+           5852    5851    6623    5844
CTETRA      1709       1      33    7152    7140    7154    1005    7403+
+           2413    1022    7415    7418
CTETRA      1710       1    4056    6405    4054    4055    3098    3099+
+           4122    4123    3100    4118
CTETRA      1711       1    5021    5023    5022    6398    5089    5090+
+           5082    3101    3102    2454
CTETRA      1712       1      97    8655    8654    6691    1582    8662+
+           1589    1583    6814    6815
CTETRA      1713       1    8334    6399    5023    8333    1779    3103+
+           5092    8341    3104    5095
CTETRA      1714       1    5019    5023    6399    5018    5086    3103+
+           3105    5088    5087    3106
CTETRA      1715       1      66    7427    7432    7434    2079    7523+
+           1103    2081    7531    7529
CTETRA      1716       1     111    5156    5154    5155    2433    5284+
+           2436    3107    5286    5278
CTETRA      1717       1    4490    8050    7942    4694    2576    4707+
+            927    3108    4705    4708
CTETRA      1718       1       9      74      71    4219     853     500+
+            867     860     859    1253
CTETRA      1719       1    7429    4712    8147    8133    1385    4728+
+           7524    1384    4725    4727
CTETRA      1720       1    4377    7432    7427    7958    2643    7523+
+           3109    4405    7522    7500
CTETRA      1721       1    7959    7432    4377    7958    7520    2643+
+           4396    7961    7522    4405
CTETRA      1722       1      50      66    7426    7434     454     456+
+            453    2080    2081    7535
CTETRA      1723       1    6395    6396    6068    8242    6478    2831+
+           2479    6677    6676    6113
CTETRA      1724       1    4712    8147    4711    7433    4728    4730+
+           4729    1382    7526    2500
CTETRA      1725       1    7430    7431    7419      34    7508    7515+
+           7512    1386    2025    3110
CTETRA      1726       1      63    8566    9086    4722    3111    5514+
+           3112    1488    3113    4771
CTETRA      1727       1    4711    7433    8146    7426    2500    7534+
+           4745     452    7536    7495
CTETRA      1728       1      33    4711    4712    4710    1197    4729+
+           1021    1019    4736    4735
CTETRA      1729       1      32    4712    8140    4710    1020    4732+
+           1028    1018    4735    4737
CTETRA      1730       1    7433    4712    8147    7429    1382    4728+
+           7526    7525    1385    7524
CTETRA      1731       1    6204    9133    6201    8697    2805    3066+
+           6227    3114    8698    3115
CTETRA      1732       1    7755    8702    8701    8711    2949    8705+
+           3063    7024    6971    6968
CTETRA      1733       1    4829    8888    5693    5692    2903    5773+
+           2908    2902    5765    5770
CTETRA      1734       1    9144    8034    9143    9080    7020    2770+
+           8837    7019    8047    2830
CTETRA      1735       1    7750    6202    7751    8707    6213    6212+
+           7752    6980    2950    6984
CTETRA      1736       1      88    5531    8473    8472    1362    5552+
+           1647    2058    5553    8476
CTETRA      1737       1    6930    8697    6276    6201    2803    3116+
+           2712    3017    3115    3018
CTETRA      1738       1    9133    8697    6204    9135    8698    3114+
+           2805    8692    6962    3067
CTETRA      1739       1    6930    6201    9133    8697    3017    3066+
+           6933    2803    3115    8698
CTETRA      1740       1    8220    8306    9100    5177    3117    8309+
+           3118    3119    5335    5334
CTETRA      1741       1    8701    6207    6282    6208    3120    3121+
+           3122    3062    6252    3123
CTETRA      1742       1    8682    6946    6207    8606    6957    2804+
+           2710    3124    2971    2970
CTETRA      1743       1    8782    6265    4477    4476    3125    2316+
+           2069    2554    2683    4522
CTETRA      1744       1     128    8862    7706    8848    3126    7708+
+           2045    2046    7222    2047
CTETRA      1745       1    8418    9147    9113    6829    7719    7718+
+           8420    6872    3127    6871
CTETRA      1746       1     140    8438    5591    5592     976    5628+
+           3128    1632    5638    5639
CTETRA      1747       1    8854    7722    6825    6708    2808    2807+
+           3051    3046    3129    3050
CTETRA      1748       1    9113    9145    8838    8848    8858    8840+
+           6985    3130    7696    7697
CTETRA      1749       1    4845    5683    8881    8880    2817    5723+
+           2754    2714    5718    8900
CTETRA      1750       1     136    8305    5182    8127    1733    5358+
+           1734     985    2358    3131
CTETRA      1751       1    8418    6829    6822    9147    6872    6873+
+           6845    7719    3127    3132
CTETRA      1752       1    9148    8854    9114    9146    8857    3053+
+           7734    8861    7701    8859
CTETRA      1753       1    8869    8418    6822    7706    7720    6845+
+           2705    7717    7721    3133
CTETRA      1754       1     165    3789    3786    3779    1706    3972+
+           1703    2327    3970    3960
CTETRA      1755       1    8848    7706     127    6822    2047    2048+
+           1629    1630    3133    1496
CTETRA      1756       1    8613     128     133    8614     921     922+
+            924    8618     895    3134
CTETRA      1757       1     136    5184    5174    5173    1679    5365+
+           1680    2459    5366    5325
CTETRA      1758       1    8413    8853    8854    6823     701    8855+
+           3052    6834     702    3048
CTETRA      1759       1      87    5532    5533    8577    1898    5562+
+           3135    1203    5559    5563
CTETRA      1760       1    8844    8414    8853    8413    7022     700+
+           7704    7018    8415     701
CTETRA      1761       1    9114    9146    8854    8843    8859    7701+
+           3053    7016    8845    7702
CTETRA      1762       1    6826    9114    9148    8854    6851    7734+
+           2806    3045    3053    8857
CTETRA      1763       1    4039    8595    4043    4040    3136    3137+
+           4064    4065    3138    4066
CTETRA      1764       1    4038    4039    4058    6453    4072    4132+
+           4134    3085    3087    3139
CTETRA      1765       1      48    4391    4389    4390    1047    4451+
+           3140    1044    4452    4447
CTETRA      1766       1      50    8087    7434    8086     372    7532+
+           2080     459    8092    7533
CTETRA      1767       1    4044    4045    5783    8594    4069    3141+
+           3092    2975    2977    3091
CTETRA      1768       1      92    3804    3803    3737    3142    4034+
+            604     602    4036    4037
CTETRA      1769       1     122    3801    3802    3793    1397    4024+
+           3143    1402    4012    4020
CTETRA      1770       1    4483    4479    4480    6273    4546    4531+
+           4555    2676    2677    2678
CTETRA      1771       1    4043    4048    4040    8595    4091    4090+
+           4066    3137    3144    3138
CTETRA      1772       1      48    4389    4388    4390    3140    4442+
+           1055    1044    4447    4446
CTETRA      1773       1     124    3754    3757    3756    2128    3873+
+           3145     838    3866    3871
CTETRA      1774       1    5866    5865    7859    7927    5892     721+
+           3146    3147    3148    4272
CTETRA      1775       1    8753      40    4486    7847     321    1162+
+           1152     325     324    1155
CTETRA      1776       1     110    5868    4210    4211    2368    2369+
+           2367    2371    3002    4268
CTETRA      1777       1    7451    6274    7450    7449    1250    1248+
+           7672    7671    2875    7668
CTETRA      1778       1     120     124     121     123     839    2308+
+            826     831    1608    1399
CTETRA      1779       1     110    4211    4209    4212    2371    4269+
+           3149    2261    4274    4275
CTETRA      1780       1     110     109    5864    5865     732    2255+
+           2374     735     734    5898
CTETRA      1781       1    4211    7927    5865    8911    4267    3148+
+           2370    3150    7603    5907
CTETRA      1782       1    4211    8911    7926    7927    3150    7608+
+           4266    4267    7603    7932
CTETRA      1783       1    7123    8393    6693    7122    7212    2744+
+           2743    7214    7213    3151
CTETRA      1784       1     144    5959    8533    5960    1077    5984+
+           2057    2262    5986    5988
CTETRA      1785       1      95    4502    6697    4506     650    2314+
+            641     640    4633     642
CTETRA      1786       1      48      47    6441    8563     357     592+
+           1058     361     360    3076
CTETRA      1787       1    7817    6070    4042    6069    6122    3152+
+           4114    6124    6126    3153
CTETRA      1788       1    5593    5592    8304    8172    5633    3035+
+           3036    3154    3155    4896
CTETRA      1789       1     140    4835    4833    4836    1634    4893+
+           1639    1635    4898    4899
CTETRA      1790       1     107    4209    4208    4212    1668    4260+
+           1670     729    4275    4276
CTETRA      1791       1     138    8472      88    8473    2343    2058+
+           1645     969    8476    1647
CTETRA      1792       1    4834    4835    4833    5597    4892    4893+
+           4888    2905    3156    1640
CTETRA      1793       1    4790    8219    5176    8220    4795    3157+
+           3158    4796    8221    3159
CTETRA      1794       1    5592     140    5597    5591    1632    1637+
+           5654    5639    3128    5656
CTETRA      1795       1     157    7918    8924    7443    2008    7628+
+           2037    1937    7627    7629
CTETRA      1796       1    4835    8172    5592    8963    4891    3155+
+           1633    3160    7157    5653
CTETRA      1797       1    4835    8171    8172    8963    4890    8177+
+           4891    3160    7156    7157
CTETRA      1798       1      76    8471    5688    8470    1902    5748+
+           2793    2792    8479    5747
CTETRA      1799       1    4839    8191    8883    8884    4907    7464+
+           2791    3161    7462    8901
CTETRA      1800       1      66    7433    4712    4711    1380    1382+
+           1032     455    2500    4729
CTETRA      1801       1      46    4377    4382    4381    1195    4408+
+            354    2087    4406    4410
CTETRA      1802       1    8172    8963    8964    5592    7157    8977+
+           7193    3155    5653    5634
CTETRA      1803       1    6407    4386      48    6423    2942    1035+
+           2225    6518    1053    1052
CTETRA      1804       1      66    7433    7434    7432    1380    7530+
+           2081    1103    7528    7529
CTETRA      1805       1      33    4379    4377    4378    1006    4397+
+           1192    1003    4402    4403
CTETRA      1806       1    4360    7877    3772    3776    4373    3162+
+           3163    3164    3165    3912
CTETRA      1807       1    7430    7959      34    7964    7507    1095+
+           1386    2822    4394    1098
CTETRA      1808       1      46    4382    4377    7427     354    4408+
+           1195     351     355    3109
CTETRA      1809       1    4041    8597    4054    8596    3166    3167+
+           4110    3168    8599    3169
CTETRA      1810       1    7864    3738    9059    7848    3170    3171+
+           7865    4172    1800    7850
CTETRA      1811       1       2    4225    4220    4222     181    4323+
+           2457     778    4325    4322
CTETRA      1812       1    4041    8596    4046    8597    3168    2985+
+           4080    3166    8599    3172
CTETRA      1813       1    4041    4046    8596    4048    4080    2985+
+           3168    4092    4093    2987
CTETRA      1814       1    4039    4040    6437    8595    4065    3173+
+           3174    3136    3138    6650
CTETRA      1815       1    5007    6430    5008    6414    2470    2469+
+           5033    2491    6539    3175
CTETRA      1816       1    6397    5014    5005    5013    3176    5051+
+           3177    3178    5056    5046
CTETRA      1817       1    5013    6430    5006    6414    3179    2524+
+           5048    3180    6539    2051
CTETRA      1818       1    6275    8606    6282    8701    6372    6370+
+           6345    3181    3182    3122
CTETRA      1819       1     118    8516    8926    8925    1871    5951+
+           2281    1855    5955    8944
CTETRA      1820       1     116    8491     115    8492    1411    1421+
+            786    1071    8506    1419
CTETRA      1821       1    5011    5015    6429    6430    5058    3183+
+           3184    2471    2525    6537
CTETRA      1822       1    6449    6432    8118    6448    6593    2945+
+           2517    6592    6591    2519
CTETRA      1823       1    8099    5776    8269    6449    5791    5787+
+           5789    2916    2515    6639
CTETRA      1824       1    5511    8564    8565      47    5523    8574+
+           5522     374    2940     596
CTETRA      1825       1     152    7429    7431    7428    1593    7509+
+           2026    1591    7513    7518
CTETRA      1826       1     142    8495     173    8949    2021    1958+
+           1949    1947    5608    1948
CTETRA      1827       1      31    7149    7144    7147    1387    7378+
+           2445    1014    7380    7371
CTETRA      1828       1    8118    4661    6433    6449    4685    3185+
+           3186    2517    3187    6594
CTETRA      1829       1    6434    6433    4661    6450    6549    3185+
+           3000    6597    6596    3188
CTETRA      1830       1     123    7453    7852    7853     833    3014+
+           2167    1406    2166    7856
CTETRA      1831       1    6433    8118    6432    8119    3186    2945+
+           6546    3189    8125    2943
CTETRA      1832       1     142     115    8493    8492    1418    3190+
+           1962    1072    1419    8507
CTETRA      1833       1      82    7147    7114    7148    1013    7386+
+           1972    2276    7383    7385
CTETRA      1834       1     170    9128    7119    8983    2653    7299+
+           2397    2735    8985    7300
CTETRA      1835       1    4661    8100    6450    8099    4690    2997+
+           3188    4689    8102    3191
CTETRA      1836       1     153     155    8516    8874    1869    1873+
+           1872    3192    3193    5698
CTETRA      1837       1    4487    8753      40    4486    1154     321+
+           1462    4566    1152    1162
CTETRA      1838       1    9057    8100    8267    6451    8103    5827+
+           5828    3194    2998    6643
CTETRA      1839       1    4849      21      22    8877     236     241+
+            242     227     238    1884
CTETRA      1840       1     124    7452    3759    7785    1612    2161+
+           3195    1600    1611    3880
CTETRA      1841       1     148    6265    4477    8782    2317    2316+
+           1149    2071    3125    2069
CTETRA      1842       1     117    9127    7421    7422    2287    7487+
+           1216    2285    7488    7490
CTETRA      1843       1      65    4388    4384    4380    1054    4441+
+           1049    2091    4437    4424
CTETRA      1844       1     138    4836    4833    4832    1448    4899+
+           1650    1445    4900    4884
CTETRA      1845       1    7420     152     155    7421    2655    1214+
+           2292    7485    1218    1217
CTETRA      1846       1     155    8518    9127    9126    3196    5699+
+           2730    2275    8522    8486
CTETRA      1847       1     148    7452    7445    8781    1610    7685+
+           2164    2116    7686    7684
CTETRA      1848       1    8782     148    7445    8781    2071    2164+
+           7648    8797    2116    7684
CTETRA      1849       1    6266    7446    6259    6267    2726    2532+
+           6298    6300    2530    6301
CTETRA      1850       1      73    4385    4384    4386    2507    4426+
+           1050    1041    4427    4428
CTETRA      1851       1      97    7127    7120    8748    1580    7243+
+           1569    2387    7244    7242
CTETRA      1852       1     128     133    8614    7723     922    3134+
+            895    2739    1741    2859
CTETRA      1853       1      27    4490    8057    7945    3069     445+
+           2600    3197     918    4470
CTETRA      1854       1    7707     128    6700    8862    2649    3198+
+           2646    7715    3126    2750
CTETRA      1855       1      97    8747    6691    6690    1587    1588+
+           1583    1590    2134    6731
CTETRA      1856       1     152    7428    7421    7420    1591    7501+
+           1218    2655    7503    7485
CTETRA      1857       1      97    8748    7120    8747    2387    7242+
+           1569    1587    8770    7204
CTETRA      1858       1      97    7121    8747    7120    1584    7203+
+           1587    1569    7202    7204
CTETRA      1859       1     173     170      82    8983    1938    1954+
+           1971    2300    2735    2301
CTETRA      1860       1     118    7444    8926    9125    1852    7640+
+           2281     800    7636    8942
CTETRA      1861       1      28      36      29    7138     306    1736+
+            264     275     320    1754
CTETRA      1862       1     126      38    4478    8754    1407    1613+
+            872     886     309     887
CTETRA      1863       1      36    8754    7138    8753     310    7343+
+            320     322    8759    7345
CTETRA      1864       1    7132    7138    7787     126    7344    2547+
+           3199     884    2074    2157
CTETRA      1865       1      49      60      61    6410     414     419+
+            418     458     457     692
CTETRA      1866       1    7853    3793    3792     122    3200    4010+
+           1390    1405    1402    3201
CTETRA      1867       1    7133     126    6264    8755     882    2925+
+           2924    7330     888    2560
CTETRA      1868       1     132    4491    8780    4488    2313    1453+
+           2168    1465    4573    2171
CTETRA      1869       1     173    7116    8948    9123    1951    7192+
+           2879    2734    7190    8965
CTETRA      1870       1    4657    6418    4656    4658    2990    2989+
+           4667    4668    3015    4666
CTETRA      1871       1    6418    6434    4660    4656    6551    2510+
+           2991    2989    3004    4681
CTETRA      1872       1     117      34    7964    7419    2283    1098+
+           2296     801    3110    2288
CTETRA      1873       1    6418    6419    4656    4658    6503    3007+
+           2989    3015    3008    4666
CTETRA      1874       1    4658    8095    6403    7978    4670    3202+
+           3203    4665    4669    3204
CTETRA      1875       1     155    8517    8873    8518    3205    5702+
+           2731    3196    8524    5700
CTETRA      1876       1       8     172     157      20    1859    1865+
+           1875     762    1860    1864
CTETRA      1877       1     117    9126    9127    8945     798    8486+
+           2287    2286    5775    8947
CTETRA      1878       1    6204    8697    6201    6276    3114    3115+
+           6227    3206    3116    3018
CTETRA      1879       1    6930    6276    8697    6269    2712    3116+
+           2803    1915    6327    2854
CTETRA      1880       1    7420     152    8185     153    2655    2732+
+           7474    2294    2012    2733
CTETRA      1881       1    8567    4722    9086    8566    3207    4771+
+           5513    8569    3113    5514
CTETRA      1882       1     118    7419    7444    9125     802    7635+
+           1852     800    7634    7636
CTETRA      1883       1    7847      40    4486    9063     324    1162+
+           1155    7849    1160    1159
CTETRA      1884       1     105    3787    4344    7972     722    1701+
+           1709    3208    3209    4354
CTETRA      1885       1    6202    6204    8697    8706    6224    3114+
+           3210    2955    3068    6963
CTETRA      1886       1    6204    6202    6276    8642    6224    3211+
+           3206    6229    6230    6356
CTETRA      1887       1    6423    4386    4391    7838    1053    4449+
+           1051    2960    4448    4450
CTETRA      1888       1    6204    8697    6276    6202    3114    3116+
+           3206    6224    3210    3211
CTETRA      1889       1    7134     130    6930    6269    1909    1917+
+           2848    1908    1907    1915
CTETRA      1890       1    8682    8606    8605    6946    3124    8610+
+           1926    6957    2971    1925
CTETRA      1891       1    6930    8682    8606    8605    6941    3124+
+           2713    1916    1926    8610
CTETRA      1892       1    8701    7449    6281    6282    7662    3079+
+           2962    3122    3212    6343
CTETRA      1893       1    6205    7756    8702    7755    6233    2948+
+           2964    6234    7757    2949
CTETRA      1894       1    9048    9136    8711    8701    8695    8713+
+           7023    3061    6967    6968
CTETRA      1895       1    8701    6208    9134    6207    3062    3057+
+           8703    3120    6252    2969
CTETRA      1896       1    9134    8701    6275    8689    8703    3181+
+           2895    8690    7666    2852
CTETRA      1897       1    7755    6205    8701    8702    6234    2965+
+           3063    2949    2964    8705
CTETRA      1898       1     130    8604    8605    6269     903    8609+
+           1918    1907    6352    6351
CTETRA      1899       1       6    4849    4846    4848     225    4949+
+            810     222    4953    4952
CTETRA      1900       1    8195    9100    5691    8306    8199    3213+
+           3214    4901    8309    3215
CTETRA      1901       1    7722    8854    6701    6708    2808    2856+
+           2858    3129    3046    6759
CTETRA      1902       1      87    8578    8577    5533     567    8590+
+           1203    3135    5568    5563
CTETRA      1903       1    9100    8220    9098    9092    3118    4969+
+           7540    3216    8222    8161
CTETRA      1904       1    7722    8854    8865    6701    2808    7575+
+           7724    2858    2856    1742
CTETRA      1905       1    9100    9092    9098    5691    3216    8161+
+           7540    3213    5754    5757
CTETRA      1906       1    4789     101    8113    8112    3217    2242+
+           4794    4791    1677    8114
CTETRA      1907       1    8413    8843    8854    8853    7017    7702+
+           3052     701    7705    8855
CTETRA      1908       1    6826    6823    6708    8666    6850    3049+
+           3047    6856    6855    6788
CTETRA      1909       1    8615    8869     127    8614    2708     890+
+           1495    8619     892     891
CTETRA      1910       1    6701     133    7723    8614    1743    1741+
+           1744    6783    3134    2859
CTETRA      1911       1    7722    6708    8614    8615    3129    6786+
+           2707    2709    6785    8619
CTETRA      1912       1    5176    8220    5175    4790    3159    2197+
+           5330    3158    4796    2198
CTETRA      1913       1    9147    6822    8848    6829    3132    1630+
+           8851    3127    6873    3218
CTETRA      1914       1    8408    8848    8838    8849    3219    7697+
+           6986    2957    8850    7700
CTETRA      1915       1    8848    7124    8849    6707    7218    7219+
+           8850    1652    3220    3221
CTETRA      1916       1    8862     128    6700    7124    3126    3198+
+           2750    7220    3222    3223
CTETRA      1917       1    4205    5960    5961    8989    2264    5991+
+           1660    2868    5990    5992
CTETRA      1918       1    9147    9113    8848    9145    7718    3130+
+           8851    8860    8858    7696
CTETRA      1919       1    5018    6399    6064    8333    3106    3224+
+           3225    5093    3104    6079
CTETRA      1920       1    4806    5193    5162    5161    3226    5389+
+           3227    3228    5388    5353
CTETRA      1921       1    8392    6692    8656    7121    2741    6812+
+           6925    7206    2917    3229
CTETRA      1922       1    7121    8390    7120    6881    7209    7207+
+           7202    2175    6917    1572
CTETRA      1923       1    8392    8656    6692    6693    6925    6812+
+           2741    2742    6811    6739
CTETRA      1924       1     167    8106    8112    8105    1673     646+
+           1674    3054    8107     645
CTETRA      1925       1    7772    6261    6151    8621    2729    2377+
+           6181    6182    6378    6180
CTETRA      1926       1    8622    7446    7770    7771    3230    7649+
+           6197    6196    7650    7775
CTETRA      1927       1    6274    7449    6275    6282    2875    2853+
+           6324    6344    3212    6345
CTETRA      1928       1    8622    8621    6261    7771    8634    6378+
+           6379    6196    6198    2696
CTETRA      1929       1     137    8438    8127    9089     973    5637+
+            980    3231    8440    8129
CTETRA      1930       1    8172    5592    8964    5593    3155    5634+
+           7193    3154    5633    5635
CTETRA      1931       1    7450    7449    6274    6281    7668    2875+
+           1248    3232    3079    6342
CTETRA      1932       1    9099    8227    9091    9097    3233    8229+
+           3234    7195    4975    8160
CTETRA      1933       1    4041    4055    4054    8597    4117    4118+
+           4110    3166    3235    3167
CTETRA      1934       1    9053    5967    9068    8986    3236    6009+
+           3237    7254    6014    6016
CTETRA      1935       1    4038    7827    4045    6453    4076    4078+
+           4071    3085    3089    3086
CTETRA      1936       1    4055    6070    7816    4056    3238    6123+
+           4124    4123    3239    4125
CTETRA      1937       1    4053    8233    6404    4056    3240    6659+
+           3096    4121    3094    3095
CTETRA      1938       1    4053    4059    6404    4060    4136    3241+
+           3096    4139    4142    3242
CTETRA      1939       1    6399    5019    6415    5021    3105    3243+
+           6489    3244    5079    3245
CTETRA      1940       1    8465      14    5683    5684    1553    2401+
+           5716    5728    1552    5724
CTETRA      1941       1    4842    8166    8956    4840    4919    7167+
+           1527    4923    4925    2865
CTETRA      1942       1      97    8747    4498    8748    1587    2035+
+           2033    2387    8770    2611
CTETRA      1943       1    4839    4838    5682    8883    4911    1237+
+           1231    2791    2790    5733
CTETRA      1944       1    4222    4223    8921    7919    4320    2462+
+            777    4318    4317    7623
CTETRA      1945       1      15    4218    7921    4216    1617    4295+
+           1724     865    4299    4301
CTETRA      1946       1    9053    9069    8986    9068    7256    9011+
+           7254    3237    7940    6016
CTETRA      1947       1      93    3790    3764    3763    1838    3985+
+           3246     610    3987    3906
CTETRA      1948       1    4221    7897    8996    7898    4306    7274+
+           1427    4305    7912    7276
CTETRA      1949       1    8993    5969    7899    4215    6037    2463+
+           7268    3247    1548    4284
CTETRA      1950       1    6392    6071    4387    6391    2488    3248+
+           3249    6462    3064    2534
CTETRA      1951       1    8408    8848    9113    8838    3219    3130+
+           8412    6986    7697    6985
CTETRA      1952       1    9139    7751    6203    8707    6983    6219+
+           3250    8709    6984    2951
CTETRA      1953       1    8697    8696    6276    6202    8700    3251+
+           3116    3210    3252    3211
CTETRA      1954       1    8707    9139    9137    6203    8709    8716+
+           6964    2951    3250    3028
CTETRA      1955       1    7792    7879    7885    9053    3032    4196+
+           7258    7802    3253    7257
CTETRA      1956       1    9053    7885    9069    7879    7257    7887+
+           7256    3253    4196    4195
CTETRA      1957       1    8696    6203    9137    6277    3254    3028+
+           8699    3255    2954    3256
CTETRA      1958       1    6202    8706    8696    8707    2955    6966+
+           3252    2950    8710    6965
CTETRA      1959       1    4360    3770    3777    3776    3257    3925+
+           3258    3164    3918    3927
CTETRA      1960       1     137    5530    9090    8473     971    5548+
+            961     968    5549    8475
CTETRA      1961       1    9053    9069    9068    7879    7256    7940+
+           3237    3253    4195    7881
CTETRA      1962       1    7756    9138    8712    9140    2947    6969+
+           7029    7027    8717    8714
CTETRA      1963       1    9048    8701    9134    9136    3061    8703+
+           6958    8695    6967    8693
CTETRA      1964       1    4832    8195    8889    5689    4880    7539+
+           3259    3260    3261    5761
CTETRA      1965       1    9099    5593    9097    9091    3262    5636+
+           7195    3234    5631    8160
CTETRA      1966       1    7755    6208    8701    6205    6247    3062+
+           3063    6234    6248    2965
CTETRA      1967       1    5178    9091    8227    8127    3263    8229+
+           3264    3265    8128    4816
CTETRA      1968       1    8854    8853    6708    6823    8855    3266+
+           3046    3048     702    3049
CTETRA      1969       1    8414    9143    8853    6824    3267    8856+
+            700    6840    3040    2946
CTETRA      1970       1    9100    9098    8890    5691    7540    8905+
+           7538    3213    5757    5755
CTETRA      1971       1    8853    9143    6709    6824    8856    3268+
+           3269    2946    3040    3270
CTETRA      1972       1     133    6878    8427    9116     995    6897+
+            996     923    6898    8428
CTETRA      1973       1     133    6701    7437    6694    1743    2855+
+            998    2849    6740    2850
CTETRA      1974       1    3783    7872    7972    9067    3271    4353+
+           3272    3273    7874    7973
CTETRA      1975       1    7839    9058    9121    5786    7844    8464+
+           4454    3274    5859    5856
CTETRA      1976       1    9054    9067    5866    9070    2938    5890+
+           3275    7605    7941    5895
CTETRA      1977       1    7857    5967    7969    9068    3276    6010+
+           2336    3277    6009    7970
CTETRA      1978       1     155    8518    8873    9127    3196    5700+
+           2731    2730    5699    8892
CTETRA      1979       1     118    9125    8926    8518     800    8942+
+           2281    3278    5953    5952
CTETRA      1980       1     115    9001     171    8493    2016    2015+
+           1881    3190    6034    1963
CTETRA      1981       1    7438    6695    7440    7437    2703    2702+
+           7572    7558    3279    7573
CTETRA      1982       1    8959    5599    8960    4828    5664    5665+
+           8979    2820    1262    3280
CTETRA      1983       1    4836    8304    8305    8127    4894    8307+
+           4895    2357    3037    2358
CTETRA      1984       1     172    7443    8924    8925    1932    7629+
+           2999    1854    7633    8943
CTETRA      1985       1     152    8133    7429    9093    1206    1384+
+           1593    1592    8136    7514
CTETRA      1986       1     139     106    5530    8575    1348    3281+
+            972    1354    1353    5545
CTETRA      1987       1    5874    8924    8513     157    5946    5945+
+           5943    3282    2037    2036
CTETRA      1988       1      85    8531     149    8532    2052    2364+
+           1172    2061    8542    2363
CTETRA      1989       1     118    8517    8926    8516    3283    5950+
+           2281    1871    8523    5951
CTETRA      1990       1     173    8948    8495    8496    2879    5603+
+           1958    1956    5602    8498
CTETRA      1991       1     173    9123    8497    9124    2734    5605+
+           1941    1940    8484    8500
CTETRA      1992       1     106    9078    5530    8575     716    5544+
+           3281    1353    8585    5545
CTETRA      1993       1     105    4212    7858    7859     717    4271+
+            723     718    4270    7863
CTETRA      1994       1    8461    4390    8562    4388    4444    2823+
+           5517    4443    4446    2824
CTETRA      1995       1    4227       8     171      82    1772    1771+
+           1773    1770    1928    1955
CTETRA      1996       1    7836    9056    6072    9119    7840    6139+
+           2394    4436    8456    6146
CTETRA      1997       1    8853    6823    6709    6708     702    3284+
+           3269    3266    3049    6760
CTETRA      1998       1    6824    8414    9143    9080    6840    3267+
+           3040    6841    8416    2830
CTETRA      1999       1     173    9123    8948    8497    2734    8965+
+           2879    1941    5605    5604
CTETRA      2000       1     153    7424    8874    8875    2650    7481+
+           3192    2030    7478    8891
CTETRA      2001       1    8707    6203    8696    6202    2951    3254+
+           6965    2950    6216    3252
CTETRA      2002       1     170    9003    9128    8497    2927    9012+
+           2653    1942    6026    6025
CTETRA      2003       1    4484    9049    6203    9137    4549    6220+
+           2838    2780    2840    3028
CTETRA      2004       1      21       5      22      74     771     782+
+            241     773     770    1814
CTETRA      2005       1      82    7148    7114    8983    2276    7385+
+           1972    2301    7384    7189
CTETRA      2006       1     147    8955    5589    8954    2452    5611+
+           1557    1561    8968    5610
CTETRA      2007       1    9049    7751    6203    9139    7753    6219+
+           6220    6981    6983    3250
CTETRA      2008       1     172     153    8515    8514    1868    2280+
+           2279    1866    2032    8519
CTETRA      2009       1    6278    9137    6271    4482    2778    3285+
+           6333    2782    2781    2562
CTETRA      2010       1     173    8948    8496    8497    2879    5602+
+           1956    1941    5604    8499
CTETRA      2011       1      74    8921    8510      21    2461    5927+
+           1813     773    1145    1147
CTETRA      2012       1    4488    8780    8781    8026    2171    8798+
+           2312    4563    3286    2552
CTETRA      2013       1     170    7130    7131    9002    1759    7294+
+           1762    3287    7293    7291
CTETRA      2014       1     170    7131    9003    9002    1762    7292+
+           2927    3287    7291    9013
CTETRA      2015       1     173    8948    7116    8949    2879    7192+
+           1951    1948    8967    7191
CTETRA      2016       1    4487      40      36      39    1462     316+
+           1757    1464     315     314
CTETRA      2017       1    7138    7787     126      29    2547    2157+
+           2074    1754     263    2309
CTETRA      2018       1     155    8517    8516    8873    3205    8523+
+           1873    2731    5702    5701
CTETRA      2019       1    8754    8000    8755    8728    3288    2549+
+           8763    7065    6996    7066
CTETRA      2020       1      76     162      88      87    1304    1904+
+           1903    1985    1906    1897
CTETRA      2021       1     126    6265    6257    6264    2318    6293+
+            877    2925    6292    6290
CTETRA      2022       1     153    8874    8516    8515    3192    5698+
+           1872    2280    5697    8521
CTETRA      2023       1     124     121      39     169    2308    2310+
+           1748    1745    2302    2073
CTETRA      2024       1      81    7117    7131    7130    3289    7295+
+           1761    1760    7287    7294
CTETRA      2025       1     126     148    6147    6258    1148    1604+
+           1614     880    1603    1605
CTETRA      2026       1    8755    8000    8729    8728    2549    6998+
+           7067    7066    6996    8734
CTETRA      2027       1     115    5971    8999    9000    1420    6048+
+            759    2652    6047    9019
CTETRA      2028       1      27    7945     131    4490    3197     925+
+            932    3069     918     929
CTETRA      2029       1    8004    8751    8723    8724    2911    7074+
+           7004    7003    7056    8737
CTETRA      2030       1     171    8493    9001    8494    1963    6034+
+           2015    1960    8501    6033
CTETRA      2031       1     170    8495    9002    9003    1959    6028+
+           3287    2927    6027    9013
CTETRA      2032       1      81    7143    7149    7148    3290    7381+
+           2278    2277    7376    7382
CTETRA      2033       1    8311    4492    8154    9081    1122    2598+
+           4981    8314    1125    8156
CTETRA      2034       1     170    8496    8495    9003    1957    8498+
+           1959    2927    6029    6027
CTETRA      2035       1      34    7431    7419     117    2025    7515+
+           3110    2283    2284     801
CTETRA      2036       1    4495    8749    8748    8006    1786    8771+
+           2390    4593    3291    3292
CTETRA      2037       1     155    8874    8873    8516    3193    8893+
+           2731    1873    5698    5701
CTETRA      2038       1     119    4848    4846    8163    1878    4952+
+            817    1065    4950    4943
CTETRA      2039       1    8749    8721    8748    8006    7080    7079+
+           8771    3291    7014    3292
CTETRA      2040       1      81    7130    4226    7894    1760    1767+
+           1765    1768    7285    4331
CTETRA      2041       1    5437      88      80     162     574    1646+
+           1896    1893    1904    1895
CTETRA      2042       1      34    4712    8133    8134    1029    4725+
+           1099    1027    4726    8135
CTETRA      2043       1     143      82    8134    7114    1927    1010+
+           1964    1966    1972    1967
CTETRA      2044       1    8414    9143    9080    9144    3267    2830+
+           8416    7021    8837    7019
CTETRA      2045       1    4849    8186    7423    8877    4956    7469+
+           2644     227    7468    7467
CTETRA      2046       1    4509    9080    6824    9143    4647    6841+
+           2826    2771    2830    3040
CTETRA      2047       1    5597      75    4834    5600     535     522+
+           2905    5669    2345    3003
CTETRA      2048       1      27    8157     134    4456     959     954+
+            958    2604    4462     952
CTETRA      2049       1    6710    9143    6703    4507    3039    3293+
+           6765    2774    2769    2573
CTETRA      2050       1      97    4499    8748    4498     652    2386+
+           2387    2033    4607    2611
CTETRA      2051       1      42      95     174    7441    2004    2105+
+           2098     339    2429    2108
CTETRA      2052       1     152    4851    8133    4850    2028    4959+
+           1206    2042    4963    4962
CTETRA      2053       1     142    8949    8494    8495    1947    5609+
+           1961    2021    5608    8502
CTETRA      2054       1      97     166    7127     114    1566    2382+
+           1580    1575    1577    2383
CTETRA      2055       1    8775    8032    8774    8801    2777    2673+
+           8790    7092    7034    7093
CTETRA      2056       1      27    4489    4490    4694    3294    4577+
+           3069     930    2597    3108
CTETRA      2057       1      20    8514      19     172     588     590+
+            235    1860    1866    1862
CTETRA      2058       1    5601    4831    4834    8961     511    4885+
+           2898    5674    3031    2909
CTETRA      2059       1    4476    4479    8783    6273    4527    2688+
+           2685    2679    2677    2543
CTETRA      2060       1      68      72      22       1     492    2427+
+            813     821    1163     784
CTETRA      2061       1    6273    6266     158    8783    6320    3295+
+           1242    2543    2686    2542
CTETRA      2062       1    8783    8782    8810    8025    8793    7097+
+           7099    3296    2553    7045
CTETRA      2063       1    8784    8811    4479    8783    7096    2689+
+           2633    8794    7100    2688
CTETRA      2064       1     117    7421     152    7422    1216    1218+
+           1215    2285    7490    3297
CTETRA      2065       1    8782    7446     148    6266    7647    2581+
+           2071    2695    2726    3070
CTETRA      2066       1    4478    8755    8754    8000     889    8763+
+            887    4532    2549    3288
CTETRA      2067       1    7133    8756    8755    6264    7309    8764+
+           7330    2924    2561    2560
CTETRA      2068       1    8326    5780    4723    9120    3298    2795+
+           4784    4783    5810    4778
CTETRA      2069       1    9064     132    4491    7852    1469    2313+
+           1467    7854    2172    1454
CTETRA      2070       1    8780    8781    8026    8808    8798    2552+
+           3286    7107    7106    7052
CTETRA      2071       1    4834    8171    4835    5597    4889    4890+
+           4892    2905    2907    3156
CTETRA      2072       1     120    7452     123    7453    2162    2120+
+            831     830    7690     833
CTETRA      2073       1    9124    8983    9128     170    5774    8985+
+           8487    1939    2735    2653
CTETRA      2074       1    8749    8006    8722    8721    3291    7015+
+           7077    7080    7014    8744
CTETRA      2075       1    8311     135    4492    8749    2195    2187+
+           1122    2434    1783    2608
CTETRA      2076       1      82    8133    4851    8134    1100    4959+
+           1931    1010    8135    4960
CTETRA      2077       1      23      25    7441    7442     254     340+
+           2110    2203    2202    7597
CTETRA      2078       1      81    7118    7131    7117    2023    7297+
+           1761    3289    7298    7295
CTETRA      2079       1     170     171    9002    8495    1944    3299+
+           3287    1959    2020    6028
CTETRA      2080       1      81    7143    7119    7118    3290    7365+
+           2398    2023    7364    7302
CTETRA      2081       1    8751    8048    8750    8826    2601    2589+
+           8768    7234    6975    7239
CTETRA      2082       1    8751    8752    8050    8827    8758    2596+
+           2592    7235    7338    6973
CTETRA      2083       1    4831    8960    8961    5601    3300    8982+
+           3031     511    5676    5674
CTETRA      2084       1      81    8983    7119    7148    2651    7300+
+           2398    2277    7384    7377
CTETRA      2085       1    4506    6703    8773    4507    2571    2662+
+           2568    4635    2573    2574
CTETRA      2086       1    8773    6703    7438    8772    2662    3301+
+           7553    8789    3302    7556
CTETRA      2087       1      95    8774    4506    6696     632    2176+
+            640     636     638     639
CTETRA      2088       1      81    7119    7143    7148    2398    7365+
+           3290    2277    7377    7376
CTETRA      2089       1    7438    6695    7437    6702    2703    3279+
+           7558    3303    6743    3304
CTETRA      2090       1    6696    7438    6688    6689    2701    3305+
+           6721    6722    2700    6723
CTETRA      2091       1    6689    7436      95    6696    2699     635+
+           3306    6722     637     636
CTETRA      2092       1    7438    7437    8772    6702    7558    7557+
+           7556    3303    3304    3307
CTETRA      2093       1    4501    4504    6697    4505    4625    2526+
+           3308    4627    4629    2315
CTETRA      2094       1    8874     155    7425     153    3193    2293+
+           7479    3192    1869    2295
CTETRA      2095       1     153    8515    8875    8874    2280    5695+
+           2030    3192    5697    8891
CTETRA      2096       1    7438    6696    6695    6703    2701    6720+
+           2703    3301    6746    6745
CTETRA      2097       1    8772    8034    9144    8799    2773    7020+
+           7088    7089    7030    8812
CTETRA      2098       1     170    7131    9128    9003    1762    7296+
+           2653    2927    7292    9012
CTETRA      2099       1     118     155    9126    8518    1870    2275+
+            797    3278    3196    8522
CTETRA      2100       1    7144      31    7142    7149    2445    1775+
+           7374    7378    1387    7379
CTETRA      2101       1    4500    8031    8775    8776    4619    3309+
+            336    1136    2616    8786
CTETRA      2102       1    7135    6271    6270    8757    3055    6312+
+           3310    7310    3311    3312
CTETRA      2103       1     117    8945    7422    7431    2286    7489+
+           2285    2284    7516    7519
CTETRA      2104       1     155    7421    9127    7425    1217    7487+
+           2730    2293    7484    7486
CTETRA      2105       1      75    8435      79    5601    1977     543+
+            509     507    5678     508
CTETRA      2106       1     118    9125    8518    9126     800    5953+
+           3278     797    8485    8522
CTETRA      2107       1     115       3    5971     116     761    1417+
+           1420     786     768    1416
CTETRA      2108       1    8757    7998    9139    8730    2785    6982+
+           7061    7062    6992    8731
CTETRA      2109       1     138    4832    5692    5690    1445    2901+
+           2900    2347    2349    5763
CTETRA      2110       1    6271    7135    8756    8757    3055    7307+
+           3313    3311    7310    8762
CTETRA      2111       1     173    7115    8949    7116    1950    7182+
+           1948    1951    7184    7191
CTETRA      2112       1     171    8494    9001    9002    1960    6033+
+           2015    3299    6032    9015
CTETRA      2113       1     172    8925    8514    8515    1854    5954+
+           1866    2279    5956    8519
CTETRA      2114       1    6264    6271    7135    8756    6314    3055+
+           2919    2561    3313    7307
CTETRA      2115       1     115    8493    8492    9001    3190    8507+
+           1419    2016    6034    6030
CTETRA      2116       1    7999    4482    8757    7998    4540    3027+
+           2784    8013    4541    2785
CTETRA      2117       1    6698    4501    6697    6690    2136    3308+
+           6728    6729    2135    6726
CTETRA      2118       1     171    8495    8494    9002    2020    8502+
+           1960    3299    6028    6032
CTETRA      2119       1     115    8492    9000    9001    1419    6031+
+           2652    2016    6030    9014
CTETRA      2120       1      99      44    4979     135    1129    1134+
+            656    1128     948    1133
CTETRA      2121       1    6698    8745    4504    8746    3029    2657+
+           2538    2666    8767    2664
CTETRA      2122       1     142    8493    8949    8950    1962    5606+
+           1947    1064    5607    8966
CTETRA      2123       1     142    8493    8494    8949    1962    8501+
+           1961    1947    5606    5609
CTETRA      2124       1     117    7431    7419    8945    2284    7515+
+            801    2286    7516    7517
CTETRA      2125       1    6207    9134    8701    8606    2969    8703+
+           3120    2970    2897    3182
CTETRA      2126       1    8746    8747    8719    8007    8766    7070+
+           7072    3314    3043    7007
CTETRA      2127       1    8745    8718    4504    8746    7069    2668+
+           2657    8767    7073    2664
CTETRA      2128       1    5155     111    8358    5154    3107     741+
+           5277    5278    2436    5276
CTETRA      2129       1     114    7128    8311    8312     754    3315+
+           2194    1483    2389    8315
CTETRA      2130       1    6273    6265    4476    4480    6319    2683+
+           2679    2678    2674    4529
CTETRA      2131       1     127    8869    7706     128     890    7717+
+           2048     894     893    2045
CTETRA      2132       1     128    7707    7706    8862    2649    7712+
+           2045    3126    7715    7708
CTETRA      2133       1    4693    4694    8049    4489    4702    4704+
+           4696    3316    2597    2594
CTETRA      2134       1    8393    6880    7122    9111    6910    2746+
+           7213    8394    6913    7215
CTETRA      2135       1     142     115     171    8493    1418    1881+
+           1880    1962    3190    1963
CTETRA      2136       1    8754    8727    8753    8001    7059    7057+
+           8759    2551    6997    3034
CTETRA      2137       1    8195    5689    5691    8890    3261    5752+
+           3214    7537    5756    5755
CTETRA      2138       1      15    5872    5873    8919    1620    5941+
+           1729    1731    5935    5937
CTETRA      2139       1      69      68    8488       1     468    1843+
+            472    1164     821    1844
CTETRA      2140       1      95    7435    8775    8774    2428    7581+
+            633     632    7580    8790
CTETRA      2141       1      74    4223    8920    8921     862    2425+
+           2426    2461    2462    8937
CTETRA      2142       1      95    8774    7436    7435     632    7576+
+            635    2428    7580    7579
CTETRA      2143       1    8747    6698    8746    7121    2137    2666+
+           8766    7203    2720    7217
CTETRA      2144       1      95    6689    6697    6690    3306    6725+
+            641    2565    6727    6726
CTETRA      2145       1    8876      19    7423    8877    3317    2298+
+           7465    8897     230    7467
CTETRA      2146       1    7899      58    8994    4214    2464    2465+
+           7269    4285    1438    2797
CTETRA      2147       1    8775    8801    8802    8032    7092    8814+
+           7086    2777    7034    7033
CTETRA      2148       1    4344    3783    7972    3787    3318    3272+
+           4354    1701    3962    3209
CTETRA      2149       1    8775    8031    8032    8802    3309    8044+
+           2777    7086    7035    7033
CTETRA      2150       1    8778    8779    8832    8057    8795    7678+
+           7585    2599    3319    7109
CTETRA      2151       1    8028    8779    8778    4494    2914    8795+
+           2913    4588    3320     260
CTETRA      2152       1    8778    8832    8056    8057    7585    7112+
+           3321    2599    7109    8060
CTETRA      2153       1    8952       3       6     119    2467     767+
+            818     815     804     803
CTETRA      2154       1      14    8465    9122    8583    1553    8474+
+           1111    1728    5541    8584
CTETRA      2155       1     142    8492    8493    8950    1072    8507+
+           1962    1064    5620    5607
CTETRA      2156       1    8778    8055    8056    8831     261    8058+
+           3321    7584    7111    7113
CTETRA      2157       1      10    8431    8537    8430    2446    5466+
+           1422    3322    8443    5465
CTETRA      2158       1    8778    8777    8055    8831    8785    3323+
+            261    7584    7589    7111
CTETRA      2159       1      21      74      22    8510     773    1814+
+            241    1147    1813    1815
CTETRA      2160       1    8778    8804    8029    8777    7081    7040+
+           2915    8785    7082    2607
CTETRA      2161       1      17    8582    8466    8465    1823    5561+
+           1235    1554    5560    8478
CTETRA      2162       1      17    8582    8465    8583    1823    5560+
+           1554    1727    8588    5541
CTETRA      2163       1    5589      10      67    8430    2450     556+
+           1558    5623    3322    2449
CTETRA      2164       1      10    8537    8538    8430    1422    8543+
+           1424    3322    5465    5446
CTETRA      2165       1    8430      10      67    8538    3322     556+
+           2449    5446    1424    2448
CTETRA      2166       1     129    7134     130    8686    3324    1909+
+            899    2764    7328    3011
CTETRA      2167       1      84    4845    5683    5684    1105    2817+
+           2400     709    2402    5724
CTETRA      2168       1      12      10    8538      67     203    1424+
+           1423    1819     556    2448
CTETRA      2169       1    4845    8879    8188    4844    1108    7457+
+           4930    4935    1106    4933
CTETRA      2170       1      18    4199      52    5862    1618    1283+
+           1547    1624    2798    1625
CTETRA      2171       1     129    7134    7137    6262    3324    7327+
+           1912     901    1910    1911
CTETRA      2172       1    7723    6701    7722    8865    1744    2858+
+           7727    7731    1742    7724
CTETRA      2173       1    8581    8466      51    8582    5566    1234+
+            403    8589    5561     402
CTETRA      2174       1    8884    8191    5686    4839    7462    2821+
+           5734    3161    4907    1341
CTETRA      2175       1     119    8951    8490    8491    3325    5619+
+           1414    1410    5622    8508
CTETRA      2176       1    6878    8612    6879    9131    3326     991+
+           6900    6901    8616    6899
CTETRA      2177       1      79     159      78    4827    1257    1329+
+            514    1264    1263    1265
CTETRA      2178       1    5529    5535     164    8111    5587    1443+
+           1431    5576    5586    1432
CTETRA      2179       1      12      71      67    8538     868     486+
+           1819    1423    2862    2448
CTETRA      2180       1      19    8876    8513    8512    3317    5703+
+            589    2041    5711    8527
CTETRA      2181       1     157    7918    4224    4222    2008    4326+
+           1887    2007    4319    4328
CTETRA      2182       1    9000    8999     115    7129    9019     759+
+           2652    7281    7283    2013
CTETRA      2183       1     170    9002     171    7130    3287    3299+
+           1944    1759    7293    1766
CTETRA      2184       1      20    5874    8512    8513    2011    5944+
+           2010     587    5943    8527
CTETRA      2185       1      19    8876    8512    5681    3317    5711+
+           2041     234    5709    5712
CTETRA      2186       1    5440    5535     100    8112    1440    1092+
+            704    1476    5585     673
CTETRA      2187       1    8104     164    5434    5440    3327    1433+
+           5448    5493    1441    5492
CTETRA      2188       1    8924    8514     157     172    5947    1863+
+           2037    2999    1866    1865
CTETRA      2189       1    7985    7984     164    5440    7988    3328+
+           1442    5488    5491    1441
CTETRA      2190       1    5440     100    7985    5433     704    2064+
+           5488    5487     820    5445
CTETRA      2191       1    8606    9134    8701    6275    2897    8703+
+           3182    6372    2895    3181
CTETRA      2192       1       2    8922     157    4222     779    1241+
+           1240     778     776    2007
CTETRA      2193       1    4480    4477    6265    4476    4530    2316+
+           2674    4529    4522    2683
CTETRA      2194       1    7447    6261    6151    7772    2540    2377+
+           2541    7657    2729    6181
CTETRA      2195       1      12    5970    8538    8537    1436    6053+
+           1423    1274    6041    8543
CTETRA      2196       1     157    8923    5874    8924    2282    5949+
+           3282    2037    8941    5946
CTETRA      2197       1     153    8185    7423    4850    2733    7476+
+           2297    2043    4955    2299
CTETRA      2198       1    8513     157    8514      20    2036    1863+
+           8520     587    1864     588
CTETRA      2199       1     133    8865    7437    6701     999    7574+
+            998    1743    1742    2855
CTETRA      2200       1      81    7117    7894    7142    3289    7286+
+           1768    1776    7367    7366
CTETRA      2201       1      81    7143    7118    7117    3290    7364+
+           2023    3289    7369    7298
CTETRA      2202       1     152    7421    7428    7422    1218    7501+
+           1591    3297    7490    7502
CTETRA      2203       1     133    7440    6687    6694     997    1002+
+            993    2849    2851    6715
CTETRA      2204       1     129    8604    8603    6149     902    8608+
+           2958     898    3329    2802
CTETRA      2205       1     117    9126     155    9127     798    2275+
+           1213    2287    8486    2730
CTETRA      2206       1     129    9043    7137    8686    2761    7321+
+           1912    2764    8688    7322
CTETRA      2207       1     129    6150    6255    7137     896    2766+
+           1913    1912    2765    1914
CTETRA      2208       1     153    8875    8515    8514    2030    5695+
+           2280    2032    5694    8519
CTETRA      2209       1     118    8516     155    8517    1871    1873+
+           1870    3283    8523    3205
CTETRA      2210       1     117     155    7421    9127    1213    1217+
+           1216    2287    2730    7487
CTETRA      2211       1     133    6878    8613    8612     995    3330+
+            924     992    3326    8617
CTETRA      2212       1    6880    8657    6693    8612    6909    6810+
+           3331    3332    6809    6807
CTETRA      2213       1      82    7146    7114    7147    1009    7389+
+           1972    1013    7390    7386
CTETRA      2214       1    7122    6693    6700    6880    3151    6738+
+           2747    2746    3331    2748
CTETRA      2215       1    7420     153    7424    7425    2294    2650+
+           7475    7483    2295    7482
CTETRA      2216       1     117      34      82    7964    2283    1026+
+           2018    2296    1098    1101
CTETRA      2217       1       8      19    4850     153    1861    2040+
+           2044    1208    2031    2043
CTETRA      2218       1       8     154      82    4227    1211    2019+
+           1928    1772    1936    1770
CTETRA      2219       1    6880    8613    6693    6700    3333    6808+
+           3331    2748    6805    6738
CTETRA      2220       1     157    5874      20    8513    3282    2011+
+           1864    2036    5943     587
CTETRA      2221       1      19    8514    8513    8875     590    8520+
+            589    2029    5694    5696
CTETRA      2222       1      81     170     171    7130    1758    1944+
+           1763    1760    1759    1766
CTETRA      2223       1    4716    8076    8138    7141    2272    7359+
+           4751    3334    7360    7362
CTETRA      2224       1     119     116       8     142     805     807+
+            806    1060    1073    1068
CTETRA      2225       1       2      74    4220       1     769     499+
+           2457     177     775    1821
CTETRA      2226       1     119     143    4848    7115    1067    1879+
+           1878    1062    1412    1877
CTETRA      2227       1     143    7115    7116    8162    1412    7184+
+           1952    1973    7179    7183
CTETRA      2228       1    5440    8105    8104    8112    5490    8108+
+           5493    1476     645    1687
CTETRA      2229       1    4849    8187    8877    8878    4948    7470+
+            227    1886    7472    8896
CTETRA      2230       1    8432      55     161     102    1533    1541+
+           2132    1532    1530    1542
CTETRA      2231       1    7992     168    7985     125    1830    2477+
+           3335    1831    1829    2065
CTETRA      2232       1    5535    7992    7991    7985    5583    7995+
+           5588    1439    3335    1450
CTETRA      2233       1    9054    7872    9070    7890    2937    4189+
+           7605    7606    4190    7892
CTETRA      2234       1     167    4807     136    5182    1692    1691+
+           1688    3336    3337    1734
CTETRA      2235       1    8112    5528    8105      96    5540     676+
+            645     643    1778     644
CTETRA      2236       1    7803    7872    7890    7871    3338    4190+
+           7607    3339    7876    4192
CTETRA      2237       1     108    7858    7857    3779    2328    7860+
+           2331    2326    3932    3931
CTETRA      2238       1    9054    3783    9067    7872    3948    3273+
+           2938    2937    3271    7874
CTETRA      2239       1    5535    7992     125    5534    5583    1831+
+           1090    5582    5578    1093
CTETRA      2240       1    4494    8055    8778    8777     257     261+
+            260    3340    3323    8785
CTETRA      2241       1    4054    4055    6405    8597    4118    3100+
+           3099    3167    3235    6654
CTETRA      2242       1    4039    6437    4051    4058    3174    3341+
+           4108    4132    3342    4133
CTETRA      2243       1    4051    6436    4058    6437    3343    3344+
+           4133    3341    6558    3342
CTETRA      2244       1    4040    8595    4048    8596    3138    3144+
+           4090    3345    8600    2987
CTETRA      2245       1    4051    6421    4052    6420    3346    3347+
+           4112    3348    6511    3349
CTETRA      2246       1    7445    8782    7446     148    7648    7647+
+           7646    2164    2071    2581
CTETRA      2247       1    6399    6398    5021    6415    6490    3101+
+           3244    6489    6488    3245
CTETRA      2248       1     172      19     153    8514    1862    2031+
+           1868    1866     590    2032
CTETRA      2249       1     129    6255    6150    8603    1913    2766+
+            896    2958    6346    3350
CTETRA      2250       1    3795    3797    3794    9061    3996    4002+
+           3982    3351    3352    3353
CTETRA      2251       1    5776    8118    8343    5025    2518    5126+
+           5802    2984    5127    5097
CTETRA      2252       1      65    6425    6409    6408     600    6524+
+           1374    1040    6523    6463
CTETRA      2253       1      93    4360    7986    7864    3354    4365+
+           3355     609    4375    4374
CTETRA      2254       1    3789    4360    3769    3778    3356    3357+
+           3977    3971    3358    3976
CTETRA      2255       1    8437      89    5436     139    1892    1366+
+           5458    1343    1358    1367
CTETRA      2256       1    7153      33    7152    7150    1023    1005+
+           7404    7405    1034    7401
CTETRA      2257       1     130    8604    6269    6262     903    6352+
+           1907     900    6349    6308
CTETRA      2258       1    4806     101    5160    5180    1696    2233+
+           2235    1682    1693    5345
CTETRA      2259       1    7152    4379    7150      33    1007     288+
+           7401    1005    1006    1034
CTETRA      2260       1    8306    5691    8130    9092    3215    5751+
+           3359    3360    5754    8131
CTETRA      2261       1    8100    4661    6450    4659    4690    3188+
+           2997    4691    4687    2995
CTETRA      2262       1      81    7142    7143    7117    1776    7370+
+           3290    3289    7367    7369
CTETRA      2263       1      33    7141    7151    7155    2410    7399+
+           1024    2412    7408    7413
CTETRA      2264       1    4039    4040    4051    6437    4065    4107+
+           4108    3174    3173    3341
CTETRA      2265       1    8595    8594    4039    4043    8601    3361+
+           3136    3137    2976    4064
CTETRA      2266       1    4055    7816    6070    7817    4124    6123+
+           3238    4116    7821    6122
CTETRA      2267       1      82    7149    7147    7148    1388    7380+
+           1013    2276    7382    7383
CTETRA      2268       1      73      46      91      65    2086     597+
+           1375    1043    2082    1377
CTETRA      2269       1    8070    8063    8062    5534    3362    8067+
+           3363    5580    3364    2123
CTETRA      2270       1    8071    8070    8064     134    8073     939+
+           3365     953     938     936
CTETRA      2271       1    7126    6699    8746    8745    2207    2722+
+           7232    7233    3366    8767
CTETRA      2272       1      45    8087    8088    7427     380    8093+
+           2227     352    7498    7497
CTETRA      2273       1    7857    7904    5965    9053    4277    3010+
+           3367    7861    7908    3368
CTETRA      2274       1    7126    6707    7124    6700    3369    3220+
+           7227    3370    6758    3223
CTETRA      2275       1    7122    6700    7126    7124    2747    3370+
+           7229    7221    3223    7227
CTETRA      2276       1      67    5972    9117    8538     478    6057+
+            466    2448    6061    8539
CTETRA      2277       1    4501    8747    8746    8007    2133    8766+
+           2665    4613    3043    3314
CTETRA      2278       1    7425     153    7424    8874    2295    2650+
+           7482    7479    3192    7481
CTETRA      2279       1    7903    8988    5963    8987    7265    5999+
+           2890    7262    9009    6002
CTETRA      2280       1    4508    9142    8745    6712    2621    8765+
+           2622    2630     874     875
CTETRA      2281       1     106    5529    5434    5435    1514    1364+
+           2953    2365    1363    5451
CTETRA      2282       1    7972    8575     105    5865    5896    2372+
+           3208    5891    5897     719
CTETRA      2283       1    8745    9141    8009    8718    7068    6990+
+           2624    7069    8739    7006
CTETRA      2284       1    8783    6267     158    7451    2939    1251+
+           2542    7676    1249    1252
CTETRA      2285       1    3750     169    3754      29    3371    2126+
+           3862    3372    1739    2127
CTETRA      2286       1    5965    7857    5967    5966    3367    3276+
+           6013    6015    2335    6011
CTETRA      2287       1    8783    6266     158    6267    2686    3295+
+           2542    2939    6300    1251
CTETRA      2288       1    7771    8621    6261    7772    6198    6378+
+           2696    7776    6182    2729
CTETRA      2289       1    3781    7879    3780    4361    3373    3374+
+           3935    3375    4367    2476
CTETRA      2290       1    7448    7447    7772    6261    7658    7657+
+           7656    2546    2540    2729
CTETRA      2291       1      48    4384    4388    4389    1056    4441+
+           1055    3140    4439    4442
CTETRA      2292       1     165    7984    7969    9077    1511    4372+
+           1508    1512    7989    7971
CTETRA      2293       1    8784    9138    6280    4483    8792    2693+
+           3376    2631    2634    3041
CTETRA      2294       1    8986    9053    5967    5965    7254    3236+
+           6014    6007    3368    6013
CTETRA      2295       1    8784    8023    9140    9138    2632    7028+
+           7095    8792    2635    8717
CTETRA      2296       1    6879    9131    6687    8651    6899    6779+
+            994    6902    8658    6780
CTETRA      2297       1    6880    8657    8612    9131    6909    6809+
+           3332    6907    8659    8616
CTETRA      2298       1      77    5688    8471    5693    2351    5748+
+           1901    2360    5767    5766
CTETRA      2299       1     106    5968    9077    7969    1503    6019+
+           2894    1501    6017    7971
CTETRA      2300       1    6434    8119    4660    4661    2509    4683+
+           2510    3000    4684    4686
CTETRA      2301       1    4361    3778    3789     165    2473    3971+
+           3377    2472    2474    1706
CTETRA      2302       1    7904    8987    5964    5965    7261    6005+
+           3378    3010    6006    6008
CTETRA      2303       1     175    7155    8078    8077    2411    7416+
+           2406    2408    7409    8083
CTETRA      2304       1    6255    7135    6256    6263    3379    2920+
+           6287    6285    3056    6286
CTETRA      2305       1    5494     104    8078    8077    2860    2503+
+           5508    5509    2440    8083
CTETRA      2306       1     144    5960    8533    8532    2262    5988+
+           2057    2062    5989    8545
CTETRA      2307       1    8392    8656    6693    8657    6925    6811+
+           2742    6927    8660    6810
CTETRA      2308       1    6878    9131    6880    8612    6901    6907+
+           6908    3326    8616    3332
CTETRA      2309       1    8627    6150    6255    9129    6173    2766+
+           6348    8631    6170    6347
CTETRA      2310       1    6417    6418    8120    4657    6499    3013+
+           3012    3380    2990    4678
CTETRA      2311       1    4211    5868    8911    5865    3002    5908+
+           3150    2370    5905    5907
CTETRA      2312       1    6148    7133    6257    7761     883    2923+
+            879    6166    7320    2928
CTETRA      2313       1    8119    4661    6433    8118    4684    3185+
+           3189    8125    4685    3186
CTETRA      2314       1    7787    3746      28    9051    3825    3381+
+            262    7788    3826     274
CTETRA      2315       1    3750    3749     169      29    3849    2124+
+           3371    3372    2396    1739
CTETRA      2316       1    8621      70    9129    8603    2380    1130+
+           8632    6377    2291    8607
CTETRA      2317       1    7857    9068    7969    7879    3277    7970+
+           2336    3382    7881    4370
CTETRA      2318       1    8392    6693    7123    8393    2742    2743+
+           7210    8397    2744    7212
CTETRA      2319       1    4826    8887    8193    8886    2881    7547+
+           4857    2887    8908    7545
CTETRA      2320       1    4478    8754    8001    8000     887    2551+
+           4517    4532    3288    8011
CTETRA      2321       1    7772    7447    9045    6151    7657    7659+
+           7773    6181    2541    6184
CTETRA      2322       1     145    5959    5958    8534    1079    5981+
+           1319    2144    5983    5978
CTETRA      2323       1    8612    8613    6693    6880    8617    6808+
+           6807    3332    3333    3331
CTETRA      2324       1      78    4830    4826    4829     545    4871+
+           1992    2352    4873    4870
CTETRA      2325       1    6151    8621      70    9129    6180    2380+
+           1131    6178    8632    1130
CTETRA      2326       1      28    3743    3745    3746     265    3830+
+           3383    3381    3827    3829
CTETRA      2327       1    4501    6698    8746    8747    2136    2666+
+           2665    2133    2137    8766
CTETRA      2328       1      28    3746    3745    7796    3381    3829+
+           3383     273    3831    3824
CTETRA      2329       1      40    7942    4490    9063    3384     927+
+            917    1160    7943    1161
CTETRA      2330       1    8424    8613    9116    6878    2648     920+
+           8425    6906    3330    6898
CTETRA      2331       1    8376     174      23    5138    2112    2109+
+           2113    5223    3385     249
CTETRA      2332       1    8723    8722    8750    8005    8742    7076+
+           7075    7011    7012    3386
CTETRA      2333       1    5166    8219    5176    5165    3387    3157+
+           5332    5321    3388    5331
CTETRA      2334       1    4486    8002    8752    8003    4558    3389+
+           1157    4560    8015    2617
CTETRA      2335       1    8003    8752    8725    8002    2617    7055+
+           7002    8015    3389    7001
CTETRA      2336       1    8804    8030    8029    8777    7039    8042+
+           7040    7082    2606    2607
CTETRA      2337       1      24    8368    5135    5137    3390    5209+
+            244    3391    5211    5201
CTETRA      2338       1    8805    8778    8804    8029    7083    7081+
+           8818    7041    2915    7040
CTETRA      2339       1    5166    5176    8219    8220    5332    3157+
+           3387    3392    3159    8221
CTETRA      2340       1    6690    4501    6697    4502    2135    3308+
+           6726    2566    4618    2314
CTETRA      2341       1    8776    8803    8777    8030    7085    7087+
+           8787    2585    7038    2606
CTETRA      2342       1      36    7138    7139    8753     320    7349+
+            307     322    7345    7348
CTETRA      2343       1      42    4496    4499    4500    2191    4606+
+           2000     335    4611    4612
CTETRA      2344       1      24    5133    5134    5137    2213    5204+
+           3393    3391    5203    5205
CTETRA      2345       1      23    5139    5144    5142    3394    5216+
+            248     246    5229    5241
CTETRA      2346       1    8725    8002    8752    8726    7001    3389+
+           7055    8736    7000    7060
CTETRA      2347       1    4508    8745    8009    4504    2622    2624+
+           4643    4644    2657    4626
CTETRA      2348       1    4488    8027    8780    8026    4572    2583+
+           2171    4563    8039    3286
CTETRA      2349       1    8806    8807    8779    8027    8823    7103+
+           7102    7049    7050    2584
CTETRA      2350       1     104    8551    5494    8078    3395    5505+
+           2860    2503    5507    5508
CTETRA      2351       1     152    4850    8133    8185    2042    4962+
+           1206    2732    4955    4961
CTETRA      2352       1     118     155    8518    8517    1870    3196+
+           3278    3283    3205    8524
CTETRA      2353       1    7146      82      32      31    1009    1012+
+            293     291     533     279
CTETRA      2354       1     172    8516    8925    8515    1874    5955+
+           1854    2279    8521    5956
CTETRA      2355       1    7419      34    7964    7430    3110    1098+
+           2288    7512    1386    2822
CTETRA      2356       1     118    8926    8517    8518    2281    5950+
+           3283    3278    5952    8524
CTETRA      2357       1    8028    8778    8806    8805    2913    7101+
+           7043    7042    7083    8819
CTETRA      2358       1    4060    7814    8233    4053    4138    6116+
+           3396    4139    4127    3240
CTETRA      2359       1    4056    6404    4052    6405    3095    3097+
+           4119    3098    6514    3397
CTETRA      2360       1      99    4979    8298    8312     656    4986+
+            659    1484    4984    4980
CTETRA      2361       1    8242    6395    6065    6068    6677    2480+
+           6098    6113    2479    6114
CTETRA      2362       1    8324    8323    4720    6396    8327    4768+
+           4766    3398    2493    3399
CTETRA      2363       1    5434     106    9077    7991    2953    2894+
+           5452    2952     713    1513
CTETRA      2364       1    4039    8595    6437    8594    3136    6650+
+           3174    3361    8601    6651
CTETRA      2365       1    7804    7889    9062    7870    7644    7891+
+           7642    3400    4188    4187
CTETRA      2366       1    6824    6823    8667    6709    6837    6836+
+           6835    3270    3284    6790
CTETRA      2367       1    4208    5964    5966    5965    2375    6023+
+           2333    3401    6008    6015
CTETRA      2368       1      61    6065    6066    6394    2443    6100+
+           2266     695    2489    2268
CTETRA      2369       1    3780    7857    7879    3782    3933    3382+
+           3374    3942    3940    3402
CTETRA      2370       1      63    9086    8085    4714    3112    8089+
+           1492    2899    4739    3403
CTETRA      2371       1      91      61     104    6410    1169     693+
+           2414    1168     692     694
CTETRA      2372       1    5006    6430    5007    6414    2524    2470+
+           5061    2051    6539    2491
CTETRA      2373       1    6411    8324    4719    4720    3404    4767+
+           3405    2485    4766    4763
CTETRA      2374       1    6450    6451    8267    8100    6598    6643+
+           6642    2997    2998    5827
CTETRA      2375       1     120    3761    3758    3756     840    3890+
+           3406     837    3888    3878
CTETRA      2376       1      49      62      91      59     428     599+
+            598     412    2138    2529
CTETRA      2377       1    9062    9028    7805    9061    9031    7682+
+           7643    7846    4168    3407
CTETRA      2378       1    8095    7978    9055    8234    4669    7979+
+           8096    6120    3408    6121
CTETRA      2379       1     120    3761    3760    3758     840    3891+
+           3409    3406    3890    3886
CTETRA      2380       1    4658    8095    8094    6402    4670    8097+
+           4671    2993    3410    2994
CTETRA      2381       1    5173    4790    5175     136    3411    2198+
+           5324    2459    1735    2458
CTETRA      2382       1    4658    6403    8095    6402    3203    3202+
+           4670    2993    6506    3410
CTETRA      2383       1    5006    5007    5021    6414    5061    5076+
+           5077    2051    2491    2490
CTETRA      2384       1     174    8377    5148    8376    1996    5247+
+           3412    2112    8380    5248
CTETRA      2385       1      73    4381    4383      46    1369    4417+
+           1370    2086    2087    2077
CTETRA      2386       1      91    6410    6409    6426    1168    6467+
+           1376    2420    6527    6526
CTETRA      2387       1    8748    8721    8007    8006    7079    7013+
+           3042    3292    7014    8019
CTETRA      2388       1      61      91     104      59    1169    2414+
+            693     420    2529    2439
CTETRA      2389       1    8626    7761    6257    7136    6155    2928+
+           6387    3413    7317    2922
CTETRA      2390       1       7    4850       8      19    2039    2044+
+            192     229    2040    1861
CTETRA      2391       1    6395    6412    8324    6396    6476    3414+
+           3415    6478    6477    3398
CTETRA      2392       1    6415    5019    5028    5020    3243    5114+
+           3416    3417    5080    5112
CTETRA      2393       1    6453    4038    7826    6452    3085    4077+
+           3088    6604    3023    3025
CTETRA      2394       1      27    4490    4493    4494    3069    4584+
+            957     256    4589    4590
CTETRA      2395       1    4053    8233    7815    7814    3240    6118+
+           4126    4127    6116    7822
CTETRA      2396       1    8233    4060    6404    8234    3396    3242+
+           6659    8257    3418    6660
CTETRA      2397       1     111    5153    5155    5128    3419    5281+
+           3107     743    5270    5280
CTETRA      2398       1     111    5156    5155    5153    2433    5286+
+           3107    3419    5285    5281
CTETRA      2399       1    4057    4058    4063    6452    4135    4155+
+           4156    3019    3024    3020
CTETRA      2400       1      53    8580    8467    8581    2201    5572+
+           1810    2154    8592    5567
CTETRA      2401       1    5019    6415    5021    5020    3243    3245+
+           5079    5080    3417    5078
CTETRA      2402       1    7825    6451    8267    8266    3420    6643+
+           5825    5824    6644    8290
CTETRA      2403       1     139    5531    5530    8473    1360    5550+
+            972     970    5552    5549
CTETRA      2404       1     105    4344    7991    7972    1709    4352+
+            712    3208    4354    4355
CTETRA      2405       1    5020    5024    6415    5008    5100    3421+
+           3417    5075    5099    3422
CTETRA      2406       1    6452    6453    8265    7826    6604    6647+
+           6646    3025    3088    5823
CTETRA      2407       1    7825    8266    7826    6452    5824    5822+
+           7834    3026    6645    3025
CTETRA      2408       1    5594    8956     102    8957    5643    1525+
+           3423    5644    8975    1526
CTETRA      2409       1      49    4713      62      59     433     435+
+            428     412     436    2138
CTETRA      2410       1    6415    6398    5021    6414    6488    3101+
+           3245    6487    6485    2490
CTETRA      2411       1      26    5132      41    5136    2320     665+
+           1889    2178    5207    2211
CTETRA      2412       1      23    8369    5140    5139    2209    5219+
+            250    3394    5217    5214
CTETRA      2413       1    8306    8130    8220    9092    3359    4799+
+           3117    3360    8131    8222
CTETRA      2414       1      23    5141    5140    8369    2188    5224+
+            250    2209    5226    5219
CTETRA      2415       1    5019    6399    5026    5018    3105    3424+
+           5104    5088    3106    5103
CTETRA      2416       1    8095    6403    8234    8235    3202    6661+
+           6120    6119    6662    8258
CTETRA      2417       1     120    7453    3733    7807     830    1404+
+            834    2160    7689    3884
CTETRA      2418       1      48    6424    6423    6440    1059    6519+
+           1052    2502    6567    6566
CTETRA      2419       1      45    4388      65    4380    2245    1054+
+            448    2090    4437    2091
CTETRA      2420       1    8278    6440    8562    6439    6621    3425+
+           5846    6620    6565    3065
CTETRA      2421       1      48    6440    8562    8563    2502    3425+
+           2825     361    2499    8572
CTETRA      2422       1    6403    4059    6404    6420    3426    3241+
+           6510    6508    3427    6509
CTETRA      2423       1    3747    3750    3749     169    3848    3849+
+           3846    1795    3371    2124
CTETRA      2424       1    7793    3777    3773    7877    3920    3921+
+           3898    3428    3429    3430
CTETRA      2425       1      36    7847    8753    7139     323     325+
+            322     307    2579    7348
CTETRA      2426       1    6403    4060    6404    4059    3431    3242+
+           6510    3426    4142    3241
CTETRA      2427       1    7978    6419    4060    6403    3432    3433+
+           4141    3204    6505    3431
CTETRA      2428       1     140    5592    8127    8438    1632    5632+
+            981     976    5638    5637
CTETRA      2429       1    4716    9085    8138    8076    4752    8144+
+           4751    2272    8081    7359
CTETRA      2430       1    8234    7978    9055    4060    3408    7979+
+           6121    3418    4141    4140
CTETRA      2431       1    5175    8306    8130    8220    5328    3359+
+           2199    2197    3117    4799
CTETRA      2432       1    6403    6402    8235    8095    6506    6663+
+           6662    3202    3410    6119
CTETRA      2433       1    6063    6400    6064    5027    3434    3435+
+           6085    3436    3437    3438
CTETRA      2434       1     105    7972    7859    3787    3208    3439+
+            718     722    3209    3961
CTETRA      2435       1    8095    8235    8094    6402    6119    6076+
+           8097    3410    6663    2994
CTETRA      2436       1    4041    4040    8596    4054    4094    3345+
+           3168    4110    4109    3169
CTETRA      2437       1    4054    8596    6405    6421    3169    6655+
+           3099    3440    6652    6513
CTETRA      2438       1    6421    8596    8595    4040    6652    8600+
+           6653    3441    3345    3138
CTETRA      2439       1    8355    5193    8226    8225    5396    3442+
+           3443    3444    3445    8230
CTETRA      2440       1    8306    8130    5691    5689    3359    5751+
+           3215    3446    5753    5752
CTETRA      2441       1      92    7864      93    9065     605     609+
+            608    3447    7866    3448
CTETRA      2442       1    8750    8048    9095    8826    2589    6974+
+           7237    7239    6975    8829
CTETRA      2443       1    4051    6437    6421    6420    3341    6560+
+           3346    3348    6559    6511
CTETRA      2444       1    6403    6420    6419    4059    6508    6507+
+           6505    3426    3427    3449
CTETRA      2445       1    4658    6419    6403    6402    3008    6505+
+           3203    2993    6504    6506
CTETRA      2446       1    5784    8278    8277    6440    5843    8294+
+           5844    2498    6621    6622
CTETRA      2447       1      48    6440    6423    6439    2502    6566+
+           1052    1046    6565    6564
CTETRA      2448       1      45    4380    8088    4388    2090    2419+
+           2227    2245    4437    3450
CTETRA      2449       1    8562    6439    5786    8278    3065    2926+
+           5855    5846    6620    5857
CTETRA      2450       1    4048    6422    8596    8595    3451    6613+
+           2987    3144    6612    8600
CTETRA      2451       1    6422    8595    4048    4050    6612    3144+
+           3451    3452    3453    4099
CTETRA      2452       1    6422    6423    7838    6406    6516    2960+
+           3454    6515    6517    2961
CTETRA      2453       1    6401    5027    6063    8121    3455    3436+
+           3456    3457    5108    3458
CTETRA      2454       1    5018    6400    5026    5027    3459    3460+
+           5103    5106    3437    5109
CTETRA      2455       1    8121    6401    5027    6417    3457    3455+
+           5108    3461    6497    3462
CTETRA      2456       1    8238    6399    8333    6064    6669    3104+
+           6081    6083    3224    6079
CTETRA      2457       1    5165    5164    4789    5173    5314    3463+
+           3464    5333    5371    3465
CTETRA      2458       1    8218    5168    5171    5172    3466    5308+
+           3467     299    5316    5322
CTETRA      2459       1    8333    5018    8332    6064    5093    5094+
+           8340    6079    3225    6080
CTETRA      2460       1    4789    5167    5171    8218    3468    5307+
+           3469    4802    3470    3467
CTETRA      2461       1    5173     167    5184    5164    3471    3472+
+           5366    5371    3473    5372
CTETRA      2462       1    4845    5684    8881    5683    2402    5722+
+           2754    2817    5724    5723
CTETRA      2463       1    8367    5168    9103    8366    5292    3474+
+           3475    8373    5293    3476
CTETRA      2464       1    4789    5171    5170    5164    3469    5309+
+           3477    3463    5312    5310
CTETRA      2465       1    6398    8335    8240    8239    3478    6088+
+           6672    6671    6087    8251
CTETRA      2466       1    4838    5684    8882    8881    1238    5719+
+           1236    2755    5722    8899
CTETRA      2467       1     105     108    7858    4212     726    2328+
+            723     717     730    4271
CTETRA      2468       1    7969    3780    7857    7879    3479    3933+
+           2336    4370    3374    3382
CTETRA      2469       1    3771    7879    3781    7878    3033    3373+
+           3937     792    7883    3480
CTETRA      2470       1     106    9077     165    7969    2894    1512+
+           1499    1501    7971    1508
CTETRA      2471       1    6414    6415    5020    5021    6487    3417+
+           2492    2490    3245    5078
CTETRA      2472       1     168      93    7986    7993    1714    3355+
+           3481    1723    1722     857
CTETRA      2473       1     104    8076    8552    8553    2501    5504+
+           2845    2812    5503    8560
CTETRA      2474       1    6416    5029    6432    5028    3482    3483+
+           6545    3484    5117    3485
CTETRA      2475       1    5010    6445    5011    5017    3084    3083+
+           5036    5069    2719    5068
CTETRA      2476       1    4361    3781    7879    7878    3375    3373+
+           4367    4366    3480    7883
CTETRA      2477       1    8243    6065    6395    6394    6097    2480+
+           6678    6679    2489    6474
CTETRA      2478       1    5021    6398    5022    6414    3101    2454+
+           5082    2490    6485    2049
CTETRA      2479       1      48    4386    4384    4389    1035    4428+
+           1056    3140    4440    4439
CTETRA      2480       1    7879    7857    9053    3782    3382    7861+
+           3253    3402    3940    3939
CTETRA      2481       1    8779    9064    9029    9074    1468    4166+
+           7680    7679    7949    9030
CTETRA      2482       1    6429    5016    5013    5015    2736    5062+
+           3486    3183    5063    5060
CTETRA      2483       1    6392    6062    6393    8550    2487    2221+
+           6466     493    6091     494
CTETRA      2484       1      29    3753    3743    7787    3487    3856+
+            266     263    3853    3828
CTETRA      2485       1    4361    3780    3781    3778    2476    3935+
+           3375    2473    3929    3934
CTETRA      2486       1     104    8551    6062    6066    3395    6090+
+           2222    2267    6095    6092
CTETRA      2487       1    5776    6448    8118    5025    2516    2519+
+           2518    2984    2511    5127
CTETRA      2488       1    4661    6449    8099    6450    3187    2916+
+           4689    3188    6595    3191
CTETRA      2489       1    4361    3780    7969    7879    2476    3479+
+           4371    4367    3374    4370
CTETRA      2490       1    7975    6451    4659    8100    3006    2996+
+           4677    4692    2998    4691
CTETRA      2491       1     165    4361    3780    7969    2472    2476+
+           2475    1508    4371    3479
CTETRA      2492       1    7859    9067    7972    5866    3488    7973+
+           3439    3146    5890    5889
CTETRA      2493       1     165    3789    3779    3778    1706    3970+
+           2327    2474    3971    3930
CTETRA      2494       1    8099    6449    8269    8268    2916    6639+
+           5789    5790    6640    8282
CTETRA      2495       1    6067    8323    6068    9118    3489    3490+
+           6110    6109    4769    6112
CTETRA      2496       1    8272    5012    8346    8273    3058    5042+
+           5795    8288    3491    5820
CTETRA      2497       1    8219    8220    8365    5166    8221    3492+
+           3493    3387    3392    5318
CTETRA      2498       1    9100    8220    8214    9098    3118    4970+
+           7541    7540    4969    8216
CTETRA      2499       1    6434    4659    6451    6450    3001    2996+
+           6599    6597    2995    6598
CTETRA      2500       1    8226    5162    8227    4807    3494    3495+
+           8228    4808    3496    4809
CTETRA      2501       1    9057    6451    7975    8100    3194    3006+
+           7983    8103    2998    4692
CTETRA      2502       1    8317    9103    9038    5134    8319    5002+
+           5003    3497    3498    3499
CTETRA      2503       1    4039    4058    6453    6437    4132    3139+
+           3087    3174    3342    6606
CTETRA      2504       1    4058    6453    6436    6452    3139    6605+
+           3344    3024    6604    6603
CTETRA      2505       1    4057    6451    4063    7975    3021    3022+
+           4156    4160    3006    4158
CTETRA      2506       1    5529     139     106    5530     988    1348+
+           1514    5546     972    3281
CTETRA      2507       1    8449    4717    4720    8554    4755    4762+
+           4764    5500    2274    2504
CTETRA      2508       1    4790    8219    5165    5176    4795    3388+
+           3500    3158    3157    5331
CTETRA      2509       1      55     102      11      51    1530     683+
+           1531    1543     685     684
CTETRA      2510       1    4790    5176    5173    5175    3158    5329+
+           3411    2198    5330    5324
CTETRA      2511       1    6071    4387    6391    9119    3248    2534+
+           3064    6143    4432    2447
CTETRA      2512       1    8354    8226    8227    8209    3501    8228+
+           3502    7197    4978    4976
CTETRA      2513       1    8279    6439    5786    5781    6619    2926+
+           5858    5854    3082    5860
CTETRA      2514       1    7839    6438    5781    6439    2972    2974+
+           2758    3503    6562    3082
CTETRA      2515       1    4044    4050    4043    8594    4102    4101+
+           4068    2975    3504    2976
CTETRA      2516       1    6439    6438    6422    7838    6562    6561+
+           6563    3505    3506    3454
CTETRA      2517       1    6438    8594    5782    8280    6614    3081+
+           2979    6617    6616    5833
CTETRA      2518       1    4044    5782    6438    8594    2978    2979+
+           2973    2975    3081    6614
CTETRA      2519       1    4045    6453    7827    5783    3086    3089+
+           4078    3141    1506    5839
CTETRA      2520       1    5177    8306    5175    8220    5335    5328+
+           5337    3119    3117    2197
CTETRA      2521       1      48    6439    6423    4391    1046    6564+
+           1052    1047    1048    1051
CTETRA      2522       1     171    7130    9002    9001    1766    7293+
+           3299    2015    7290    9015
CTETRA      2523       1    4050    7839    7838    6438    4104    7843+
+           4103    2980    2972    3506
CTETRA      2524       1    5874     157      20    8923    3282    1864+
+           2011    5949    2282    2005
CTETRA      2525       1    6422    4048    6406    4049    3451    2988+
+           6515    3507    4096    3508
CTETRA      2526       1    4493    4489    4490      27    4583    4577+
+           4584     957    3294    3069
CTETRA      2527       1      19    8513    8876    8875     589    5703+
+           3317    2029    5696    8894
CTETRA      2528       1    6437    8594    6453    4039    6651    6649+
+           6606    3174    3361    3087
CTETRA      2529       1     141    5690     138    8473    2348    2347+
+           1444    1653    5749     969
CTETRA      2530       1    4041    8597    4046    4042    3166    3172+
+           4080    4081    3509    4079
CTETRA      2531       1    4050    6438    8594    4044    2980    6614+
+           3504    4102    2973    2975
CTETRA      2532       1    8596    8597    6406    4046    8599    6611+
+           6610    2985    3172    2986
CTETRA      2533       1    4040    6421    6437    8595    3441    6560+
+           3173    3138    6653    6650
CTETRA      2534       1    4848    7115    8162    8163    1877    7179+
+           4951    4950    7176    8183
CTETRA      2535       1    4054    8597    6405    8596    3167    6654+
+           3099    3169    8599    6655
CTETRA      2536       1    4040    4054    6421    8596    4109    3440+
+           3441    3345    3169    6652
CTETRA      2537       1    6070    6405    4056    4055    3510    3098+
+           3239    3238    3100    4123
CTETRA      2538       1    6405    8597    6070    8232    6654    3511+
+           3510    6657    6656    6129
CTETRA      2539       1    4056    6405    8232    8233    3098    6657+
+           3093    3094    6658    8260
CTETRA      2540       1     119       3    8490    8952     804    1415+
+           1414     815    2467    5618
CTETRA      2541       1    7978    6403    8234    8095    3204    6661+
+           3408    4669    3202    6120
CTETRA      2542       1    6404    6420    4059    4052    6509    3427+
+           3241    3097    3349    4137
CTETRA      2543       1    8597    4042    6070    6069    3509    3152+
+           3511    3512    3153    6126
CTETRA      2544       1       6    4849    4844    4846     225    4947+
+            811     810    4949    4946
CTETRA      2545       1      20    8511    5681    8512    1883    5713+
+            233    2010    8528    5712
CTETRA      2546       1      19    7423    8875    8876    2298    7466+
+           2029    3317    7465    8894
CTETRA      2547       1     119    8163    8950    7115    1065    7177+
+           1063    1062    7176    7178
CTETRA      2548       1    8920      15      74    5873    1732     850+
+           2426    5936    1729    2716
CTETRA      2549       1    8597    6390    6406    4046    6607    6454+
+           6611    3172    3513    2986
CTETRA      2550       1    4225    7895    7129    8999    4332    7284+
+           2014     757    7278    7283
CTETRA      2551       1     103      17      84      56     707     698+
+            688     689     697     552
CTETRA      2552       1    6401    8094    6063    8236    3514    6077+
+           3456    6665    6075    6073
CTETRA      2553       1    8237    6400    6064    6063    6667    3435+
+           6086    6074    3434    6085
CTETRA      2554       1    6401    6402    8094    8236    6502    2994+
+           3514    6665    6664    6075
CTETRA      2555       1    7424     153    8185    7423    2650    2733+
+           7473    7477    2297    7476
CTETRA      2556       1     115    8492    8491    9000    1419    8506+
+           1421    2652    6031    6049
CTETRA      2557       1    5027    5018    6064    8332    5106    3225+
+           3438    5105    5094    6080
CTETRA      2558       1    4657    6417    6401    8121    3380    6497+
+           3515    4674    3461    3457
CTETRA      2559       1     138    8473    5690    8472     969    5749+
+           2347    2343    8476    5750
CTETRA      2560       1    6442      35      47    6425     595     378+
+            593    6572     427     591
CTETRA      2561       1    8853    6709    9143    6702    3269    3268+
+           8856    3516    6762    3517
CTETRA      2562       1    8594    4050    4043    8595    3504    4101+
+           2976    8601    3453    3137
CTETRA      2563       1    6826    6825    8666    6708    6854    6843+
+           6856    3047    3050    6788
CTETRA      2564       1    6443    6442    5779    8275    6574    3518+
+           2933    6627    6626    5804
CTETRA      2565       1    6448    5776    8269    8270    2516    5787+
+           6638    6637    5788    8281
CTETRA      2566       1    5025    6448    8118    5030    2511    2519+
+           5127    5123    3519    5125
CTETRA      2567       1    6449    6450    8268    8099    6595    6641+
+           6640    2916    3191    5790
CTETRA      2568       1    6416    6433    8120    6417    6547    3520+
+           3521    6495    6548    3012
CTETRA      2569       1    6417    6433    8120    6434    6548    3520+
+           3012    6550    6549    2508
CTETRA      2570       1    6416    5029    8120    6432    3482    5118+
+           3521    6545    3483    3522
CTETRA      2571       1    8120    5027    5026    6416    5110    5109+
+           5111    3521    3523    3524
CTETRA      2572       1     148    7445    7785    6152    2164    2165+
+           1599    2544    2936    6187
CTETRA      2573       1    7779    6279    8638    4483    2636    6363+
+           6231    4543    2637    3525
CTETRA      2574       1    4483    6279    8638    6280    2637    6363+
+           3525    3041    6337    6364
CTETRA      2575       1    8120    6432    6433    6416    3522    6546+
+           3520    3521    6545    6547
CTETRA      2576       1    5026    5019    5028    6415    5104    5114+
+           5115    3526    3243    3416
CTETRA      2577       1    6432    5029    8120    8119    3483    5118+
+           3522    2943    5119    8124
CTETRA      2578       1    5028    6415    5024    6432    3416    3421+
+           5113    3485    6544    3527
CTETRA      2579       1    6206    8637    6205    6281    6235    6237+
+           6236    3528    6366    2966
CTETRA      2580       1    4491    8027    8028    8779    4574    8040+
+           4586    1455    2584    2914
CTETRA      2581       1    8119    6433    6434    8120    3189    6549+
+           2509    8124    3520    2508
CTETRA      2582       1     104    8551    8078    8079    3395    5507+
+           2503    2230    5499    8082
CTETRA      2583       1    5005    8240    6397    6398    2654    6673+
+           3177    2455    6672    6486
CTETRA      2584       1    7780    9138    6206    9050    2692    2694+
+           6239    7782    3529    6241
CTETRA      2585       1    5972    8538      71    8996    6061    2862+
+            485    6060    6055    1425
CTETRA      2586       1    9137    6271    4482    8757    3285    2562+
+           2781    8761    3311    3027
CTETRA      2587       1    6824    6709    8667    8668    3270    6790+
+           6835    6838    6791    8675
CTETRA      2588       1    6705    4505    6704    6697    2528    2659+
+           6750    6751    2315    6749
CTETRA      2589       1    6063    8237    6401    8236    6074    6666+
+           3456    6073    8248    6665
CTETRA      2590       1    8242    6065    6395    8243    6098    2480+
+           6677    8253    6097    6678
CTETRA      2591       1      73    8079     175    4383    1378    2231+
+           2085    1370    3530    2078
CTETRA      2592       1    4717      61    8553    9085    1166    2444+
+           2442    4753    2536    5502
CTETRA      2593       1      61     104    6066    8553     693    2267+
+           2266    2444    2812    6101
CTETRA      2594       1     174    8377    5147    5148    1996    5250+
+           1998    3412    5247    5249
CTETRA      2595       1    6396    6395    4720    8324    6478    2482+
+           3399    3398    3415    4766
CTETRA      2596       1      59    4718    4713    4716     416    4756+
+            436    2270    4758    4750
CTETRA      2597       1    6427    4724    6443      60    3531    2844+
+           6576    3532    2843    2842
CTETRA      2598       1    9119    6071    6072    6391    6143    6145+
+           6146    2447    3064    2392
CTETRA      2599       1      60    6426    6427    6410     425    6528+
+           3532     457    6527    6529
CTETRA      2600       1    7852     132    4491    8780    2172    2313+
+           1454    1451    2168    1453
CTETRA      2601       1      60    6411    4719    4717    3533    3405+
+           3534    1165    2484    4760
CTETRA      2602       1    7127    8358    5154    9109    7246    5276+
+           1579    7245    8359    5274
CTETRA      2603       1      60    6443    6427    6426    2842    6576+
+           3532     425    6575    6528
CTETRA      2604       1    4506    8033    8773    8032    4637    2575+
+           2568    4632    8045    2836
CTETRA      2605       1      63    6442    5779    6443    2422    3518+
+           3535    3536    6574    2933
CTETRA      2606       1    6071    6072    6391    8246    6145    2392+
+           3064    6134    6144    6685
CTETRA      2607       1    6446    6447    8271    5009    6586    6635+
+           6634    3074    3073    3078
CTETRA      2608       1      81    7149    7143    7142    2278    7381+
+           3290    1776    7379    7370
CTETRA      2609       1      31    7150    7145    7144     296    7393+
+           3537    2445    7392    7372
CTETRA      2610       1    7142      31      81    7149    1775     530+
+           1776    7379    1387    2278
CTETRA      2611       1    4722      60    6443    4723    1487    2842+
+           3538    4779    2841    2796
CTETRA      2612       1      27     131    4694    4490     932     931+
+            930    3069     929    3108
CTETRA      2613       1      84    8879      72    9122    1107    2399+
+            561    1109    5705    1110
CTETRA      2614       1    4226    7129    7894    7130    2022    7288+
+           4331    1767    7289    7285
CTETRA      2615       1    4385      73    9075    8453    2507    1371+
+           4420    4421    2505    8454
CTETRA      2616       1    8538      71    8996      12    2862    1425+
+           6055    1423     868    1426
CTETRA      2617       1     117     152    7431    7422    1215    2026+
+           2284    2285    3297    7519
CTETRA      2618       1    6427    6444    4724    6428    6578    2833+
+           3531    6531    6579    3539
CTETRA      2619       1      60    6410    6427    6411     457    6529+
+           3532    3533    6471    6530
CTETRA      2620       1    6444    6427    4724    6443    6578    3531+
+           2833    6577    6576    2844
CTETRA      2621       1    8057    4491    9064    4490     446    1467+
+           8061     445    4579    1470
CTETRA      2622       1    8323    4720    6396    6068    4768    3399+
+           2493    3490    2481    2831
CTETRA      2623       1      13      15      17      14     208    1725+
+            213     205     209     699
CTETRA      2624       1    4361    7878    3770    3781    4366    3540+
+           3541    3375    3480    3936
CTETRA      2625       1    6396    6412    8324    5013    6477    3414+
+           3398    2494    3542    5055
CTETRA      2626       1    3771    3781    3770    7878    3937    3936+
+           3926     792    3480    3540
CTETRA      2627       1    6397    8240    5005    5014    6673    2654+
+           3177    3176    2888    5051
CTETRA      2628       1    5025    6448    5030    5024    2511    3519+
+           5123    5102    2513    5122
CTETRA      2629       1    5166    8213    5172    8366    3543     298+
+           5319    5317    7550    5315
CTETRA      2630       1    6446    5008    5011    6430    3072    5031+
+           3544    6585    2469    2471
CTETRA      2631       1    5777    6448    5025    6447    2982    2511+
+           2983    2981    6589    2512
CTETRA      2632       1    8100    8268    6450    8099    5826    6641+
+           2997    8102    5790    3191
CTETRA      2633       1    8100    6450    8268    8267    2997    6641+
+           5826    5827    6642    8291
CTETRA      2634       1     111    5151    5156    5153    2384    5283+
+           2433    3419    5273    5285
CTETRA      2635       1    5186    8298      98    5185     662    2208+
+           3545    5387     679    2243
CTETRA      2636       1    8273    5012    8346    5010    3491    5042+
+           5820    3546    5035    5040
CTETRA      2637       1    4656    6434    6435    6418    3004    6552+
+           3547    2989    6551    6553
CTETRA      2638       1    4659    7976    6435    6451    4675    3548+
+           3549    2996    3005    6600
CTETRA      2639       1    6449    8118    6432    6433    2517    2945+
+           6593    6594    3186    6546
CTETRA      2640       1    6434    8120    6418    4660    2508    3013+
+           6551    2510    4680    2991
CTETRA      2641       1     122    3792    3801    3793    3201    4011+
+           1397    1402    4010    4012
CTETRA      2642       1    3760    3759     120    7807    3883    2159+
+           3409    3882    3881    2160
CTETRA      2643       1     120    3758    3760    3733    3406    3886+
+           3409     834    3875    3885
CTETRA      2644       1    6392    8453      73    4387    3550    2505+
+            496    3249    4431    2506
CTETRA      2645       1    4215    5957    8993    5969    3551    5976+
+           3247    1548    6035    6037
CTETRA      2646       1    6430    5013    6413    6414    3179    3552+
+           6538    6539    3180    6483
CTETRA      2647       1     104    8079    8550    8551    2230    5498+
+           2224    3395    5499    8557
CTETRA      2648       1    4490    4491    9064     132    4579    1467+
+           1470     916    2313    1469
CTETRA      2649       1     120     124     123    7452     839    1608+
+            831    2162    1612    2120
CTETRA      2650       1     105     109     106     107     731    1356+
+            714     724    3553     725
CTETRA      2651       1      73    6392    6409    6393     496    6464+
+           1373     495    6466    6465
CTETRA      2652       1    8244    6062    6393    8245    6093    2221+
+           6681    8261    6132    6682
CTETRA      2653       1     104    8552    8551    6066    2845    8561+
+           3395    2267    6096    6095
CTETRA      2654       1    8638    4483    7780    7779    3525    4542+
+           6232    6231    4543    7781
CTETRA      2655       1     166    5154    5156    8378    2322    5284+
+           2432    1565    5275    5282
CTETRA      2656       1      73      91    6393    6409    1375    3554+
+            495    1373    1376    6465
CTETRA      2657       1    4386      73    4387    6408    1041    2506+
+           4430    1038    1042    2535
CTETRA      2658       1    8241    6068    6396    8242    6111    2831+
+           6675    8256    6113    6676
CTETRA      2659       1    8323    6068    6396    6067    3490    2831+
+           2493    3489    6110    2728
CTETRA      2660       1     167    5180    5179    5183    1685    5350+
+           1683    3555    5362    5361
CTETRA      2661       1       8     143    4851    4848    1066    1930+
+           1929     223    1879    4966
CTETRA      2662       1    5014    6396    6397    6067    2495    6482+
+           3176    2864    2728    2727
CTETRA      2663       1     153    7420    7424    8185    2294    7475+
+           2650    2733    7474    7473
CTETRA      2664       1     154      82    4227    7964    2019    1770+
+           1936    2289    1101    4336
CTETRA      2665       1    6439    7839    4391    4390    3503    4453+
+           1048    1045    4455    4452
CTETRA      2666       1    8516     172     118     153    1874    1851+
+           1871    1872    1868    1867
CTETRA      2667       1    6411    6428    8325    6412    6532    3556+
+           3557    6475    6533    3558
CTETRA      2668       1    5016    6412    8324    8325    3559    3414+
+           5064    5065    3558    8331
CTETRA      2669       1      31    9071    7144    7142     295    7375+
+           2445    1775    7368    7374
CTETRA      2670       1      50    7434    8087    7427    2080    7532+
+            372     379    7531    7498
CTETRA      2671       1    8782    6265    6266     148    3125    6296+
+           2695    2071    2317    3070
CTETRA      2672       1     124    3756    3757    7785     838    3871+
+           3145    1600    3870    3868
CTETRA      2673       1     129     130    6931    8686     899    1924+
+           1923    2764    3011    6939
CTETRA      2674       1    5016    6429    5013    6412    2736    3486+
+           5062    3559    6535    3542
CTETRA      2675       1    8848    6714    6827    6829    1631    3560+
+           3561    3218    3562    6870
CTETRA      2676       1      61      59     104    8076     420    2439+
+            693    2537    2271    2501
CTETRA      2677       1     166    8378    5156    5151    1565    5282+
+           2432    2094    5265    5283
CTETRA      2678       1      26     166      42     112    2097    1574+
+           2099    2192    2002    2003
CTETRA      2679       1    6427    4724    6411    6428    3531    3563+
+           6530    6531    3539    6532
CTETRA      2680       1    8325    6444    4724    8326    3564    2833+
+           4782    8329    2832    4781
CTETRA      2681       1     167    8105    4806    8106    3054    4812+
+           1684    1673    8107    4813
CTETRA      2682       1     136    8104    8127    4807    1689    4818+
+            985    1691    4815    4817
CTETRA      2683       1    6429    5016    6428    6412    2736    2738+
+           6534    6535    3559    6533
CTETRA      2684       1    5172    5165    8219    5166    5320    3388+
+            297    5319    5321    3387
CTETRA      2685       1    8702    6281    6206    6205    2963    3528+
+           3565    2964    2966    6236
CTETRA      2686       1    8689    9134    8605    6275    8690    2896+
+           3566    2852    2895    6371
CTETRA      2687       1    8365    5177    5166    8220    5336    5338+
+           5318    3492    3119    3392
CTETRA      2688       1    5166    8220    5177    5176    3392    3119+
+           5338    5332    3159    5339
CTETRA      2689       1     148     124      38      29    1596    1609+
+           1408    2155    1746    1737
CTETRA      2690       1      60    4719    6411    4724    3534    3405+
+           3533    2843    4787    3563
CTETRA      2691       1     148    6259    6258    6266    1602    6299+
+           1603    3070    6298    6297
CTETRA      2692       1    3777    3770    7878    3771    3925    3540+
+           3567    3924    3926     792
CTETRA      2693       1      58    5969    5970    8537    1277    6040+
+           1435    1269    6039    6041
CTETRA      2694       1    6947    7447    7741    9045    2751    2539+
+           6954    6956    7659    7743
CTETRA      2695       1    6432    5024    5028    5030    3527    5113+
+           3485    2944    5122    5120
CTETRA      2696       1    5030    6448    8118    6432    3519    2519+
+           5125    2944    6591    2945
CTETRA      2697       1    3771    3781    7879    3782    3937    3373+
+           3033    3943    3944    3402
CTETRA      2698       1    7446    8623    6260    8622    2582    6381+
+           2531    3230    8635    6380
CTETRA      2699       1      12    8995    8538    5970    2861    6054+
+           1423    1436    6043    6053
CTETRA      2700       1    6431    6447    5024    6448    6588    2514+
+           3568    6590    6589    2513
CTETRA      2701       1    6876      95    8376    8377    2615    2430+
+           6893    6914    2106    8380
CTETRA      2702       1    5024    6448    5030    6432    2513    3519+
+           5122    3527    6591    2944
CTETRA      2703       1      18    8582    5872    5861     405    5931+
+           1619    1545    5878    5929
CTETRA      2704       1    5141    7441    9110    8369    2435    7598+
+           5221    5226    7599    8372
CTETRA      2705       1    7441    8376      95     174    2111    2430+
+           2429    2108    2112    2105
CTETRA      2706       1    9109    5154    7120    8378    5274    1578+
+           7208    8382    5275    1570
CTETRA      2707       1    5025    5777    5009    8344    2983    3569+
+           5098    5096    5796    5044
CTETRA      2708       1    8271    6446    5009    8272    6634    3074+
+           3078    8283    6633    3080
CTETRA      2709       1    6268    7449    6267    7447    2520    2752+
+           6304    2522    7665    2753
CTETRA      2710       1    6947    6268    6261    7447    2344    6306+
+            477    2751    2522    2540
CTETRA      2711       1    6412    5013    6396    6413    3542    2494+
+           6477    6479    3552    6480
CTETRA      2712       1    9129    8603    6149    6150    8607    2802+
+           6172    6170    3350    6171
CTETRA      2713       1    5013    6396    6397    5014    2494    6482+
+           3178    5056    2495    3176
CTETRA      2714       1      99    4979    8312    8311     656    4984+
+           1484    2196    4983    8315
CTETRA      2715       1    6268    7447    6267    7448    2522    2753+
+           6304    2545    7658    2776
CTETRA      2716       1    6268    8689    6947    8605    2521    6955+
+           2344    6374    3566    2801
CTETRA      2717       1    5022    6414    5006    5021    2049    2051+
+           5081    5082    2490    5077
CTETRA      2718       1    5015    5013    6430    5006    5060    3179+
+           2525    5059    5048    2524
CTETRA      2719       1    6431    5008    6414    6415    3570    3175+
+           6541    6542    3422    6487
CTETRA      2720       1    6429    5013    6413    6430    3486    3552+
+           6536    6537    3179    6538
CTETRA      2721       1    6396    6413    5013    6397    6480    3552+
+           2494    6482    6481    3178
CTETRA      2722       1    6429    5013    6412    6413    3486    3542+
+           6535    6536    3552    6479
CTETRA      2723       1     129    6262     130    7134     901     900+
+            899    3324    1910    1909
CTETRA      2724       1    8604    6149    6947      70    3329    3077+
+            475     473    1132     474
CTETRA      2725       1    6449    5776    8269    6448    2515    5787+
+           6639    6592    2516    6638
CTETRA      2726       1    3738    7864    3762      92    3170    3571+
+           4028     603     605    3044
CTETRA      2727       1    7453    7852    7853    9029    3014    7856+
+           2166    7694    4167    4170
CTETRA      2728       1    6445    5015    6429    5011    3572    3183+
+           6582    3083    5058    3184
CTETRA      2729       1     120    7807    3733    3760    2160    3884+
+            834    3409    3882    3885
CTETRA      2730       1    6149    6947      70    7741    3077     474+
+           1132    6177    6954    2361
CTETRA      2731       1    5015    5013    6429    6430    5060    3486+
+           3183    2525    3179    6537
CTETRA      2732       1    6447    5008    6431    5024    3071    3570+
+           6588    2514    5099    3568
CTETRA      2733       1    8356    8357    5188    9033    8363    5401+
+           5400    7240    7241    1481
CTETRA      2734       1    6430    6447    6446    5008    6587    6586+
+           6585    2469    3071    3072
CTETRA      2735       1    5190    8225    5193    5192    3573    3445+
+           5390    5391    3574    5392
CTETRA      2736       1    4657    8120    6417    8121    4678    3012+
+           3380    4674    8123    3461
CTETRA      2737       1    6401    5027    6417    6400    3455    3462+
+           6497    6498    3437    6496
CTETRA      2738       1     111    5128    5155    8358     743    5280+
+           3107     741    5279    5277
CTETRA      2739       1    5592     140    8127    4836    1632     981+
+           5632    1636    1635    2357
CTETRA      2740       1    9099    9097    8209    8227    7195    8211+
+           7196    3233    4975    4976
CTETRA      2741       1    8347    5010    8273    8346    5041    3546+
+           5821    8348    5040    5820
CTETRA      2742       1    5180    4806    5161    5160    1682    3228+
+           5348    5345    2235    5347
CTETRA      2743       1    6409    6410      91    6393    6467    1168+
+           1376    6465    6468    3554
CTETRA      2744       1    8304    8127    5593    9091    3037    5630+
+           3036    3575    8128    5631
CTETRA      2745       1    5014    6396    6067    8323    2495    2728+
+           2864    5053    2493    3489
CTETRA      2746       1    6432    6431    5024    6448    6543    3568+
+           3527    6591    6590    2513
CTETRA      2747       1     101    4789    8113    8301    3217    4794+
+           2242     681    4804    4803
CTETRA      2748       1     111     113     112    5129     748     745+
+            736     739     756     740
CTETRA      2749       1     167    4790    5173     136    3576    3411+
+           3471    1688    1735    2459
CTETRA      2750       1     167    5184    5183    5181    3472    5368+
+           3555    3577    5367    5364
CTETRA      2751       1    9053    7904    5965    8986    7908    3010+
+           3368    7254    7255    6007
CTETRA      2752       1    8240    6397    8241    6067    6673    6674+
+           8255    6103    2727    6104
CTETRA      2753       1      25      24    8317    7442     251     330+
+            328    2202    2204    2217
CTETRA      2754       1     136    5182    4807    8127    1734    3337+
+           1691     985    3131    4817
CTETRA      2755       1     136    8306    8305     141    3578    8310+
+           1733     986    3579    2356
CTETRA      2756       1    4040    6421    4054    4051    3441    3440+
+           4109    4107    3346    4111
CTETRA      2757       1    6422    8595    4050    6438    6612    3453+
+           3452    6561    6615    2980
CTETRA      2758       1    8594    6453    5783    9106    6649    1506+
+           3091    8602    6648    5837
CTETRA      2759       1    4045    4039    6453    8594    4070    3087+
+           3086    2977    3361    6649
CTETRA      2760       1    8595    6438    8594    4050    6615    6614+
+           8601    3453    2980    3504
CTETRA      2761       1    4045    5783    8594    6453    3141    3091+
+           2977    3086    1506    6649
CTETRA      2762       1    6452    6435    6436    4063    6602    6555+
+           6603    3020    3580    3581
CTETRA      2763       1    5174    5175    8306     136    5323    5328+
+           5326    1680    2458    3578
CTETRA      2764       1     165    3786    7858    3779    1703    3959+
+           2329    2327    3960    3932
CTETRA      2765       1    4208    7904    5965    7857    4256    3010+
+           3401    4278    4277    3367
CTETRA      2766       1    4043    4045    8594    4039    4067    2977+
+           2976    4064    4070    3361
CTETRA      2767       1    4476    6265    6266    8782    2683    6296+
+           2682    2554    3125    2695
CTETRA      2768       1    4051    4061    6436    6420    4145    3582+
+           3343    3348    3583    6557
CTETRA      2769       1    4051    6420    4052    4061    3348    3349+
+           4112    4145    3583    4147
CTETRA      2770       1    6436    6435    4062    4063    6555    3584+
+           3585    3581    3580    4154
CTETRA      2771       1    4063    6451    6452    6435    3022    6601+
+           3020    3580    6600    6602
CTETRA      2772       1    3780     165     108    3779    2475    1507+
+           2330    3928    2327    2326
CTETRA      2773       1    7984    5434     164    5440    5481    1433+
+           3328    5491    5492    1441
CTETRA      2774       1    8575     105    5865     109    2372     719+
+           5897    1357     731     734
CTETRA      2775       1    5968    4208    5964    5966    2337    2375+
+           6022    6018    2333    6023
CTETRA      2776       1     168    3787    3786    3788    1700    3964+
+           1702    3586    3968    3969
CTETRA      2777       1     116    5971    8491    8490    1416    6050+
+           1411    1413    6051    8508
CTETRA      2778       1    6451    4659    6434    6435    2996    3001+
+           6599    6600    3549    6552
CTETRA      2779       1    6452    7826    8265    8266    3025    5823+
+           6646    6645    5822    8289
CTETRA      2780       1    6436    4062    6420    4061    3585    3587+
+           6557    3582    4150    3583
CTETRA      2781       1    4360    4361    7878    3770    4363    4366+
+           4368    3257    3541    3540
CTETRA      2782       1    4360    3769    3778    3770    3357    3976+
+           3358    3257    3919    3938
CTETRA      2783       1     168    3788    3789    3785    3586    3973+
+           1705    1719    3967    3974
CTETRA      2784       1    4360    3778    3789    4361    3358    3971+
+           3356    4363    2473    3377
CTETRA      2785       1     129    7137    7134    8686    1912    7327+
+           3324    2764    7322    7328
CTETRA      2786       1    4056    6070    7816    8232    3239    6123+
+           4125    3093    6129    6131
CTETRA      2787       1    8234    7814    8233    4060    6117    6116+
+           8257    3418    4138    3396
CTETRA      2788       1       6      22    4844    4849     240     814+
+            811     225     242    4947
CTETRA      2789       1    6403    4059    6419    4060    3426    3449+
+           6505    3431    4142    3433
CTETRA      2790       1    6420    6419    4059    4062    6507    3449+
+           3427    3587    3588    4149
CTETRA      2791       1      56      10     102      11     703    2339+
+            686     398     200     683
CTETRA      2792       1      27    4493    9082    4497     957    1144+
+            460     461    4600     462
CTETRA      2793       1    6419    6436    6435    4062    6556    6555+
+           6554    3588    3585    3584
CTETRA      2794       1    6390    6406    4046    7836    6454    2986+
+           3513    2393    3589    4087
CTETRA      2795       1      11    8536    8537    8431    1267    8544+
+           1270    1781    5471    5466
CTETRA      2796       1    4047    6072    6069    6390    3590    6140+
+           3591    3592    2391    2756
CTETRA      2797       1     151      79    8434     159    1979    1978+
+           1980    1989    1257    1991
CTETRA      2798       1     104    5494    8551    8552    2860    5505+
+           3395    2845    5506    8561
CTETRA      2799       1      51      53    8467    8581     384    1810+
+           1232     403    2154    5567
CTETRA      2800       1      18    5861    5862    8581    1545    5876+
+           1624     404    5875    5877
CTETRA      2801       1    8748    8747    8007    8720    8770    3043+
+           3042    7078    7071    7009
CTETRA      2802       1    4056    4054    6405    4052    4122    3099+
+           3098    4119    4113    3397
CTETRA      2803       1    4046    6390    4047    8597    3513    3592+
+           4089    3172    6607    3593
CTETRA      2804       1    4360    7877    3776    3777    4373    3165+
+           3164    3258    3429    3927
CTETRA      2805       1      28    3744    3740    7796    3594    3823+
+            269     273    3822    3815
CTETRA      2806       1    4040    4051    6437    6421    4107    3341+
+           3173    3441    3346    6560
CTETRA      2807       1    6439    7839    4390    5786    3503    4455+
+           1045    2926    3274    3595
CTETRA      2808       1    4058    4063    6436    4061    4155    3581+
+           3344    4146    4153    3582
CTETRA      2809       1    6422    4049    6406    7838    3507    3508+
+           6515    3454    4098    2961
CTETRA      2810       1    7885    7878    7879    7792    4198    7883+
+           4196    7258     793    3032
CTETRA      2811       1    9053    7857    9068    5967    7861    3277+
+           3237    3236    3276    6009
CTETRA      2812       1    7877    7884    3777    7878    4194    3596+
+           3429    7882    4197    3567
CTETRA      2813       1    3789    4361     168    4360    3377    2478+
+           1705    3356    4363    3597
CTETRA      2814       1    6422    7838    6423    6439    3454    2960+
+           6516    6563    3505    6564
CTETRA      2815       1    6438    7839    7838    6439    2972    7843+
+           3506    6562    3503    3505
CTETRA      2816       1    8087      47      45    8564     373     356+
+            380    5527    2940    2226
CTETRA      2817       1    6439    7838    6423    4391    3505    2960+
+           6564    1048    4450    1051
CTETRA      2818       1    4054    4051    6421    4052    4111    3346+
+           3440    4113    4112    3347
CTETRA      2819       1    8563      47    6441    5784     360     592+
+           3076    5847    3090    3075
CTETRA      2820       1    6435    4659    6434    4656    3549    3001+
+           6552    3547    4676    3004
CTETRA      2821       1    4659    4661    6450    6434    4687    3188+
+           2995    3001    3000    6597
CTETRA      2822       1    3777    7884    3771    7878    3596     272+
+           3924    3567    4197     792
CTETRA      2823       1    4051    4061    4058    6436    4145    4146+
+           4133    3343    3582    3344
CTETRA      2824       1    6435    7976    6419    4062    3548    3598+
+           6554    3584    4152    3588
CTETRA      2825       1    4062    6420    6419    6436    3587    6507+
+           3588    3585    6557    6556
CTETRA      2826       1    4789    8219    5165    4790    4797    3388+
+           3464    4792    4795    3500
CTETRA      2827       1    5016    5017    6444    8325    5067    2718+
+           3599    5065    5070    3564
CTETRA      2828       1    4656    6419    6418    6435    3007    6503+
+           2989    3547    6554    6553
CTETRA      2829       1    4053    4052    6404    4059    4120    3097+
+           3096    4136    4137    3241
CTETRA      2830       1    6069    8597    4042    4047    3512    3509+
+           3153    3591    3593    4083
CTETRA      2831       1    4717    6065    6395    4720    2441    2480+
+           2486    4762    2483    2482
CTETRA      2832       1    8214    8219    8220    8365    4972    8221+
+           4970    7542    3493    3492
CTETRA      2833       1    4789    5173    4790    5165    3465    3411+
+           4792    3464    5333    3500
CTETRA      2834       1    6418    6417    6401    4657    6499    6497+
+           6500    2990    3380    3515
CTETRA      2835       1    4657    6418    6402    6401    2990    6501+
+           2992    3515    6500    6502
CTETRA      2836       1    4661    6433    6434    8119    3185    6549+
+           3000    4684    3189    2509
CTETRA      2837       1    6450    6433    4661    6449    6596    3185+
+           3188    6595    6594    3187
CTETRA      2838       1    5172    8213    8218    8366     298    4968+
+            299    5315    7550    3600
CTETRA      2839       1    6451    4063    7975    7976    3022    4158+
+           3006    3005    4157    7982
CTETRA      2840       1    8235    8094    6402    8236    6076    2994+
+           6663    8249    6075    6664
CTETRA      2841       1    9103    5169    5167    5168    3601    5295+
+           3602    3474    5294    5296
CTETRA      2842       1    8778    8777    8029    4494    8785    2607+
+           2915     260    3340    4597
CTETRA      2843       1    7814    9055    4060    8234    7824    4140+
+           4138    6117    6121    3418
CTETRA      2844       1    4657    6401    6402    8094    3515    6502+
+           2992    4672    3514    2994
CTETRA      2845       1    6419    4059    7977    4060    3449    4144+
+           3009    3433    4142    4143
CTETRA      2846       1      19    8876    5681    8877    3317    5709+
+            234     230    8897    5710
CTETRA      2847       1    4658    7977    7978    6419    4664    7980+
+           4665    3008    3009    3432
CTETRA      2848       1    6416    6399    5026    6415    6492    3424+
+           3524    6491    6489    3526
CTETRA      2849       1     103    4837     156     160    1518    1524+
+           1223    1520    1522    1523
CTETRA      2850       1    9100    8365    8214    8220    8375    7542+
+           7541    3118    3492    4970
CTETRA      2851       1      47    8564    5785    5784    2940    5853+
+           2523    3090    5848    5852
CTETRA      2852       1      73    6408      65    6409    1042    1040+
+           1043    1373    6463    1374
CTETRA      2853       1     136    5175    8306    8130    2458    5328+
+           3578    3603    2199    3359
CTETRA      2854       1      35    6425    6442    6426     427    6572+
+            595     424    6525    6573
CTETRA      2855       1    8325    6411    4724    6428    3557    3563+
+           4782    3556    6532    3539
CTETRA      2856       1    7142    7965      31    9071    1774     294+
+           1775    7368    7967     295
CTETRA      2857       1      66      62      50    4711    1199     429+
+            454     455    1200     451
CTETRA      2858       1    9100    5691    8306    9092    3213    3215+
+           8309    3216    5754    3360
CTETRA      2859       1     113    5188    5187    5196    1478    5405+
+           3604    3605    5407    5406
CTETRA      2860       1     175     104    8078    8079    2229    2503+
+           2406    2231    2230    8082
CTETRA      2861       1    4719    6411    4724    8325    3405    3563+
+           4787    4786    3557    4782
CTETRA      2862       1    6411    4720    4719    4717    2485    4763+
+           3405    2484    4762    4760
CTETRA      2863       1      49      91    6425    6426     598    2418+
+            426     423    2420    6525
CTETRA      2864       1      45    8088    8563    4388    2227    5520+
+            359    2245    3450    3606
CTETRA      2865       1     166    5151    5152    8378    2094    5266+
+           3607    1565    5265    5263
CTETRA      2866       1    5024    5020    6415    5028    5100    3417+
+           3421    5113    5112    3416
CTETRA      2867       1      45    8564    8088    8087    2226    5521+
+           2227     380    5527    8093
CTETRA      2868       1      48    4386    4389    4391    1035    4440+
+           3140    1047    4449    4451
CTETRA      2869       1    4384      48      65    4386    1056    1036+
+           1049    4428    1035    1037
CTETRA      2870       1    6699    8746    8745    6698    2722    8767+
+           3366    6732    2666    3029
CTETRA      2871       1    6399    6400    5026    5018    6494    3460+
+           3424    3106    3459    5103
CTETRA      2872       1    7128    8357    5128    8358    7249    5416+
+            744    7247    8364    5279
CTETRA      2873       1     113    5197    5196    5129    3608    5419+
+           3605     756    5418    5413
CTETRA      2874       1      62     175      91      59    2083    2084+
+            599    2138    2250    2529
CTETRA      2875       1    6066    6393    8244    6062    2438    6681+
+           6094    6092    2221    6093
CTETRA      2876       1    8312    9104    5188    9033    8313    3609+
+           3610    4998    4997    1481
CTETRA      2877       1    7128    8311    8312    9034    3315    8315+
+           2389    7252    4996    4999
CTETRA      2878       1    4724    6444    6443    4723    2833    6577+
+           2844    4785    2794    2796
CTETRA      2879       1    4806    8226    5162    5193    4810    3494+
+           3227    3226    3442    5389
CTETRA      2880       1    7120    8390    8378    6881    7207    6915+
+           1570    1572    6917    6916
CTETRA      2881       1      59    4716    4710    7141    2270    4749+
+           2139    2247    3334    2246
CTETRA      2882       1     113    5188    5196    5197    1478    5407+
+           3605    3608    5415    5419
CTETRA      2883       1    4710    7141    4716    8138    2246    3334+
+           4749    4734    7362    4751
CTETRA      2884       1    8076      61      59    9085    2537     420+
+           2271    8081    2536    2269
CTETRA      2885       1    8070    4457    4694    4456    4468     934+
+           3611    4467    4466    3612
CTETRA      2886       1     175    4383    8079    7140    2078    3530+
+           2231    2405    3613    7355
CTETRA      2887       1    4383    7140    7950    8079    3613    7357+
+           4418    3530    7355    7354
CTETRA      2888       1      73    9075    8079    4383    1371    8080+
+           1378    1370    4419    3530
CTETRA      2889       1     120    3734    3758    3733     823    3874+
+           3406     834    3876    3875
CTETRA      2890       1      19    4849    4850    7423     228    4957+
+           2040    2298    2644    2299
CTETRA      2891       1    4225    8999    7896    7895     757    7277+
+           4324    4332    7278    7915
CTETRA      2892       1       1       3    8489    8998     179    2466+
+           1841    1820    2423    6044
CTETRA      2893       1    4225    7895    4226    7129    4332    4330+
+           4333    2014    7284    2022
CTETRA      2894       1    4224    7918    7443    7917    4326    7627+
+           2009    4327    7938    7630
CTETRA      2895       1     168    3785    3784    3788    1719    3955+
+           1697    3586    3967    3966
CTETRA      2896       1    3735    3734      94    3801    3860     824+
+           1395    4017    4018    1394
CTETRA      2897       1      21    8511    8923    8922    1882    5942+
+           2006    1146    5926    8940
CTETRA      2898       1    4849    8877    8187    8186     227    7470+
+           4948    4956    7468    8206
CTETRA      2899       1      22    4849    8878    4844     242    1886+
+           1885     814    4947    2605
CTETRA      2900       1    4849    8186    4850    7423    4956    4954+
+           4957    2644    7469    2299
CTETRA      2901       1     117     154     118    7419    1210    1858+
+            796     801    2290     802
CTETRA      2902       1    7871    3767    7872    4344    3614    3615+
+           7876    4345    3616    4346
CTETRA      2903       1      94    7853    7852    4179    1392    7856+
+           1456    1457    4184    4183
CTETRA      2904       1       6     119       8    4848     803     806+
+            193     222    1878     223
CTETRA      2905       1    6423    6407    6424      48    6518    6520+
+           6519    1052    2225    1059
CTETRA      2906       1    6405    6421    6404    4052    6513    6512+
+           6514    3397    3347    3097
CTETRA      2907       1    4343    7870    7871    3798    4356    7875+
+           4347    3617    3618    3619
CTETRA      2908       1    4041    4048    8596    4040    4092    2987+
+           3168    4094    4090    3345
CTETRA      2909       1    5968    5962    4208     107    6021    2376+
+           2337    1505    2379    1670
CTETRA      2910       1     165    4344     168    7991    1710    1699+
+           1704    1500    4352    1708
CTETRA      2911       1     109    5864    8575    8576    2255    5887+
+           1357    2253    5888    8586
CTETRA      2912       1    8597    6390    4047    6069    6607    3592+
+           3593    3512    2756    3591
CTETRA      2913       1     108    5966    5968    7969    2334    6018+
+           1504    1502    6012    6017
CTETRA      2914       1     144      90     146    4206    1170    1183+
+           1084    1080    1293    1083
CTETRA      2915       1    5780    6443    5779    8275    2788    2933+
+           5817    5816    6627    5804
CTETRA      2916       1    4051    6437    6420    6436    3341    6559+
+           3348    3343    6558    6557
CTETRA      2917       1     173     170    8983    9124    1938    2735+
+           2300    1940    1939    5774
CTETRA      2918       1       7    4848       8    4850     221     223+
+            192    2039    4958    2044
CTETRA      2919       1    6443    8274    8275    5780    6628    8286+
+           6627    2788    5813    5816
CTETRA      2920       1     152    8133    9093    8185    1206    8136+
+           1592    2732    4961    8207
CTETRA      2921       1    5008    5024    6415    6431    5099    3421+
+           3422    3570    3568    6542
CTETRA      2922       1      97    8377    6882    8378    1567    6920+
+           2918    1564    8381    6921
CTETRA      2923       1     140    5591    8438    8437    3128    5628+
+            976    1344    5629    8441
CTETRA      2924       1     126    6257    6265    6258     877    6293+
+           2318     880    6295    6294
CTETRA      2925       1    6690    6876    8653    8654    1595    6890+
+           6817    6816    6891    8663
CTETRA      2926       1    6148    6258    8625    6257     881    6385+
+           6165     879    6295    6386
CTETRA      2927       1     136    5174    5181    8305    1680    5355+
+           1678    1733    5327    5354
CTETRA      2928       1     141    5689    8130    8306    1655    5753+
+           1654    3579    3446    3359
CTETRA      2929       1    5173    5164    4789     167    5371    3463+
+           3465    3471    3473    3620
CTETRA      2930       1     141    9090     136    8130     989     960+
+            986    1654    8132    3603
CTETRA      2931       1    7136    8626    8627    6256    3413    8628+
+            525     526    6388    6389
CTETRA      2932       1    7136    7133    6257    7135    7318    2923+
+           2922    7319    7308    2921
CTETRA      2933       1    6257    7761    8625    6148    2928    6167+
+           6386     879    6166    6165
CTETRA      2934       1      97    6876    6882    8377    1594    6918+
+           2918    1567    6914    6920
CTETRA      2935       1    5012    8272    5009    6446    3058    3080+
+           5039    3060    6633    3074
CTETRA      2936       1    6877    6690    8653    6689    3621    6817+
+           6894    2930    6727    6818
CTETRA      2937       1      95    6877    6876    8376    3622    6892+
+           2615    2430    6889    6893
CTETRA      2938       1    6876    6690    8653    6877    1595    6817+
+           6890    6892    3621    6894
CTETRA      2939       1      95    7435    7436    6877    2428    7579+
+            635    3622    3623    2931
CTETRA      2940       1      95    6689    6696    6697    3306    6722+
+            636     641    6725    6724
CTETRA      2941       1    8753    8002    8001    8726    3624    8010+
+           3034    7058    7000    6999
CTETRA      2942       1      97    6882    6876    8654    2918    6918+
+           1594    1589    6919    6891
CTETRA      2943       1    8613    6880    6878    8424    3333    6908+
+           3330    2648    6912    6906
CTETRA      2944       1    8218    5168    5167    5171    3466    5296+
+           3470    3467    5308    5307
CTETRA      2945       1    7446    7771    8622    6260    7650    6196+
+           3230    2531    2697    6380
CTETRA      2946       1      60    4721    4723    4722    2910    4780+
+           2841    1487    4775    4779
CTETRA      2947       1    6268    7448    6267    6260    2545    2776+
+           6304    6305    2661    6302
CTETRA      2948       1      35      63    8085      50     441    1492+
+           1490     376     440    1489
CTETRA      2949       1    6879    8612    6687    9131     991    6778+
+            994    6899    8616    6779
CTETRA      2950       1    6879    8651    6687    8402    6902    6780+
+            994    6903    6886    2768
CTETRA      2951       1    6700    7122    7123    6693    2747    7214+
+           2724    6738    3151    2743
CTETRA      2952       1    8301    5167    9103    5157    3625    3602+
+           8303    3626    5287    3627
CTETRA      2953       1    8655    7121    8391    8656    1585    7205+
+           6929    8661    3229    6926
CTETRA      2954       1    8656    7121    8391    8392    3229    7205+
+           6926    6925    7206    8396
CTETRA      2955       1    7951    7950    4378    7140    7954    4401+
+           4400    7358    7357    2415
CTETRA      2956       1    9139    7998    9137    9049    6982    2783+
+           8716    6981    8014    2840
CTETRA      2957       1    8697    8696    6269    6276    8700    2642+
+           2854    3116    3251    6327
CTETRA      2958       1    8367    9103    9038    9102    3475    5002+
+           7582    7551    8322    9041
CTETRA      2959       1    7778    6278    6203    8640    2837    2839+
+           6218    6211    6360    6217
CTETRA      2960       1    4485    6278    7778    8640    2786    2837+
+           4553    2846    6360    6211
CTETRA      2961       1    6689      95    6877    6690    3306    3622+
+           2930    6727    2565    3621
CTETRA      2962       1    8696    9137    8757    6270    8699    8761+
+           7315    2640    3628    3312
CTETRA      2963       1    9137    9139    8757    7998    8716    7061+
+           8761    2783    6982    2785
CTETRA      2964       1    9140    9050    9138    8023    7026    3529+
+           8717    7028    8037    2635
CTETRA      2965       1    8784    8811    9140    8023    7096    8820+
+           7095    2632    7044    7028
CTETRA      2966       1    6281    6274    7450    6273    6342    1248+
+           3232    6341    6321    1244
CTETRA      2967       1    8408    9113    8848    6829    8412    3130+
+           3219    6869    6871    3218
CTETRA      2968       1     124    3756    7785    3761     838    3870+
+           1600     841    3888    3887
CTETRA      2969       1    9079    9142    9141    8009    3629    8836+
+           6988    8022    2623    6990
CTETRA      2970       1    7864    9059    3762    3772    7865    3630+
+           3571    3631    3632    3892
CTETRA      2971       1    4360    3776    3775    3769    3164    3914+
+           3633    3357    3917    3915
CTETRA      2972       1    8457    8567    4722    9086    5512    3207+
+           4776    8458    5513    4771
CTETRA      2973       1    4723    8567    8457    9120    3634    5512+
+           4777    4778    8568    8459
CTETRA      2974       1    8383    9142    6828    9079    2671    2672+
+           6865    8387    3629    6867
CTETRA      2975       1    6828    9142    8409    9079    2672    3635+
+           6866    6867    3629    8411
CTETRA      2976       1    4360    3777    3770    7878    3258    3925+
+           3257    4368    3567    3540
CTETRA      2977       1    8409    9142    6828    8849    3635    2672+
+           6866    2956    8852    3636
CTETRA      2978       1    9059    3773    3774    3772    3637    3899+
+           3638    3632    3901    3900
CTETRA      2979       1    7706    8848    8862    9147    2047    7222+
+           7708    7709    8851    8864
CTETRA      2980       1    8414    8853    9143    8844     700    8856+
+           3267    7022    7704    7703
CTETRA      2981       1    8854    6708    8853    6701    3046    3266+
+           8855    2856    6759    2857
CTETRA      2982       1    8033    4507    8772    8034    4638    3038+
+           2772    8046    4639    2773
CTETRA      2983       1    9143    9144    8772    8034    8837    7088+
+           8788    2770    7020    2773
CTETRA      2984       1    6706    6707    7124    7126    6756    3220+
+           3639    2206    3369    7227
CTETRA      2985       1    4360    7864    3772    7877    4375    3631+
+           3163    4373    4376    3162
CTETRA      2986       1      27    7945    8057    4457    3197    4470+
+           2600     933    4471    4465
CTETRA      2987       1    9059    3774    3762    3772    3638    3902+
+           3630    3632    3900    3892
CTETRA      2988       1    7121    6692    8656    8655    2917    6812+
+           3229    1585    6813    8661
CTETRA      2989       1    7123    8392    7121    6692    7210    7206+
+           7211    2725    2741    2917
CTETRA      2990       1    8085    8566      63      35    5515    3111+
+           1492    1490    3640     441
CTETRA      2991       1    9059    3774    3739    3762    3638    3896+
+           3641    3630    3902    3903
CTETRA      2992       1      35    8566      63    6442    3640    3111+
+            441     595    3642    2422
CTETRA      2993       1    7447    6267    7448    7451    2753    2776+
+           7658    7673    1249    7674
CTETRA      2994       1    8567    5779    5780    4723    5808    5817+
+           5818    3634    2932    2795
CTETRA      2995       1    7877    3772    3776    3773    3162    3912+
+           3165    3430    3901    3913
CTETRA      2996       1    7135    7137    6255    7136    7326    1914+
+           3379    7319    7325     524
CTETRA      2997       1    7137    6255    7136    7763    1914     524+
+           7325    7323    2767    7324
CTETRA      2998       1    7763    6255    7136    8627    2767     524+
+           7324    6157    6348     525
CTETRA      2999       1     129    9044     130    8604    1922    1920+
+            899     902    1921     903
CTETRA      3000       1    7137    7763    9043    6150    7323    7768+
+           7321    2765    6174    6176
CTETRA      3001       1    7763    6150    6255    8627    6174    2766+
+           2767    6157    6173    6348
CTETRA      3002       1    8651    8652    6688    8401    8665    6820+
+           6821    6885    6883    3643
CTETRA      3003       1    7438    7440    6687    7439    7572    1002+
+           2704    7565    7571    3644
CTETRA      3004       1    6687    8651    8401    8402    6780    6885+
+           3645    2768    6886    8404
CTETRA      3005       1    7877    3773    3776    3777    3430    3913+
+           3165    3429    3921    3927
CTETRA      3006       1    7440    8402    9112    6879    7569    8407+
+           7567    1001    6903    6905
CTETRA      3007       1     133    8427    6879    9112     996    6904+
+            990    1000    8429    6905
CTETRA      3008       1     101    5163    5159    5160    1695    5303+
+           3646    2233    5305    5304
CTETRA      3009       1    6205    6282    6208    8701    3647    3123+
+           6248    2965    3122    3062
CTETRA      3010       1    7447    6947    7741    6261    2751    6954+
+           2539    2540     477    2362
CTETRA      3011       1    9059    7793    3773    7877    3648    3898+
+           3637    7880    3428    3430
CTETRA      3012       1    6280    4483    7780    8638    3041    4542+
+           2690    6364    3525    6232
CTETRA      3013       1    9138    6281    8702    7450    3649    2963+
+           8704    7669    3232    7667
CTETRA      3014       1    9138    8702    6281    6206    8704    2963+
+           3649    2694    3565    3528
CTETRA      3015       1    6267    6266     158    6274    6300    3295+
+           1251    6323    6322    1247
CTETRA      3016       1    7139    7848    9024    9023    1805    4165+
+           7346    7347    4164    9027
CTETRA      3017       1    7793    7877    9060    7884    3428    4193+
+           7303    7304    4194    7886
CTETRA      3018       1    7450    9138    6280    8784    7669    2693+
+           3650    7670    8792    3376
CTETRA      3019       1     169    3751    3736    3748    2305    3840+
+           2180    3651    3843    3836
CTETRA      3020       1     119    8950    8951    8491    1063    8972+
+           3325    1410    5621    5622
CTETRA      3021       1    7756    8702    9138    6206    2948    8704+
+           2947    6240    3565    2694
CTETRA      3022       1    6398    8334    8335    8239    1780    8339+
+           3478    6671    6089    6087
CTETRA      3023       1      63    4713    4718    4714     434    4756+
+           1486    2899    4742    4757
CTETRA      3024       1    4723    8567    4722    8457    3634    3207+
+           4779    4777    5512    4776
CTETRA      3025       1    7804    3797    3798    7870    3999    3997+
+           4001    3400    3652    3618
CTETRA      3026       1    9061    7805    7804    3797    3407    7811+
+           3653    3352    4000    3999
CTETRA      3027       1    8701    8606    6282    6207    3182    6370+
+           3122    3120    2970    3121
CTETRA      3028       1    9138    7450    6280    6281    7669    3650+
+           2693    3649    3232    6340
CTETRA      3029       1    7867    3791    3792    3794     627    3989+
+           1391    3654    3988    3990
CTETRA      3030       1      33     175    7141    7155    2407    2248+
+           2410    2412    2411    7408
CTETRA      3031       1    7756    6205    8702    6206    6233    2964+
+           2948    6240    6236    3565
CTETRA      3032       1    8701    6281    6205    6282    2962    2966+
+           2965    3122    6343    3647
CTETRA      3033       1    9138    7756    9050    9140    2947    7758+
+           3529    8717    7027    7026
CTETRA      3034       1      40    9063    7847    7942    1160    7849+
+            324    3384    7943    4173
CTETRA      3035       1    4831    8170    8961    8960    4878    7164+
+           3031    3300    7165    8982
CTETRA      3036       1    8652    8400    8653    6689    6884    6896+
+           8664    6819    2929    6818
CTETRA      3037       1     133    6687    8612    6694     993    6778+
+            992    2849    6715    6782
CTETRA      3038       1    7805    7806    3793    9028    7812    4006+
+           4005    7682    7683    1403
CTETRA      3039       1    4510    6710    8385    8668    2775    2829+
+           4651    2834    6792    6832
CTETRA      3040       1    7453    7806    3733    7807    7691    4021+
+           1404    7689    7813    3884
CTETRA      3041       1     104    8551    8550    6062    3395    8557+
+           2224    2222    6090    6091
CTETRA      3042       1     122    3802    3801    3734    3143    4024+
+           1397     836    4023    4018
CTETRA      3043       1     129    6149    8603    6150     898    2802+
+           2958     896    6171    3350
CTETRA      3044       1    6256    6264    6263    7135    6289    6288+
+           6286    2920    2919    3056
CTETRA      3045       1     122    3802    3734    3733    3143    4023+
+            836     835    4022    3876
CTETRA      3046       1    9061    3792    3799    3794    3655    4009+
+           3656    3353    3990    4008
CTETRA      3047       1    9061    3792    3793    3799    3655    4010+
+           3657    3656    4009    4007
CTETRA      3048       1    9143    6710    4509    4507    3039    2827+
+           2771    2769    2774    4646
CTETRA      3049       1    4475    8781    8025    8026    2117    3658+
+           4513    4561    2552    8038
CTETRA      3050       1    8782    8783    4476    8025    8793    2685+
+           2554    2553    3296    4511
CTETRA      3051       1    8669    6710    4510    8668    6793    2775+
+           2835    8676    6792    2834
CTETRA      3052       1    9101    8356    8355    9104    7199    8362+
+           7198    8321    3659    3660
CTETRA      3053       1    9104    8356    8355    5192    3659    8362+
+           3660    3661    5395    5394
CTETRA      3054       1    6882      97    8655    8654    2918    1582+
+           6922    6919    1589    8662
CTETRA      3055       1      97    7120    6881    7121    1569    1572+
+           1571    1584    7202    2175
CTETRA      3056       1    8393    6880    6693    7122    6910    3331+
+           2744    7213    2746    3151
CTETRA      3057       1    4492    8750    8048    9081    1124    2589+
+           2587    1125    1126    8052
CTETRA      3058       1    6698    6691    7121    8747    6730    1586+
+           2720    2137    1588    7203
CTETRA      3059       1    4490    8050    9063    7942    2576    8054+
+           1161     927    4707    7943
CTETRA      3060       1    6699    6691    7121    6698    6733    1586+
+           2721    6732    6730    2720
CTETRA      3061       1    8355    8208    9101    8225    7200    8210+
+           7198    3444    4974    4973
CTETRA      3062       1    4503    8032    8775    8031    4630    2777+
+            634    4621    8044    3309
CTETRA      3063       1     113    8357    5188    5197    1479    5401+
+           1478    3608    5414    5415
CTETRA      3064       1    7438    8773    7436    6696    7553    7555+
+           7554    2701    2569     637
CTETRA      3065       1    8747    6691    6690    6698    1588    6731+
+           2134    2137    6730    6729
CTETRA      3066       1    8365    8213    5166    8366    7552    3543+
+           5318    8374    7550    5317
CTETRA      3067       1    8748    8720    8007    8721    7078    7009+
+           3042    7079    8743    7013
CTETRA      3068       1      23      25      26     174     254     252+
+            255    2109    2114    2096
CTETRA      3069       1      25    8776    7441    7442     347    7593+
+            340    2202    7596    7597
CTETRA      3070       1    4501    6697    4504    6698    3308    2526+
+           4625    2136    6728    2538
CTETRA      3071       1    7132    9051    7760    7787    7342    7766+
+           7332    3199    7788    6158
CTETRA      3072       1    4501    8746    8008    8007    2665    2667+
+           4615    4613    3314    8020
CTETRA      3073       1     113    9033    7128    8312    1480    7250+
+            753    1482    4998    2389
CTETRA      3074       1    4505    6704    6696    6703    2659    6748+
+           2570    2572    6747    6746
CTETRA      3075       1    6702    7438    6703    8772    3303    3301+
+           6744    3307    7556    3302
CTETRA      3076       1     126    4481    6264    8755     871    2556+
+           2925     888    2550    2560
CTETRA      3077       1    8753    8726    8001    8727    7058    6999+
+           3034    7057    8735    6997
CTETRA      3078       1    5134    8367    9103    9038    5213    3475+
+           3498    3499    7582    5002
CTETRA      3079       1    6153    8623    8624     148    6193    8633+
+           6190    2125    2580    1601
CTETRA      3080       1     126    6148    7133    6257     878     883+
+            882     877     879    2923
CTETRA      3081       1    4480    6265    6264    6272    2674    6292+
+           2555    2681    6317    6316
CTETRA      3082       1    6203    9139    9137    9049    3250    8716+
+           3028    6220    6981    2840
CTETRA      3083       1    4789    5172    5165    8219    3662    5320+
+           3464    4797     297    3388
CTETRA      3084       1    4789    5165    5172    5171    3464    5320+
+           3662    3469    5313    5322
CTETRA      3085       1    8366    5172    5168    8218    5315    5316+
+           5293    3600     299    3466
CTETRA      3086       1    8773    8800    8774    8032    7091    7094+
+           8791    2836    7036    2673
CTETRA      3087       1    6700    8424    6880    8613    2647    6912+
+           2748    6805    2648    3333
CTETRA      3088       1    8218    8366    9102    9103    3600    7549+
+           4967    8224    3476    8322
CTETRA      3089       1    9103    5169    5157    5167    3601    5297+
+           3627    3602    5295    5287
CTETRA      3090       1    8366    9102    8213    8218    7549    8215+
+           7550    3600    4967    4968
CTETRA      3091       1      95      42    8775    7441    2004     332+
+            633    2429     339    7591
CTETRA      3092       1     123    4474     148      38    2119    1151+
+           1606    1607    1409    1408
CTETRA      3093       1    4489    4493    8048    4693    4583    2620+
+           2586    3316    3663    4695
CTETRA      3094       1    4494    8055    8777    4497     257    3323+
+           3340    4598     463    1141
CTETRA      3095       1    9103    5134    5157    5169    3498    5298+
+           3627    3601    5291    5297
CTETRA      3096       1     124    3756     121    3754     838     844+
+           2308    2128    3866    2303
CTETRA      3097       1    7904    5963    5964    8987    3664    6003+
+           3378    7261    6002    6005
CTETRA      3098       1    6411    8324    8325    4719    3404    8331+
+           3557    3405    4767    4786
CTETRA      3099       1     122    7853    3793    9028    1405    3200+
+           1402    1401    4169    1403
CTETRA      3100       1      60    6443    6426    6442    2842    6575+
+            425    2421    6574    6573
CTETRA      3101       1    8605    6947    6946    8689    2801    6952+
+           1925    3566    6955    6948
CTETRA      3102       1    7803    3767    3783    7872    3947    3946+
+           3945    3338    3615    3271
CTETRA      3103       1     133    7723     128    9116    1741    2739+
+            922     923    7729     919
CTETRA      3104       1     133    6701    8613    8614    1743    6784+
+            924    3134    6783    8618
CTETRA      3105       1     133    6694    8613    6701    2849    6781+
+            924    1743    6740    6784
CTETRA      3106       1    6147    6258    8625    6148    1605    6385+
+           6161    6163     881    6165
CTETRA      3107       1     128    6700    8613    7707    3198    6805+
+            921    2649    2646    2645
CTETRA      3108       1    6700    7123    7126    6699    2724    7230+
+           3370    6736    2723    2207
CTETRA      3109       1    7122    6700    7123    7126    2747    2724+
+           7214    7229    3370    7230
CTETRA      3110       1      85    8576    5532    8577     565    5556+
+            580     562    8587    5559
CTETRA      3111       1    7122    9111    6880    8424    7215    6913+
+           2746    2745    8426    6912
CTETRA      3112       1     128    8614    6700    6707     895    6806+
+           3198    2038    6803    6758
CTETRA      3113       1     128    8862    8848    7124    3126    7222+
+           2046    3222    7220    7218
CTETRA      3114       1    8612    8613    6880    6878    8617    3333+
+           3332    3326    3330    6908
CTETRA      3115       1    8686    7134     130    6930    7328    1909+
+           3011    6932    2848    1917
CTETRA      3116       1     129    8604    6149    9044     902    3329+
+            898    1922    1921    6169
CTETRA      3117       1    4205    5961    5963    8988    1660    5998+
+           1663    2889    5997    5999
CTETRA      3118       1    8354    8209    8208    8226    7197    8212+
+           7201    3501    4978    4977
CTETRA      3119       1     152    7422    7428    7431    3297    7502+
+           1591    2026    7519    7518
CTETRA      3120       1    8355    8225    8226    8208    3444    8230+
+           3443    7200    4974    4977
CTETRA      3121       1    9104    5189    5194    5192    3665    5403+
+           3666    3661    5397    5399
CTETRA      3122       1     113    5197    5129    5128    3608    5418+
+            756     755    5417    5271
CTETRA      3123       1      66    7433    7426    7434    1380    7536+
+            456    2081    7530    7535
CTETRA      3124       1      33    7151    7154    7155    1024    7412+
+           1022    2412    7413    7414
CTETRA      3125       1    9104    5194    5189    5187    3666    5403+
+           3665    3667    5404    5385
CTETRA      3126       1      33    7155    7154    7140    2412    7414+
+           1022    2413    7417    7418
CTETRA      3127       1    8298    5189    5187    9104    3668    5385+
+            661    8300    3665    3667
CTETRA      3128       1      98    5186    5199    5195    3545    5426+
+           3669    3670    5425    5427
CTETRA      3129       1    6258    8624    6147    8625    6384    6162+
+           1605    6385    8629    6161
CTETRA      3130       1    8356    9104    9033    5188    3659    4997+
+           7240    5400    3609    1481
CTETRA      3131       1    5439    5433     100    5440    5486     820+
+            705    5489    5487     704
CTETRA      3132       1    8112    8111     164    5535    8115    1432+
+           1477    5585    5586    1443
CTETRA      3133       1    8111    5434    8104     164    1434    5448+
+           3671    1432    1433    3327
CTETRA      3134       1     137    8111    8104     136     964    3671+
+           3672     962     963    1689
CTETRA      3135       1     106    5434    9077    5435    2953    5452+
+           2894    2365    5451    5453
CTETRA      3136       1    6712    4508    8383    8670    2630    4640+
+           2669    6796    2629    6858
CTETRA      3137       1    8409    8849    8839    9142    2956    7699+
+           6991    3635    8852    7698
CTETRA      3138       1    9142    7125    6713    8849    7225    3673+
+            873    8852    7223    3674
CTETRA      3139       1    9142    8849    6713    6828    8852    3674+
+            873    2672    3636    3675
CTETRA      3140       1    7126    8745     176    6699    7233    3676+
+           2205    2207    3366    2174
CTETRA      3141       1    6713     176    8745    6712    2251    3676+
+            876    6772    3677     875
CTETRA      3142       1    7126    7125    7124    6706    7228    7224+
+           7227    2206    2220    3639
CTETRA      3143       1    7124    8862    7122    6700    7220    7216+
+           7221    3223    2750    2747
CTETRA      3144       1    7124    6706    7125    8849    3639    2220+
+           7224    7219    3678    7223
CTETRA      3145       1    7803    7890    7889    7871    7607    7893+
+           7645    3339    4192    4191
CTETRA      3146       1    6713     176    6712    6705    2251    3677+
+           6772    6773    2142    6771
CTETRA      3147       1    7804    7870    7871    7889    3400    7875+
+           3679    7644    4188    4191
CTETRA      3148       1    9061    3794    3799    3797    3353    4008+
+           3656    3352    4002    4004
CTETRA      3149       1      93    4360    7864    3775    3354    4375+
+            609    1827    3633    1828
CTETRA      3150       1      93    3766    3765    3795    1713    3952+
+           3680    1832    3979    3978
CTETRA      3151       1    7125    8849    6706    6713    7223    3678+
+           2220    3673    3674    6774
CTETRA      3152       1    8745    8009    9141    9142    2624    6990+
+           7068    8765    2623    8836
CTETRA      3153       1    7124    8849    6707    6706    7219    3221+
+           3220    3639    3678    6756
CTETRA      3154       1    8408    6827    6829    8848    6860    6870+
+           6869    3219    3561    3218
CTETRA      3155       1    7123    6692    7121    6699    2725    2917+
+           7211    2723    6734    2721
CTETRA      3156       1     128    6700    7124    6707    3198    3223+
+           3222    2038    6758    3220
CTETRA      3157       1    7805    3797    9061    3799    4000    3352+
+           3407    4003    4004    3656
CTETRA      3158       1    8753    9024    7847    8752    7341    4162+
+            325    8760    7340    1156
CTETRA      3159       1    7792    9053    3782    7879    7802    3939+
+           3941    3032    3253    3402
CTETRA      3160       1     121    3734    3735    3755     827    3860+
+           2307     843    3859    3858
CTETRA      3161       1    7792    3771    7879    3782    3923    3033+
+           3032    3941    3943    3402
CTETRA      3162       1    7805    3799    9061    3793    4003    3656+
+           3407    4005    4007    3657
CTETRA      3163       1     129    7137    9043    6150    1912    7321+
+           2761     896    2765    6176
CTETRA      3164       1     129    9044    7738    6931    1922    7739+
+            897    1923    6937    6938
CTETRA      3165       1    7134    6269    8697    8696    1908    2854+
+           7314    7313    2642    8700
CTETRA      3166       1    9135    8697    6204    8706    6962    3114+
+           3067    8708    6963    3068
CTETRA      3167       1    8554    4717    6065    8553    2274    2441+
+           6107    8559    2442    6102
CTETRA      3168       1    7134    6262    6269    6270    1910    6308+
+           1908    2641    6310    6309
CTETRA      3169       1      91    6426    6409    6425    2420    6526+
+           1376    2418    6525    6524
CTETRA      3170       1     129    6149    7738    9044     898    6168+
+            897    1922    6169    7739
CTETRA      3171       1    7137    6255    6262    6263    1914    6283+
+           1911    2763    6285    6284
CTETRA      3172       1     122    9028    7453    7853    1401    7692+
+            829    1405    4169    2166
CTETRA      3173       1    9062    7805    7804    9061    7643    7811+
+           7642    7846    3407    3653
CTETRA      3174       1    6204    7750    8706    6202    6223    6979+
+           3068    6224    6213    2955
CTETRA      3175       1    3795    3797    7870    3798    3996    3652+
+           3681    3995    3997    3618
CTETRA      3176       1      60    4724    4721    4719    2843    4788+
+           2910    3534    4787    4773
CTETRA      3177       1    7762    7136    8626    8627    7316    3413+
+           6154    6156     525    8628
CTETRA      3178       1     130    6930    8681    6931    1917    6936+
+           1226    1924    6935    6934
CTETRA      3179       1    8697    8706    8696    6202    6963    6966+
+           8700    3210    2955    3252
CTETRA      3180       1     130    8681    6947    9044    1226    6950+
+           1919    1920    8683    6953
CTETRA      3181       1    8604    6149      70    8603    3329    1132+
+            473    8608    2802    2291
CTETRA      3182       1    6151    6261      70    8621    2377     476+
+           1131    6180    6378    2380
CTETRA      3183       1    7447    8689    6947    6268    7660    6955+
+           2751    2522    2521    2344
CTETRA      3184       1      45      65      49      46     448     450+
+            363     350    2082     362
CTETRA      3185       1     129    8604    6262    8603     902    6349+
+            901    2958    8608    6350
CTETRA      3186       1     168    3787    3788    3784    1700    3968+
+           3586    1697    3965    3966
CTETRA      3187       1    4344    3787    3784    3783    1701    3965+
+           1698    3318    3962    3957
CTETRA      3188       1    4343    3798    7871    3767    3617    3619+
+           4347    3682    3994    3614
CTETRA      3189       1      60    4724    6411    6427    2843    3563+
+           3533    3532    3531    6530
CTETRA      3190       1    7793    3777    7884    3771    3920    3596+
+           7304    3922    3924     272
CTETRA      3191       1    6267    7449    6275    6274    2752    2853+
+           6325    6323    2875    6324
CTETRA      3192       1    8626    6257    6256    7136    6387    6291+
+           6388    3413    2922     526
CTETRA      3193       1     133    6879    6878    8612     990    6900+
+            995     992     991    3326
CTETRA      3194       1    8613    9116    6878     133     920    6898+
+           3330     924     923     995
CTETRA      3195       1    7439    7436    6689    7438    7564    2699+
+           2934    7565    7554    2700
CTETRA      3196       1     133    9116    8427    7723     923    8428+
+            996    1741    7729    7730
CTETRA      3197       1     133    8427    9112    7723     996    8429+
+           1000    1741    7730    7732
CTETRA      3198       1    8413    6823    8854    6826    6834    3048+
+           3052    6849    6850    3045
CTETRA      3199       1    8064    8106    9084    9083    5480    1750+
+           3683    8065    8110    2241
CTETRA      3200       1    7437    8853    6702    6701    7559    3516+
+           3304    2855    2857    6741
CTETRA      3201       1    7145    7153      31    7146    7406     290+
+           3537    7391    7407     291
CTETRA      3202       1     128    8614    8613    6700     895    8618+
+            921    3198    6806    6805
CTETRA      3203       1    7723     128    9116    8868    2739     919+
+           7729    7726    2610    8870
CTETRA      3204       1    4789    5164    5163     167    3463    5311+
+           3684    3620    3473    1694
CTETRA      3205       1    8418    9147    6822    7706    7719    3132+
+           6845    7721    7709    3133
CTETRA      3206       1     167    5182    5183    5179    3336    5363+
+           3555    1683    5360    5361
CTETRA      3207       1    4807    5178    5182    5179    3685    5357+
+           3337    3686    5352    5360
CTETRA      3208       1    7707    8613    9116    8424    2645     920+
+           7713    7714    2648    8425
CTETRA      3209       1    7122    9111    8424    7707    7215    8426+
+           2745    2749    7716    7714
CTETRA      3210       1    8401    6687    7439    6688    3645    3644+
+           7562    3643    6719    3687
CTETRA      3211       1     127     128    8848    6707     894    2046+
+           1629    1651    2038    1652
CTETRA      3212       1    8393    6693    6880    8657    2744    3331+
+           6910    6911    6810    6909
CTETRA      3213       1    8172    9099    5593    8964    8178    3262+
+           3154    7193    7194    5635
CTETRA      3214       1    8756    4482    8757    7999    2564    3027+
+           8762    2563    4540    2784
CTETRA      3215       1    8696    6202    6277    6276    3252    3688+
+           3255    3251    3211    6328
CTETRA      3216       1    8626    7761    8625    6257    6155    6167+
+           8630    6387    2928    6386
CTETRA      3217       1      93    3790    3796    3764    1838    3986+
+           1836    3246    3985    3984
CTETRA      3218       1    9028    7805    9061    3793    7682    3407+
+           4168    1403    4005    3657
CTETRA      3219       1     120    3761    3759    3760     840    3889+
+           2159    3409    3891    3883
CTETRA      3220       1    7134    7135    6270    8757    7312    3310+
+           2641    7311    7310    3312
CTETRA      3221       1    7853    9028    9061    3793    4169    4168+
+           7855    3200    1403    3657
CTETRA      3222       1    6208    9134    7747    9048    3057    6959+
+           6250    6249    6958    7748
CTETRA      3223       1     135    8749    4495    4492    1783    1786+
+           1116    2187    2608    4592
CTETRA      3224       1    8356    5192    9104    5194    5395    3661+
+           3659    5398    5399    3666
CTETRA      3225       1    5190    5192    5189    9104    5391    5397+
+           5377    3689    3661    3665
CTETRA      3226       1    7450    7449    6281    8702    7668    3079+
+           3232    7667    7663    2963
CTETRA      3227       1     111    5129    5153    5128     739    5269+
+           3419     743    5271    5270
CTETRA      3228       1     158    6274    7450    7451    1247    1248+
+           1243    1252    1250    7672
CTETRA      3229       1    8783    8810    8811    8024    7099    8822+
+           7100    2687    7046    7048
CTETRA      3230       1    9104    5187    5188    5194    3667    5405+
+           3609    3666    5404    5402
CTETRA      3231       1    9143    8772    6702    6703    8788    3307+
+           3517    3293    3302    6744
CTETRA      3232       1    6712     176    8745    6705    3677    3676+
+            875    6771    2142    2658
CTETRA      3233       1    8849    6713    6828    6827    3674    3675+
+           3636    3690    3691    6862
CTETRA      3234       1     113    8357    5197    5128    1479    5414+
+           3608     755    5416    5417
CTETRA      3235       1    7121    8391    6881    8655    7205    6928+
+           2175    1585    6929    6924
CTETRA      3236       1    8409    9142    8839    9141    3635    7698+
+           6991    6989    8836    8842
CTETRA      3237       1    9142    8409    9079    9141    3635    8411+
+           3629    8836    6989    6988
CTETRA      3238       1    9101    8356    9104    9033    7199    3659+
+           8321    9036    7240    4997
CTETRA      3239       1      25    8776    7442    8316     347    7596+
+           2202     338     348    2218
CTETRA      3240       1    8367    5169    9103    5168    5290    3601+
+           3475    5292    5294    3474
CTETRA      3241       1    4482    8756    8757    6271    2564    8762+
+           3027    2562    3313    3311
CTETRA      3242       1    9103    8218    5168    5167    8224    3466+
+           3474    3602    3470    5296
CTETRA      3243       1      43     112     114      99    2193     746+
+           2190    1127     751     752
CTETRA      3244       1    7125     176    8745    6713    2219    3676+
+           7226    3673    2251     876
CTETRA      3245       1     128    7124    8848    6707    3222    7218+
+           2046    2038    3220    1652
CTETRA      3246       1    8853    6824    6709    6823    2946    3270+
+           3269     702    6837    3284
CTETRA      3247       1      34     152    8133    7429    1204    1206+
+           1099    1383    1593    1384
CTETRA      3248       1      39      37    4179      40     317     619+
+           1458     315     318     616
CTETRA      3249       1    7442    9039    9038    8317    7594    9042+
+           7595    2217    5004    5003
CTETRA      3250       1    8778    8832    8831    8056    7585    8835+
+           7584    3321    7112    7113
CTETRA      3251       1    7440    7437    6695    6694    7573    3279+
+           2702    2851    2850    6716
CTETRA      3252       1    8773    8033    8799    8800    2575    7031+
+           7090    7091    7032    8813
CTETRA      3253       1    9143    6703    4507    8772    3293    2573+
+           2769    8788    3302    3038
CTETRA      3254       1    6206    9138    7756    9050    2694    2947+
+           6240    6241    3529    7758
CTETRA      3255       1    9084    4979    4987    8154    3692    1969+
+           4993    3693    4982    2613
CTETRA      3256       1    8750    9081    9095    8048    1126    8152+
+           7237    2589    8052    6974
CTETRA      3257       1      97    6881    8378    6882    1571    6916+
+           1564    2918    6923    6921
CTETRA      3258       1    8773    4507    8772    8033    2574    3038+
+           8789    2575    4638    2772
CTETRA      3259       1    8750    9081    8311    9034    1126    8314+
+           1123    7236    4995    4996
CTETRA      3260       1      99      98    5186    8298     657    3545+
+            663     659    2208     662
CTETRA      3261       1    7437    6694    6702    6695    2850    6742+
+           3304    3279    6716    6743
CTETRA      3262       1    8069    8062    9065    7986     912    8068+
+            908     854    5443    7990
CTETRA      3263       1     131    4694    8070    4457     931    3611+
+            909     910     934    4468
CTETRA      3264       1      98    4987    5198    8301    1968    3694+
+            670     671    4994     668
CTETRA      3265       1    8070    4693    4456    4694     941     951+
+           4467    3611    4702    3612
CTETRA      3266       1     120    3759     124    7452    2159    3195+
+            839    2162    2161    1612
CTETRA      3267       1    7452    3759    9052    7807    2161    3879+
+           7687    7688    3881    7808
CTETRA      3268       1     124    7786    7785    3757    1597    7790+
+           1600    3145    3869    3868
CTETRA      3269       1    8062     125    8069    5534    2121     855+
+            912    2123    1093    5579
CTETRA      3270       1     124    7785    3759    3761    1600    3880+
+           3195     841    3887    3889
CTETRA      3271       1    8063    4694    8070    8062    4703    3611+
+           3362    8067    4706    3363
CTETRA      3272       1    4491    8057    9064    8779     446    8061+
+           1467    1455    3319    1468
CTETRA      3273       1    7986    5433     125    8062    5444    2107+
+            856    5443    5441    2121
CTETRA      3274       1    8069     125    7993    5534     855     858+
+           5575    5579    1093    5577
CTETRA      3275       1    8063     100    5433    5534     819     820+
+           5442    3364    1094    2122
CTETRA      3276       1    7991     164    5434    5529    1449    1433+
+           2952    5543    1431    1364
CTETRA      3277       1    8050    4490    4489    4694    2576    4577+
+           2593    4705    3108    2597
CTETRA      3278       1      29    3753    3752    3749    3487    3854+
+           2602    2396    3857    3850
CTETRA      3279       1    7452    3759    7785    9052    2161    3880+
+           1611    7687    3879    7791
CTETRA      3280       1    7446    7770    6152    8623    7649    6199+
+           2935    2582    6200    6195
CTETRA      3281       1    7991    7984     164    7985    1510    3328+
+           1449    1450    7988    1442
CTETRA      3282       1     168    4343    7992    4344    1715    4349+
+           1830    1699    4348    4351
CTETRA      3283       1    7867    9061    3794    3792    7868    3353+
+           3654    1391    3655    3990
CTETRA      3284       1    7864      92    3738    7848     605     603+
+           3170    4172    2183    1800
CTETRA      3285       1     125     100    5534    5433    1091    1094+
+           1093    2107     820    2122
CTETRA      3286       1    7992    7993     125    5534    7994     858+
+           1831    5578    5577    1093
CTETRA      3287       1    7794    3773    3774    9059    3897    3899+
+           3895    3695    3637    3638
CTETRA      3288       1    7794    3739    9059    3774    3818    3641+
+           3695    3895    3896    3638
CTETRA      3289       1    7864    7877    9059    3772    4376    7880+
+           7865    3631    3162    3632
CTETRA      3290       1    8070    8069    5534    8062    8074    5579+
+           5580    3363     912    2123
CTETRA      3291       1    9059    3772    7877    3773    3632    3162+
+           7880    3637    3901    3430
CTETRA      3292       1     168    7992    4343    7993    1830    4349+
+           1715    1723    7994    4350
CTETRA      3293       1     165    4361     168    3789    2472    2478+
+           1704    1706    3377    1705
CTETRA      3294       1    5439    8070     100    8063    3696    2001+
+            705    5485    3362     819
CTETRA      3295       1    9060    9059    7794    9023    7845    3695+
+           7305    9026    4163    7336
CTETRA      3296       1    5439    5528     100    8070    1984     675+
+            705    3696    5537    2001
CTETRA      3297       1    8063    8062    5534    5433    8067    2123+
+           3364    5442    5441    2122
CTETRA      3298       1     131    8069    8070    8062     905    8074+
+            909     911     912    3363
CTETRA      3299       1    3738    3762    9059    3739    4028    3630+
+           3171    3809    3903    3641
CTETRA      3300       1    5528    5439      96    8070    1984    3697+
+           1778    5537    3696    3698
CTETRA      3301       1     121    3754    3756    3755    2303    3866+
+            844     843    3865    3867
CTETRA      3302       1    8780    8779    7852    9029    8796    1452+
+           1451    7681    7680    4167
CTETRA      3303       1    4486    8753    8752    8002    1152    8760+
+           1157    4558    3624    3389
CTETRA      3304       1     124    3752    7786    3757    2603    3855+
+           1597    3145    3872    3869
CTETRA      3305       1    9064    4490    7945    8057    1470     918+
+           7946    8061     445    4470
CTETRA      3306       1    8004    8750    8005    8723    2590    3386+
+           8017    7004    7075    7011
CTETRA      3307       1    4694    8070    8062     131    3611    3363+
+           4706     931     909     911
CTETRA      3308       1    3745    3743      28    3749    3830     265+
+           3383    3820    3847    1017
CTETRA      3309       1    8071    8064      96    9084    3365    3699+
+           1777    8072    3683    1752
CTETRA      3310       1    8070    4456     134    8071    4467     952+
+            938    8073    4461     953
CTETRA      3311       1    8064    8070    8071      96     939    8073+
+           3365    3699    3698    1777
CTETRA      3312       1      39    4474    4487    4488    1755    4565+
+           1464    1466    4567    4568
CTETRA      3313       1    4473    8002    8001    8753    4518    8010+
+           4515    1153    3624    3034
CTETRA      3314       1    7848    9023    3739    9059    4164    3700+
+           1799    7850    4163    3641
CTETRA      3315       1     134    9083    9084    8154     937    2241+
+            955     935    8155    3693
CTETRA      3316       1    8070    8063    5439    8064    3362    5485+
+           3696     939    8066    5484
CTETRA      3317       1      96    8105    8106    5439     644    8107+
+            647    3697    5483    5482
CTETRA      3318       1     134    8154    9084    8157     935    3693+
+            955     954     947    8158
CTETRA      3319       1    8070    5439      96    8064    3696    3697+
+           3698     939    5484    3699
CTETRA      3320       1    5528    8105      96    5439     676     644+
+           1778    1984    5483    3697
CTETRA      3321       1      28    7796    3745    3744     273    3824+
+           3383    3594    3822    3819
CTETRA      3322       1      28    3744    3745    3749    3594    3819+
+           3383    1017    3821    3820
CTETRA      3323       1       4    4225    4224    4226     190    4329+
+            189     787    4333    4334
CTETRA      3324       1    6424      48    6408      65    1059    1039+
+           6521    2417    1036    1040
CTETRA      3325       1      62      33     175    4710    1198    2407+
+           2083    1379    1019    2249
CTETRA      3326       1      46    4378    4377    4381    1389    4403+
+           1195    2087    4407    4406
CTETRA      3327       1    8752    9073    9063    8050    7339    7948+
+           1158    2596    6972    8054
CTETRA      3328       1      32    7151    7146    7153    1025    7397+
+            293     292    7410    7407
CTETRA      3329       1    3768    4360    3769    3789    3701    3357+
+           3916    3975    3356    3977
CTETRA      3330       1     123    8781    8780    7452    2118    8798+
+           2169    2120    7686    7693
CTETRA      3331       1      27    4457    8057    8056     933    4465+
+           2600    3702    4464    8060
CTETRA      3332       1    4489    4693    8048    8049    3316    4695+
+           2586    2594    4696    8051
CTETRA      3333       1    4714    4715      63    4713    4740     442+
+           2899    4742    4741     434
CTETRA      3334       1     148    8623    6152    6153    2580    6195+
+           2544    2125    6193    6194
CTETRA      3335       1      93    3768    3764    3765    1721    3908+
+           3246    3680    3910    3909
CTETRA      3336       1      59    4718    4716    4717     416    4758+
+           2270    2273    4759    4754
CTETRA      3337       1    8750    9034    9095    9081    7236    9035+
+           7237    1126    4995    8152
CTETRA      3338       1     132    4487    4490    4491    1461    4576+
+            916    2313    4578    4579
CTETRA      3339       1    7120    5154      97    8378    1578    1581+
+           1569    1570    5275    1564
CTETRA      3340       1    7128    8312    9033    9034    2389    4998+
+           7250    7252    4999    9037
CTETRA      3341       1      23    5144    5139    5140     248    5216+
+           3394     250    5215    5214
CTETRA      3342       1     134    8064    9084    9083     936    3683+
+            955     937    8065    2241
CTETRA      3343       1      73    4385    4383    4384    2507    4422+
+           1370    1050    4426    4425
CTETRA      3344       1    6690      95    6877    6876    2565    3622+
+           3621    1595    2615    6892
CTETRA      3345       1     174    5144      23    5138    2102     248+
+           2109    3385    5242     249
CTETRA      3346       1      35    6442      60    6426     595    2421+
+            422     424    6573     425
CTETRA      3347       1      41    8316    8317    4987     337    8320+
+            327     369    4991    4990
CTETRA      3348       1    8048    4493    4492    8154    2620    4585+
+           2587    4700     946    2598
CTETRA      3349       1    4711      62      50    4715    1200     429+
+            451    4748     444     443
CTETRA      3350       1    8776    9039    7442    8316    7587    7594+
+           7596     348    5001    2218
CTETRA      3351       1      36    3749      28      29    1016    1017+
+            306    1736    2396     264
CTETRA      3352       1      73    6408    6392    4387    1042    6461+
+            496    2506    2535    3249
CTETRA      3353       1      45    4381    4382    4380    2088    4410+
+            353    2090    4414    4413
CTETRA      3354       1    8069    7986    9065    9066     854    7990+
+            908    8075    3703     907
CTETRA      3355       1      45      48    4388    8563     358    1055+
+           2245     359     361    3606
CTETRA      3356       1    4497    8055    8777    9082     463    3323+
+           1141     462    8059    1142
CTETRA      3357       1    8848    8849    6827    6714    8850    3690+
+           3561    1631    3704    3560
CTETRA      3358       1    8028    4494    8778    8029    4588     260+
+           2913    8041    4597    2915
CTETRA      3359       1      23    5135    8369    5139     245    5210+
+           2209    3394    5218    5217
CTETRA      3360       1    6687    7438    6688    6695    2704    3305+
+           6719    6717    2703    6718
CTETRA      3361       1     167     136    5181    5182    1688    1678+
+           3577    3336    1734    5359
CTETRA      3362       1      27    8157    8055    9082     959    4463+
+            258     460    8159    8059
CTETRA      3363       1    4479    8811    8023    8024    2689    7044+
+           4528    4526    7048    8036
CTETRA      3364       1    8869    6825    7722    8615    2706    2807+
+           7733    2708    3705    2709
CTETRA      3365       1    8777    9096    8055    8831    7588    7110+
+           3323    7589    8834    7111
CTETRA      3366       1    7125    8745     176    7126    7226    3676+
+           2219    7228    7233    2205
CTETRA      3367       1    8453      73    9075    6392    2505    1371+
+           8454    3550     496    1372
CTETRA      3368       1    8779    9029    9064    7852    7680    4166+
+           1468    1452    4167    7854
CTETRA      3369       1    7436    6877    7435    8399    2931    3623+
+           7579    7577    6888    7578
CTETRA      3370       1    8682    6201    8606    6207    2711    3016+
+           3124    2710    6245    2970
CTETRA      3371       1     112    5146    5149    5150    2324    5259+
+           2092     737    5256    5260
CTETRA      3372       1    8682    6201    7744    6930    2711    6228+
+           6944    6941    3017    6945
CTETRA      3373       1     112    5149    5151    5150    2092    5261+
+           2095     737    5260    5262
CTETRA      3374       1    8636    6282    6208    6205    6368    3123+
+           6254    6253    3647    6248
CTETRA      3375       1    8754    8001    8000    8727    2551    8011+
+           3288    7059    6997    6995
CTETRA      3376       1    6268    8605    6275    8689    6374    6371+
+           6326    2521    3566    2852
CTETRA      3377       1    8312    5188    5187     113    3610    5405+
+           2385    1482    1478    3604
CTETRA      3378       1    8696    6277    6202    6203    3255    3688+
+           3252    3254    2954    6216
CTETRA      3379       1     122    7806    3793    3802    1400    4006+
+           1402    3143    4019    4020
CTETRA      3380       1    8773    8032    8033    8800    2836    8045+
+           2575    7091    7036    7032
CTETRA      3381       1    6710    4509    4507    4510    2827    4646+
+           2774    2775    4652    4655
CTETRA      3382       1    9148    8854    7722    6825    8857    2808+
+           7725    2809    3051    2807
CTETRA      3383       1      37    3741    3738      30    3706    3811+
+           2184    1802    2185    1797
CTETRA      3384       1    7435    8376    7441    9110    1509    2111+
+           7592    7590    8379    7598
CTETRA      3385       1    4481    8756    8000    7999    2559    2912+
+           4534    4539    2563    8012
CTETRA      3386       1    4481    6271    8756    4482    2557    3313+
+           2559    4537    2562    2564
CTETRA      3387       1    8025    8783    4476    8024    3296    2685+
+           4511    8035    2687    4514
CTETRA      3388       1      29    3749    3752    3750    2396    3850+
+           2602    3372    3849    3851
CTETRA      3389       1     166    5147    8377    5152    1997    5250+
+           1568    3607    5267    5264
CTETRA      3390       1      29    3743    3753    3749     266    3856+
+           3487    2396    3847    3857
CTETRA      3391       1    6699    8745     176    6698    3366    3676+
+           2174    6732    3029    2140
CTETRA      3392       1    7139    7847    9024    7848    2579    4162+
+           7346    1805    7851    4165
CTETRA      3393       1    8195    9100    8890    5691    8199    7538+
+           7537    3214    3213    5755
CTETRA      3394       1      28    3744    3749    3747    3594    3821+
+           1017     270    3834    3846
CTETRA      3395       1     123    8781    4474    4488    2118    2115+
+           2119    2163    2312    4567
CTETRA      3396       1    6064    5027    8332    6063    3438    5105+
+           6080    6085    3436    6084
CTETRA      3397       1    6706    8849    6714    6713    3678    3704+
+           6776    6774    3674    6775
CTETRA      3398       1    3801     122      94    3792    1397    1396+
+           1394    4011    3201    1393
CTETRA      3399       1     137    8104    5434    9089    3672    5448+
+           1365    3231    8109    5447
CTETRA      3400       1    8777    8316    9082    9039    1140    8318+
+           1142    7586    5001    5000
CTETRA      3401       1      44    4987    8157    8316    2216    4992+
+            944     346    4991    4988
CTETRA      3402       1    6707    6706    8849    6714    6756    3678+
+           3221    6777    6776    3704
CTETRA      3403       1    7722    8615    6825    6708    2709    3705+
+           2807    3129    6785    3050
CTETRA      3404       1      24    5142    5136    5135     247    5228+
+           2212     244    5227    5202
CTETRA      3405       1     135    8311    4492    8154    2195    1122+
+           2187     949    4981    2598
CTETRA      3406       1    4493    8154    8048    4693     946    4700+
+           2620    3663    4698    4695
CTETRA      3407       1     166    5147    5152    5149    1997    5267+
+           3607    2093    5258    5268
CTETRA      3408       1    6707    6699    7126    6706    6757    2207+
+           3369    6756    6755    2206
CTETRA      3409       1      24    9038    5134    8317    3707    3499+
+           3393     330    5003    3497
CTETRA      3410       1    8301    9103    5133    5157    8303    3708+
+           2215    3626    3627    5423
CTETRA      3411       1    5133    9103    5134    5157    3708    3498+
+           5204    5423    3627    5298
CTETRA      3412       1    7442    8316    9039    8317    2218    5001+
+           7594    2217    8320    5004
CTETRA      3413       1      38      39     123    4474    1747    1749+
+           1607    1409    1755    2119
CTETRA      3414       1    8783    7448    6267    7451    7675    2776+
+           2939    7676    7674    1249
CTETRA      3415       1    7440    7439    8402    6687    7571    7570+
+           7569    1002    3644    2768
CTETRA      3416       1     113    9033    8312    5188    1480    4998+
+           1482    1478    1481    3610
CTETRA      3417       1    5022    8334    8335    6398    5091    8339+
+           5085    2454    1780    3478
CTETRA      3418       1    8298    5186    5187    5189     662    5384+
+            661    3668    5383    5385
CTETRA      3419       1    5187      99     113    5196     660     750+
+           3604    5406    1475    3605
CTETRA      3420       1    7133    6264    7135    8756    2924    2919+
+           7308    7309    2561    7307
CTETRA      3421       1      24    5134    8368    5137    3393    5212+
+           3390    3391    5205    5211
CTETRA      3422       1    5007    5011    6430    5015    5032    2471+
+           2470    5057    5058    2525
CTETRA      3423       1    8301    5133    5198    5157    2215    5424+
+            668    3626    5423    5422
CTETRA      3424       1    6282    6281    6205    8636    6343    2966+
+           3647    6368    6367    6253
CTETRA      3425       1    8849    6713    6827    6714    3674    3691+
+           3690    3704    6775    3560
CTETRA      3426       1    6281    7449    6274    6282    3079    2875+
+           6342    6343    3212    6344
CTETRA      3427       1    8605    9134    6946    8606    2896    6949+
+           1925    8610    2897    2971
CTETRA      3428       1      24    5133    5137    5136    2213    5203+
+           3391    2212    5206    5200
CTETRA      3429       1     135    4979    8311    8154    1133    4983+
+           2195     949    4982    4981
CTETRA      3430       1    4208    7904    5963    5964    4256    3664+
+           2265    2375    3378    6003
CTETRA      3431       1    8776    8802    8803    8031    7084    8816+
+           7085    2616    7035    7037
CTETRA      3432       1    6416    5027    5026    6400    3523    5109+
+           3524    6493    3437    3460
CTETRA      3433       1    5008    6430    6431    6414    2469    6540+
+           3570    3175    6539    6541
CTETRA      3434       1    7137    6263    7134    7135    2763    2762+
+           7327    7326    3056    7312
CTETRA      3435       1    4379    4378    7152    7952    4402    1004+
+           1007    4399    4404    7400
CTETRA      3436       1    8354    8227    9099    8209    3502    3233+
+           8360    7197    4976    7196
CTETRA      3437       1    6201    8682    8606    6930    2711    3124+
+           3016    3017    6941    2713
CTETRA      3438       1      26    5144    5145    5142    2101    5244+
+           2103    2177    5241    5243
CTETRA      3439       1      23    5139    5142    5135    3394    5229+
+            246     245    5218    5227
CTETRA      3440       1    8368    7442      24    8369    7601    2204+
+           3390    8370    7600    2210
CTETRA      3441       1      24    8369    5135    8368    2210    5210+
+            244    3390    8370    5209
CTETRA      3442       1      24    5135    5136    5137     244    5202+
+           2212    3391    5201    5200
CTETRA      3443       1      24    7442    8368    9038    2204    7601+
+           3390    3707    7595    7583
CTETRA      3444       1    8615    8614     127    6707    8619     891+
+           1495    6804    6803    1651
CTETRA      3445       1      31    7153    7145    7150     290    7406+
+           3537     296    7405    7393
CTETRA      3446       1     175    4383    7140    4378    2078    3613+
+           2405    2076    4416    2415
CTETRA      3447       1    4510    6711    6703    6710    2628    6767+
+           2663    2775    6766    6765
CTETRA      3448       1    4502    8747    6690    4501    2034    2134+
+           2566    4618    2133    2135
CTETRA      3449       1    5133    8317    5134    9103     370    3497+
+           5204    3708    8319    3498
CTETRA      3450       1      24    5134    5133    8317    3393    5204+
+           2213     330    3497     370
CTETRA      3451       1    7438    6696    6688    6695    2701    6721+
+           3305    2703    6720    6718
CTETRA      3452       1    9099    5178    9091    8227    5343    3263+
+           3234    3233    3264    8229
CTETRA      3453       1    8304    9091    5593    9099    3575    5631+
+           3036    8308    3234    3262
CTETRA      3454       1    6263    7135    6271    6270    3056    3055+
+           6313    6311    3310    6312
CTETRA      3455       1    4485    6271    6278    6279    2684    6333+
+           2786    2639    6335    6334
CTETRA      3456       1    6274    6266     158    6273    6322    3295+
+           1247    6321    6320    1242
CTETRA      3457       1    6698    8745     176    6705    3029    3676+
+           2140    6752    2658    2142
CTETRA      3458       1    8385    6824    8668    6710    6839    6838+
+           6832    2829    2828    6792
CTETRA      3459       1    8383    8009    9142    9079    4642    2623+
+           2671    8387    8022    3629
CTETRA      3460       1    6711    6710    4510    8669    6766    2775+
+           2628    6794    6793    2835
CTETRA      3461       1    9143    6710    6703    6702    3039    6765+
+           3293    3517    6764    6744
CTETRA      3462       1    4508    6704    6711    6712    2660    6768+
+           2626    2630    6770    6769
CTETRA      3463       1    8668    8669    8384    4510    8676    6831+
+           6830    2834    2835    4649
CTETRA      3464       1    4490    4486    8050    4489    4575    2577+
+           2576    4577    4570    2593
CTETRA      3465       1      30    3742    3738    3739    1806    3808+
+           1797    1796    3810    3809
CTETRA      3466       1      36    7139      30    7848     307     276+
+            305     303    1805    1798
CTETRA      3467       1      72      15      14    5873     852     209+
+            560    2468    1729    1730
CTETRA      3468       1    6279    6278    4485    8639    6334    2786+
+           2639    6362    6361    2847
CTETRA      3469       1      30    3738    3742    3741    1797    3808+
+           1806    2185    3811    3805
CTETRA      3470       1    4483    6272    6279    6280    2680    6336+
+           2637    3041    6338    6337
CTETRA      3471       1    9023      30    7848    3739    1804    1798+
+           4164    3700    1796    1799
CTETRA      3472       1    4502    4505    4501    6697    4628    4627+
+           4618    2314    2315    3308
CTETRA      3473       1    9137    6270    6278    6271    3628    6332+
+           2778    3285    6312    6333
CTETRA      3474       1    9137    6203    8696    8707    3028    3254+
+           8699    6964    2951    6965
CTETRA      3475       1    6827    6714    8672    6829    3560    6800+
+           6875    6870    3562    6874
CTETRA      3476       1    6827    8672    6714    6713    6875    6800+
+           3560    3691    6799    6775
CTETRA      3477       1    9142    6828    6713    6712    2672    3675+
+            873     874    2670    6772
CTETRA      3478       1    6828    6827    6713    8671    6862    3691+
+           3675    6861    6863    6798
CTETRA      3479       1      28      36    7138    7139     306     320+
+            275     278     307    7349
CTETRA      3480       1      28    3747    3740    3744     270    3832+
+            269    3594    3834    3823
CTETRA      3481       1    7795    7139      30    7796    7353     276+
+           1803    7797    7352     277
CTETRA      3482       1    3737      37    3741    3738     623    3706+
+           3812    3813    2184    3811
CTETRA      3483       1      30    3742    3740    3741    1806    3806+
+            268    2185    3805    3807
CTETRA      3484       1    8409    6827    8849    6828    6859    3690+
+           2956    6866    6862    3636
CTETRA      3485       1    5027    6401    6063    6400    3455    3456+
+           3436    3437    6498    3434
CTETRA      3486       1    9138    6206    6281    6280    2694    3528+
+           3649    2693    2691    6340
CTETRA      3487       1    6275    7449    8701    6282    2853    7662+
+           3181    6345    3212    3122
CTETRA      3488       1    7437    8853    8772    6702    7559    7561+
+           7557    3304    3516    3307
CTETRA      3489       1      92      94      37    4179     614    2181+
+            620    2548    1457     619
CTETRA      3490       1    6204    8642    6276    6201    6229    6356+
+           3206    6227    6222    3018
CTETRA      3491       1    6930    7744    9133    6201    6945    6943+
+           6933    3017    6228    3066
CTETRA      3492       1    6201    8642    6276    8606    6222    6356+
+           3018    3016    6355    6353
CTETRA      3493       1    5005    6398    8335    8240    2455    3478+
+           5084    2654    6672    6088
CTETRA      3494       1    4213      58    4214      13     407    1438+
+           4289     410    1437    1430
CTETRA      3495       1    8636    6282    9130    6207    6368    6369+
+           8649    6243    3121    6242
CTETRA      3496       1    8701    8689    7449    6275    7666    7664+
+           7662    3181    2852    2853
CTETRA      3497       1    3738    7848    3739    9059    1800    1799+
+           3809    3171    7850    3641
CTETRA      3498       1    7864    9059    3738    3762    7865    3171+
+           3170    3571    3630    4028
CTETRA      3499       1    8672    6714    9132    6822    6800    6801+
+           8680    6868    1494    6847
CTETRA      3500       1    6822    8869    7706     127    2705    7717+
+           3133    1496     890    2048
CTETRA      3501       1    6827    8409    8849    8408    6859    2956+
+           3690    6860    8410    2957
CTETRA      3502       1    6420    4061    4062    4059    3583    4150+
+           3587    3427    4148    4149
CTETRA      3503       1    9147    8848    9113    6829    8851    3130+
+           7718    3127    3218    6871
CTETRA      3504       1    6282    9130    6207    8606    6369    6242+
+           3121    6370    8611    2970
CTETRA      3505       1      74      72      22    8509     851    2427+
+           1814    1816    2612    1817
CTETRA      3506       1    9134    8689    8605    6946    8690    3566+
+           2896    6949    6948    1925
CTETRA      3507       1    6201    8642    8606    9130    6222    6355+
+           3016    6221    8645    8611
CTETRA      3508       1     117    8945    9125    9126    2286    8946+
+            799     798    5775    8485
CTETRA      3509       1     174    5148    5147    5144    3412    5249+
+           1998    2102    5252    5245
CTETRA      3510       1    5136      24      26    5142    2212     253+
+           2178    5228     247    2177
CTETRA      3511       1    6207    6282    6208    8636    3121    3123+
+           6252    6243    6368    6254
CTETRA      3512       1    6202    8642    8641    6276    6230    8646+
+           6215    3211    6356    6357
CTETRA      3513       1      97    4499    4498    4502     652    4607+
+           2033     649    4617    4616
CTETRA      3514       1    8615    8666    6825    6708    6787    6843+
+           3705    6785    6788    3050
CTETRA      3515       1     148    7446    6259    6266    2581    2532+
+           1602    3070    2726    6298
CTETRA      3516       1    6714    9132    6822    8615    6801    6847+
+           1494    6802    8620    1493
CTETRA      3517       1     117      34     152      82    2283    1204+
+           1215    2018    1026    1205
CTETRA      3518       1    7439    7438    6688    6687    7565    3305+
+           3687    3644    2704    6719
CTETRA      3519       1    7867    3792    7853    9061    1391    1390+
+           4180    7868    3655    7855
CTETRA      3520       1    8402    6687    7439    8401    2768    3644+
+           7570    8404    3645    7562
CTETRA      3521       1    7722    6708    6701    8614    3129    6759+
+           2858    2707    6786    6783
CTETRA      3522       1    8869    6825    8615    6822    2706    3705+
+           2708    2705    6846    1493
CTETRA      3523       1    4483    4480    6272    6273    4555    2681+
+           2680    2676    2678    6318
CTETRA      3524       1    8615    6825    8666    9132    3705    6843+
+           6787    8620    6842    8673
CTETRA      3525       1     133    8865    7723    9112     999    7731+
+           1741    1000    8866    7732
CTETRA      3526       1    6823    6708    8666    8667    3049    6788+
+           6855    6836    6789    8674
CTETRA      3527       1    8865    7437    6701    8854    7574    2855+
+           1742    7575    7560    2856
CTETRA      3528       1      30    7795    3740    3742    1803    3814+
+            268    1806    3816    3806
CTETRA      3529       1    4377    7958    7427    4382    4405    7500+
+           3109    4408    4409     355
CTETRA      3530       1      50    7426    4715    8085     453    3709+
+            443    1489    7492    1491
CTETRA      3531       1      60      63    4722    6443    1485    1488+
+           1487    2842    3536    3538
CTETRA      3532       1    4382    8088    4380    7957    2416    2419+
+           4413    4415    7496    4411
CTETRA      3533       1    7958    7427    4382    7957    7500     355+
+           4409    7963    7499    4415
CTETRA      3534       1      33      66    4377    4379    1031    1193+
+           1192    1006    1102    4397
CTETRA      3535       1    9076    4388    8563    8088    4438    3606+
+           5519    8090    3450    5520
CTETRA      3536       1      26    5149    5145    5147    2319    5257+
+           2103    2100    5258    5246
CTETRA      3537       1    4715    4714    8085    8145    4740    3403+
+           1491    4743    4738    7491
CTETRA      3538       1      41    8317      24    5133     327     330+
+            329     367     370    2213
CTETRA      3539       1      62    4711    4710    4713    1200    4736+
+           1379     435    4746    4747
CTETRA      3540       1      63    4714    8085    4715    2899    3403+
+           1492     442    4740    1491
CTETRA      3541       1    4711    4715    7426    8146    4748    3709+
+            452    4745    4744    7495
CTETRA      3542       1      26     112    5146    5149    2192    2324+
+           2431    2319    2092    5259
CTETRA      3543       1    8145    4714    8085    9086    4738    3403+
+           7491    8149    4739    8089
CTETRA      3544       1      65      91    6409    6425    1377    1376+
+           1374     600    2418    6524
CTETRA      3545       1    9143    6702    6709    6710    3517    6762+
+           3268    3039    6764    6763
CTETRA      3546       1    9143    6824    6710    6709    3040    2828+
+           3039    3268    3270    6763
CTETRA      3547       1    3758     120     121    3734    3406     826+
+            842    3874     823     827
CTETRA      3548       1    3756     120     121    3758     837     826+
+            844    3878    3406     842
CTETRA      3549       1      36     169      38      39    1738    1740+
+            308     314    2073    1747
CTETRA      3550       1     169    3748    3750    3751    3651    3844+
+           3371    2305    3843    3845
CTETRA      3551       1    8312    5187      99     113    2385     660+
+           1484    1482    3604     750
CTETRA      3552       1     101    5160    5159    5191    2233    5304+
+           3646    2236    5378    5379
CTETRA      3553       1     111    5151    5153    5150    2384    5273+
+           3419     738    5262    5272
CTETRA      3554       1     111    5129    5150    5153     739    5254+
+            738    3419    5269    5272
CTETRA      3555       1    7437    6701    6702    6694    2855    6741+
+           3304    2850    6740    6742
CTETRA      3556       1    8432      55      11    8536    1533    1531+
+           1534    5472    1546    1267
CTETRA      3557       1      40    4487    4486    4490    1462    4566+
+           1162     917    4576    4575
CTETRA      3558       1    8853    6701    6709    6702    2857    6761+
+           3269    3516    6741    6762
CTETRA      3559       1    9137    6278    6270    6277    2778    6332+
+           3628    3256    6331    6330
CTETRA      3560       1    8696    6269    6277    6270    2642    6329+
+           3255    2640    6309    6330
CTETRA      3561       1      31    4379    7150    7965    1033     288+
+            296     294    4393     289
CTETRA      3562       1    7951    7952    7152    4378    7955    7400+
+           7402    4400    4404    1004
CTETRA      3563       1    8730    7999    8729    8756    6993    6994+
+           8732    7063    2563    7064
CTETRA      3564       1     136     167    5184    5173    1688    3472+
+           1679    2459    3471    5366
CTETRA      3565       1    9137    6278    6277    6203    2778    6331+
+           3256    3028    2839    2954
CTETRA      3566       1    6704    6705    6712    4508    6750    6771+
+           6770    2660    2656    2630
CTETRA      3567       1    4806    4807    5179    5162    4811    3686+
+           1681    3227    3496    5351
CTETRA      3568       1      31      32      34      82     279     283+
+            282     533    1012    1026
CTETRA      3569       1      92    4171    7848    7864    3710    4174+
+           2183     605    4178    4172
CTETRA      3570       1    6278    4484    4482    4485    2779    4548+
+           2782    2786    4554    4557
CTETRA      3571       1    3767    4343    3766    4344    3682    1716+
+           3958    3616    4348    1712
CTETRA      3572       1    8640    8639    7779    4485    8643    6210+
+           6209    2846    2847    4551
CTETRA      3573       1     136    8111    8130    9090     963    4801+
+           3603     960    8116    8132
CTETRA      3574       1    8782    8810    8025    8809    7097    7045+
+           2553    7098    8821    7047
CTETRA      3575       1    3792    3801    3800      94    4011    4014+
+           4013    1393    1394     613
CTETRA      3576       1      94    7867    7853    4179     625    4180+
+           1392    1457    4186    4184
CTETRA      3577       1    7780    8023    9138    9050    4544    2635+
+           2692    7782    8037    3529
CTETRA      3578       1    6281    6273    7450    6280    6341    1244+
+           3232    6340    6339    3650
CTETRA      3579       1    6397    6413    5013    6414    6481    3552+
+           3178    6484    6483    3180
CTETRA      3580       1    8636    6281    6205    8637    6367    2966+
+           6253    8650    6366    6237
CTETRA      3581       1    5005    6398    5022    8335    2455    2454+
+           5083    5084    3478    5085
CTETRA      3582       1     124    3754    3752    3757    2128    3863+
+           2603    3145    3873    3872
CTETRA      3583       1    6280    6273    8784    4483    6339    1245+
+           3376    3041    2676    2631
CTETRA      3584       1    6206    6280    8637    6281    2691    6365+
+           6235    3528    6340    6366
CTETRA      3585       1      29    3752    3753    7786    2602    3854+
+           3487    2156    3855    3852
CTETRA      3586       1    8747    8719    8007    8720    7070    7007+
+           3043    7071    8740    7009
CTETRA      3587       1    8774    8032    8800    8801    2673    7036+
+           7094    7093    7034    8815
CTETRA      3588       1      42     112      43      26    2003    2193+
+           2173    2099    2192    1890
CTETRA      3589       1    4507    8773    8772    6703    2574    8789+
+           3038    2573    2662    3302
CTETRA      3590       1    6699    6692    7121    6691    6734    2917+
+           2721    6733    6735    1586
CTETRA      3591       1    4495    8005    8749    8006    4591    2614+
+           1786    4593    8018    3291
CTETRA      3592       1      44    4493    9082    8157     942    1144+
+           1143     944     943    8159
CTETRA      3593       1      86    4209     107     110    1665    1668+
+           1667    2259    3149    3711
CTETRA      3594       1    8670    6712    8671    6828    6796    6797+
+           8678    6864    2670    6861
CTETRA      3595       1    8746    8718    8008    8719    7073    7010+
+           2667    7072    8741    7008
CTETRA      3596       1    6827    8672    6713    8671    6875    6799+
+           3691    6863    8679    6798
CTETRA      3597       1    6447    8271    5009    5777    6635    3078+
+           3073    2981    5799    3569
CTETRA      3598       1    5008    6446    5012    5009    3072    3060+
+           5037    5038    3074    5039
CTETRA      3599       1    8316      44    4497    9082     346    1137+
+           1139    8318    1143     462
CTETRA      3600       1     166    5152    5151    5149    3607    5266+
+           2094    2093    5268    5261
CTETRA      3601       1    8408    8849    6827    8848    2957    3690+
+           6860    3219    8850    3561
CTETRA      3602       1    7125    6706     176    6713    2220    2141+
+           2219    3673    6774    2251
CTETRA      3603       1    8848    6714    6707    8849    1631    6777+
+           1652    8850    3704    3221
CTETRA      3604       1      25    8776    4500    8775     347    1136+
+            334     333    8786     336
CTETRA      3605       1     174    8376    5148    5138    2112    5248+
+           3412    3385    5223    5251
CTETRA      3606       1    8344    5777    5009    8271    5796    3569+
+           5044    5798    5799    3078
CTETRA      3607       1    4489    4693      27    4493    3316    3030+
+           3294    4583    3663     957
CTETRA      3608       1     166    5152    8377    8378    3607    5264+
+           1568    1565    5263    8381
CTETRA      3609       1    6828    6712    8671    6713    2670    6797+
+           6861    3675    6772    6798
CTETRA      3610       1    6201    6207    9130    8606    6245    6242+
+           6221    3016    2970    8611
CTETRA      3611       1     148    7786    7787    6147    1598    7789+
+           2158    1604    6185    6164
CTETRA      3612       1    8638    6280    8637    6206    6364    6365+
+           8648    6238    2691    6235
CTETRA      3613       1    7446    7448    6267    8783    7655    2776+
+           2530    7661    7675    2939
CTETRA      3614       1     148    6153    7786    6147    2125    6191+
+           1598    1604    6189    6185
CTETRA      3615       1       3    8490    8999    5971    1415    6052+
+            758    1417    6051    6048
CTETRA      3616       1    5132    5143      26    5131    5230    2179+
+           2320    5232    5231    2214
CTETRA      3617       1    8298    5189    5191    5186    3668    5376+
+            678     662    5383    5386
CTETRA      3618       1    8696    6276    6277    6269    3251    6328+
+           3255    2642    6327    6329
CTETRA      3619       1    6276    6269    6930    8605    6327    1915+
+           2712    6354    6351    1916
CTETRA      3620       1     114    7128    8749    8311     754    7253+
+           1784    2194    3315    2434
CTETRA      3621       1    7134    7135    6263    6270    7312    3056+
+           2762    2641    3310    6311
CTETRA      3622       1    6442    8276    5785    8565    6625    5849+
+           2497     594    5806    5850
CTETRA      3623       1    4491    4488    8027    8780    4573    4572+
+           4574    1453    2171    2583
CTETRA      3624       1    8696    6277    9137    6270    3255    3256+
+           8699    2640    6330    3628
CTETRA      3625       1     169    3749      36      29    2124    1016+
+           1738    1739    2396    1736
CTETRA      3626       1    9137    6271    8757    6270    3285    3311+
+           8761    3628    6312    3312
CTETRA      3627       1     123    8780    7852    7453    2169    1451+
+           2167     833    7695    3014
CTETRA      3628       1    5965    9053    5967    7857    3368    3236+
+           6013    3367    7861    3276
CTETRA      3629       1    8639    6278    4485    8640    6361    2786+
+           2847    8643    6360    2846
CTETRA      3630       1    6202    8641    6203    6277    6215    6214+
+           6216    3688    6358    2954
CTETRA      3631       1      36    8753      40    4487     322     321+
+            316    1757    1154    1462
CTETRA      3632       1     142    7115     173     143    1061    1950+
+           1949    1069    1412    1953
CTETRA      3633       1    7134    8696    8757    6270    7313    7315+
+           7311    2641    2640    3312
CTETRA      3634       1    8194    8889    8888    5692    7543    8907+
+           7546    2904    5762    5765
CTETRA      3635       1    6202    6277    6276    8641    3688    6328+
+           3211    6215    6358    6357
CTETRA      3636       1    6695    6702    7438    6703    6743    3303+
+           2703    6745    6744    3301
CTETRA      3637       1    4226    7895    7894    7129    4330    7914+
+           4331    2022    7284    7288
CTETRA      3638       1    6824    6710    6709    8668    2828    6763+
+           3270    6838    6792    6791
CTETRA      3639       1    8848    6822    6714    6829    1630    1494+
+           1631    3218    6873    3562
CTETRA      3640       1    8853    6708    6709    6701    3266    6760+
+           3269    2857    6759    6761
CTETRA      3641       1    8355    9104    8225    9101    3660    8231+
+           3444    7198    8321    4973
CTETRA      3642       1    7706    9147    6822    8848    7709    3132+
+           3133    2047    8851    1630
CTETRA      3643       1    6823    6708    8667    6709    3049    6789+
+           6836    3284    6760    6790
CTETRA      3644       1    6822    6714    6829    8672    1494    3562+
+           6873    6868    6800    6874
CTETRA      3645       1    5192    9104    8225    8355    3661    8231+
+           3574    5394    3660    3444
CTETRA      3646       1    4505    6696    6704    6697    2570    6748+
+           2659    2315    6724    6749
CTETRA      3647       1     128    8614    7722    7723     895    2707+
+           2609    2739    2859    7727
CTETRA      3648       1    8670    4508    8383    8384    2629    4640+
+           6858    6857    4641    8386
CTETRA      3649       1    8384    6711    8670    4508    2625    6795+
+           6857    4641    2626    2629
CTETRA      3650       1    8414    8844    9143    9144    7022    7703+
+           3267    7021    8847    8837
CTETRA      3651       1    6822    8615    9132    6825    1493    8620+
+           6847    6846    3705    6842
CTETRA      3652       1      18    4199    5862    8917    1618    2798+
+           1624    1626    1824    5879
CTETRA      3653       1      15    5873    5872    8583    1729    5941+
+           1620    1726    5940    5932
CTETRA      3654       1      16      55      11      51     389    1531+
+           1826     383    1543     684
CTETRA      3655       1    4225    7896    8999    8998    4324    7277+
+            757    2424    7280    9018
CTETRA      3656       1    4218    7922    8918    7921    4294    7621+
+           1628    4295    7934    7618
CTETRA      3657       1      57     147      56      10    1113    1555+
+            396     555    2338     703
CTETRA      3658       1       8    4850    4848    4851    2044    4958+
+            223    1929    4963    4966
CTETRA      3659       1    8301    5133    9103    8317    2215    3708+
+           8303    4989     370    8319
CTETRA      3660       1    8301    9103    5167    8218    8303    3602+
+           3625    4805    8224    3470
CTETRA      3661       1    4789    8218    5171    5172    4802    3467+
+           3469    3662     299    5322
CTETRA      3662       1    4223    4216      15    8920    4314     865+
+            863    2425    3712    1732
CTETRA      3663       1      76      64      87    8470     540     571+
+           1985    2792    2147    2874
CTETRA      3664       1    4344    3783    3784    3767    3318    3957+
+           1698    3616    3946    3956
CTETRA      3665       1    4201    7900    8992    8991    4282    7270+
+           2877    2872    7267    9005
CTETRA      3666       1    4204    4207    5867    7924    4250    2866+
+           2068    4243    4251    3713
CTETRA      3667       1    4204    8915    7924    5867    2810    7609+
+           4243    2068    5899    3713
CTETRA      3668       1    4207    7925    8914    7924    4254    7615+
+           3714    4251    7930    7612
CTETRA      3669       1    8582      15    5872    8583    1818    1620+
+           5931    8588    1726    5932
CTETRA      3670       1      93    3775    3763    3764    1827    3904+
+            610    3246    3907    3906
CTETRA      3671       1      37    4171    7848      92     301    4174+
+            304     620    3710    2183
CTETRA      3672       1    7977    7978    6419    4060    7980    3432+
+           3009    4143    4141    3433
CTETRA      3673       1    6419    4062    7977    4059    3588    4151+
+           3009    3449    4149    4144
CTETRA      3674       1    4656    7977    6419    7976    4662    3009+
+           3007    4663    7981    3598
CTETRA      3675       1    4503    4500    8031    8775    4620    4619+
+           4621     634     336    3309
CTETRA      3676       1     147    8956    5590    8955    1549    5627+
+           2130    2452    8973    5626
CTETRA      3677       1      13      17      16      11     213     212+
+            211     847     846    1826
CTETRA      3678       1    4840    8165    8166    8955    4926    8180+
+           4925    2453    7171    7168
CTETRA      3679       1    4842    8167    8956    8166    4918    7170+
+           1527    4919    8179    7167
CTETRA      3680       1     168    3784    3785    3766    1697    3955+
+           1719    1711    3954    3953
CTETRA      3681       1       9    4217    4216    4219     218    4300+
+            864     860    4307    4308
CTETRA      3682       1     168    7985    4360    4361    2477    4362+
+           3597    2478    4364    4363
CTETRA      3683       1    8954      68    9117    5589    1562     465+
+           5612    5610    1560    5614
CTETRA      3684       1    4222    8922    7918    7919     776    7631+
+           4319    4318    7624    7937
CTETRA      3685       1       3    8952    8489    8490    2467    5617+
+           2466    1415    5618    8505
CTETRA      3686       1      78    5687    8470    5688    1334    5740+
+           1994    2350    5745    5747
CTETRA      3687       1    4825    5687    4826    8192    1336    2886+
+           4855    4856    2884    4854
CTETRA      3688       1    4828    5599    8960    4831    1262    5665+
+           3280    4874    2880    3300
CTETRA      3689       1    4343    3798    3766    3795    3617    3993+
+           1716    1833    3995    3979
CTETRA      3690       1    4828    8168    8169    8959    4863    8174+
+           4867    2820    7158    7161
CTETRA      3691       1    4831    8170    8960    8169    4878    7165+
+           3300    4875    8175    7163
CTETRA      3692       1     102      51     161     103     685    1544+
+           1542    1516     710    1825
CTETRA      3693       1    7804    3767    7871    3798    3998    3614+
+           3679    4001    3994    3619
CTETRA      3694       1    3767    7872    4344    3783    3615    4346+
+           3616    3946    3271    3318
CTETRA      3695       1    3766    4344    3784    3767    1712    1698+
+           3954    3958    3616    3956
CTETRA      3696       1      21    8510    8877    8511    1147    5708+
+            238    1882    8529    5714
CTETRA      3697       1    7804    9061    7870    9062    3653    7873+
+           3400    7642    7846    4187
CTETRA      3698       1    4344    7972    3783    7872    4354    3272+
+           3318    4346    4353    3271
CTETRA      3699       1     103      84    4845    4841     688    1105+
+           1220     691     547    4928
CTETRA      3700       1    6416    5026    8120    5029    3524    5111+
+           3521    3482    5116    5118
CTETRA      3701       1    4498    8006    8748    8007    4602    3292+
+           2611    4604    8019    3042
CTETRA      3702       1    7867    9061    3795    3794    7868    3351+
+           1835    3654    3353    3982
CTETRA      3703       1     114    7127    8749    7128    2383    7251+
+           1784     754    7248    7253
CTETRA      3704       1    3795    9061    7870    3797    3351    7873+
+           3681    3996    3352    3652
CTETRA      3705       1    6689    7438    6688    7439    2700    3305+
+           6723    2934    7565    3687
CTETRA      3706       1    8749    8006    8005    8722    3291    8018+
+           2614    7077    7015    7012
CTETRA      3707       1      97    8748     114    7127    2387    2388+
+           1575    1580    7244    2383
CTETRA      3708       1    8775    8776    8031    8802    8786    2616+
+           3309    7086    7084    7035
CTETRA      3709       1    8776    8316    8777    9039     348    1140+
+           8787    7587    5001    7586
CTETRA      3710       1      40    4179    7945    4171     616    4182+
+            914     618     617    3715
CTETRA      3711       1    8781    8808    8025    8026    7106    7051+
+           3658    2552    7052    8038
CTETRA      3712       1    7984     164    5434    7991    3328    1433+
+           5481    1510    1449    2952
CTETRA      3713       1     136    8111    4790    8130     963    4798+
+           1735    3603    4801    4800
CTETRA      3714       1    8356    9104    5188    5194    3659    3609+
+           5400    5398    3666    5402
CTETRA      3715       1     136    8112    8111    8104    1690    8115+
+            963    1689    1687    3671
CTETRA      3716       1    8104     137    8127    9089    3672     980+
+           4818    8109    3231    8129
CTETRA      3717       1    7991    7985     168    7984    1450    2477+
+           1708    1510    7988    1707
CTETRA      3718       1    5434    5529    8111     137    1364    5576+
+           1434    1365     987     964
CTETRA      3719       1    8355    5192    5193    8225    5394    5392+
+           5396    3444    3574    3445
CTETRA      3720       1    5161    5179    4806    5180    5349    1681+
+           3228    5348    5350    1682
CTETRA      3721       1    4806    5193    5190    8225    3226    5390+
+           2234    4819    3445    3573
CTETRA      3722       1    4806    5161    5162    5179    3228    5353+
+           3227    1681    5349    5351
CTETRA      3723       1    4806    5193    8225    8226    3226    3445+
+           4819    4810    3442    8230
CTETRA      3724       1     165    7984    4361    7969    1511    4369+
+           2472    1508    4372    4371
CTETRA      3725       1    5440    8112     100    8105    1476     673+
+            704    5490     645     674
CTETRA      3726       1      68    8952    4846    8953    2403     816+
+            809    1847    8970    2715
CTETRA      3727       1    5535    5440     100    7985    1440     704+
+           1092    1439    5488    2064
CTETRA      3728       1    9077    7991    7984    5434    1513    1510+
+           7989    5452    2952    5481
CTETRA      3729       1     142     170    8495     171    1943    1959+
+           2021    1880    1944    2020
CTETRA      3730       1    6406    7837    4049    4046    3716    4097+
+           3508    2986    4088    4095
CTETRA      3731       1    7837    6407    4387    7836    2941    2533+
+           4433    7841    3717    4435
CTETRA      3732       1    8064    5439      96    8106    5484    3697+
+           3699    5480    5482     647
CTETRA      3733       1    5190    9104    8225    5192    3689    8231+
+           3573    5391    3661    3574
CTETRA      3734       1    6406    4049    7837    7838    3508    4097+
+           3716    2961    4098    7842
CTETRA      3735       1     101    5158    5159    5170     682    5301+
+           3646    3718    5299    5302
CTETRA      3736       1     159     156    4824     160    2129    1342+
+           1301    1294    1523    1300
CTETRA      3737       1    9085      61      59    4717    2536     420+
+           2269    4753    1166    2273
CTETRA      3738       1       8    4224     154    4227     198    1934+
+           1211    1772    4342    1936
CTETRA      3739       1    4835    8963    5597    8171    3160    5655+
+           3156    4890    7156    2907
CTETRA      3740       1     117      82     152       8    2018    1205+
+           1215    1207    1928    2027
CTETRA      3741       1    6412    6428    8325    5016    6533    3556+
+           3558    3559    2738    5065
CTETRA      3742       1    4211    7859    4212    5865    4273    4270+
+           4274    2370     721     720
CTETRA      3743       1    8304    9091    5178    8127    3575    3263+
+           5344    3037    8128    3265
CTETRA      3744       1    5024    6447    5009    5025    2514    3073+
+           5101    5102    2512    5098
CTETRA      3745       1    4210    7925    8912    5869    4262    7613+
+           2892    2151    2893    5915
CTETRA      3746       1    5777    8270    6447    8271    5800    6636+
+           2981    5799    8284    6635
CTETRA      3747       1    8355    5162    8226    5193    5393    3494+
+           3443    5396    5389    3442
CTETRA      3748       1    4211    5868    7926    8911    3002    2891+
+           4266    3150    5908    7608
CTETRA      3749       1    7867    3794    3796    3791    3654    3981+
+           1837     627    3988    3991
CTETRA      3750       1     106    5968    8530    9077    1503    6020+
+           1351    2894    6019    8540
CTETRA      3751       1     106    5435    9077    8530    2365    5453+
+           2894    1351    5454    8540
CTETRA      3752       1      92    3791    3804    3800     612    4031+
+           3142     611    4030    4032
CTETRA      3753       1     121    3735    3751    3755    2307    3841+
+           2304     843    3858    3861
CTETRA      3754       1    3786    3787     165    7858    3964    2373+
+           1703    3959    3963    2329
CTETRA      3755       1    5873      74      72      15    2716     851+
+           2468    1729     850     852
CTETRA      3756       1    7969     165     108    3780    1508    1507+
+           1502    3479    2475    2330
CTETRA      3757       1     105    9078    8575    7972     715    8585+
+           2372    3208    7974    5896
CTETRA      3758       1      34    7429    7433    7430    1383    7525+
+           1381    1386    7510    7527
CTETRA      3759       1      93    7993    4343    7867    1722    4350+
+           1717    1834    4357    4358
CTETRA      3760       1    4343    7867    7870    3795    4358    4359+
+           4356    1833    1835    3681
CTETRA      3761       1    5130      99     112    5131    1473     751+
+           1472    5237    1888    2321
CTETRA      3762       1      26    5145    5149    5146    2103    5257+
+           2319    2431    5240    5259
CTETRA      3763       1     112    5130    5146    5150    1472    5236+
+           2324     737    5253    5256
CTETRA      3764       1    4343    3795    7870    3798    1833    3681+
+           4356    3617    3995    3618
CTETRA      3765       1    4344    4343    3766     168    4348    1716+
+           1712    1699    1715    1711
CTETRA      3766       1     101    8106    4806    8298    1675    4813+
+           1696    2237    4820    4821
CTETRA      3767       1    8298    8312    9104    5187    4980    8313+
+           8300     661    2385    3667
CTETRA      3768       1     101    4806    5190    8298    1696    2234+
+           2232    2237    4821    2238
CTETRA      3769       1    5196      99     113    5130    1475     750+
+           3605    5412    1473    1471
CTETRA      3770       1    4806    5190    5193    5161    2234    5390+
+           3226    3228    5374    5388
CTETRA      3771       1     167    4806    4807    5179    1684    4811+
+           1692    1683    1681    3686
CTETRA      3772       1    4360    4361    3770    3778    4363    3541+
+           3257    3358    2473    3938
CTETRA      3773       1     168     165    3786    3787    1704    1703+
+           1702    1700    2373    3964
CTETRA      3774       1     167    5173    4790    4789    3471    3411+
+           3576    3620    3465    4792
CTETRA      3775       1     101     167    8112    4789    1676    1674+
+           1677    3217    3620    4791
CTETRA      3776       1    4807    5178    8127    5182    3685    3265+
+           4817    3337    5357    3131
CTETRA      3777       1    7992     168    7991    7985    1830    1708+
+           7995    3335    2477    1450
CTETRA      3778       1    4829    5692    4832    8194    2902    2901+
+           4881    4869    2904    4879
CTETRA      3779       1     120     122     123      94     828     832+
+            831     822    1396    1398
CTETRA      3780       1    4360    7878    7877    3777    4368    7882+
+           4373    3258    3567    3429
CTETRA      3781       1     132    7852    7945    4179    2172    4181+
+            915    2311    4183    4182
CTETRA      3782       1    4360    3776    3769    3770    3164    3917+
+           3357    3257    3918    3919
CTETRA      3783       1    4344     105     165    3787    1709    1498+
+           1710    1701     722    2373
CTETRA      3784       1    7864    3775    3772    3763    1828    3905+
+           3631     606    3904    3894
CTETRA      3785       1    4361    3781    3770    3778    3375    3936+
+           3541    2473    3934    3938
CTETRA      3786       1     165    3779    3780    3778    2327    3928+
+           2475    2474    3930    3929
CTETRA      3787       1    5177    5176    8220    5175    5339    3159+
+           3119    5337    5330    2197
CTETRA      3788       1    4491    8779    8028    4494    1455    2914+
+           4586    4587    3320    4588
CTETRA      3789       1     167    8105    8104    4807    3054    8108+
+           1686    1692    4814    4815
CTETRA      3790       1    4789    8219    8218    5172    4797    8223+
+           4802    3662     297     299
CTETRA      3791       1     167    4789     101    5163    3620    3217+
+           1676    1694    3684    1695
CTETRA      3792       1    4789    5164    5165    5171    3463    5314+
+           3464    3469    5312    5313
CTETRA      3793       1    8301    5170    5167    5158    3719    5300+
+           3625     669    5299    5289
CTETRA      3794       1    3785     168    3766      93    1719    1711+
+           3953    1718    1714    1713
CTETRA      3795       1    8298    5190    5189    9104    2238    5377+
+           3668    8300    3689    3665
CTETRA      3796       1    4790    5176    5165    5173    3158    5331+
+           3500    3411    5329    5333
CTETRA      3797       1     136    4790    5175    8130    1735    2198+
+           2458    3603    4800    2199
CTETRA      3798       1    4480    6265    6272    6273    2674    6317+
+           2681    2678    6319    6318
CTETRA      3799       1    7132    7787    7138    9051    3199    2547+
+           7344    7342    7788    7350
CTETRA      3800       1    7133    7761    6148    7760    7320    6166+
+            883    7331    7767    6159
CTETRA      3801       1    8755    8729    8000    8756    7067    6998+
+           2549    8764    7064    2912
CTETRA      3802       1      92    3803    3804    3790     604    4034+
+           3142     628    4026    4033
CTETRA      3803       1    4481    6271    6264    8756    2557    6314+
+           2556    2559    3313    2561
CTETRA      3804       1      94    3736    3751    3735     624    3840+
+           2306    1395    3842    3841
CTETRA      3805       1    8781    8808    8809    8025    7106    8824+
+           7105    3658    7051    7047
CTETRA      3806       1    6272    6273    6280    4483    6318    6339+
+           6338    2680    2676    3041
CTETRA      3807       1    8604    9044    6947    6149    1921    6953+
+            475    3329    6169    3077
CTETRA      3808       1     148    6153    6147    8624    2125    6189+
+           1604    1601    6190    6162
CTETRA      3809       1    5011    5008    6446    5012    5031    3072+
+           3544    5034    5037    3060
CTETRA      3810       1      98    5199    5198    5132    3669    5429+
+            670     664    5431    5432
CTETRA      3811       1    8780    8026    8027    8807    3286    8039+
+           2583    7104    7053    7050
CTETRA      3812       1    8301    5198    5158    5157     668    5420+
+            669    3626    5422    5288
CTETRA      3813       1    5158      98    5185    5198     672    2243+
+           5382    5420     670    5421
CTETRA      3814       1    8783    8025    8810    8024    3296    7045+
+           7099    2687    8035    7046
CTETRA      3815       1    8745    6713    9142    7125     876     873+
+           8765    7226    3673    7225
CTETRA      3816       1    4505    6704    6711    4508    2659    6768+
+           2627    4653    2660    2626
CTETRA      3817       1     119    8163    8951    8950    1065    7181+
+           3325    1063    7177    8972
CTETRA      3818       1    6696    8773    6703    7438    2569    2662+
+           6746    2701    7553    3301
CTETRA      3819       1    3791      94    3792    3800     615    1393+
+           3989    4030     613    4013
CTETRA      3820       1    4840    4847    8165    8954    4938    4940+
+           4926    1850    1846    7175
CTETRA      3821       1      95    6877    7436    6689    3622    2931+
+            635    3306    2930    2699
CTETRA      3822       1    8746    8007    8719    8008    3314    7007+
+           7072    2667    8020    7008
CTETRA      3823       1    9104    8312    5188    5187    8313    3610+
+           3609    3667    2385    5405
CTETRA      3824       1     114    4499    4495    8748    1999    4605+
+           1787    2388    2386    2390
CTETRA      3825       1    8376    7441    9110    5141    2111    7598+
+           8379    5220    2435    5221
CTETRA      3826       1    4497    8029    8777    4494    4599    2607+
+           1141    4598    4597    3340
CTETRA      3827       1      75      78      77    4830     504     506+
+            503     518     545    2342
CTETRA      3828       1    6711    4505    4510    6703    2627    4654+
+           2628    6767    2572    2663
CTETRA      3829       1     101    5185    5191    5159    2244    5381+
+           2236    3646    5380    5379
CTETRA      3830       1    8853    9143    8772    6702    8856    8788+
+           7561    3516    3517    3307
CTETRA      3831       1    5195      98    5186      99    3670    3545+
+           5425    1474     657     663
CTETRA      3832       1    4806    5162    8226    4807    3227    3494+
+           4810    4811    3496    4808
CTETRA      3833       1     137    5529    9090    5530     987    5547+
+            961     971    5546    5548
CTETRA      3834       1     125     168    7985    7986    1829    2477+
+           2065     856    3481    7987
CTETRA      3835       1    8111    9090     137    5529    8116     961+
+            964    5576    5547     987
CTETRA      3836       1    5017    5015    6445    5011    5066    3572+
+           2719    5068    5058    3083
CTETRA      3837       1    9100    5177    8365    8220    5334    5336+
+           8375    3118    3119    3492
CTETRA      3838       1      96    8070    8071    5528    3698    8073+
+           1777    1778    5537    5536
CTETRA      3839       1    8365    8219    8213    8214    3493    4971+
+           7552    7542    4972    8217
CTETRA      3840       1    8219    8365    8213    5166    3493    7552+
+           4971    3387    5318    3543
CTETRA      3841       1    4054    6405    4052    6421    3099    3397+
+           4113    3440    6513    3347
CTETRA      3842       1    8195    8306    5691    5689    4901    3215+
+           3214    3261    3446    5752
CTETRA      3843       1     137     140     139     138     975     977+
+            967     965    1643     966
CTETRA      3844       1    5184     167     136    5181    3472    1688+
+           1679    5367    3577    1678
CTETRA      3845       1    8219    5166    8213    5172    3387    3543+
+           4971     297    5319     298
CTETRA      3846       1     137    9089    5435    8438    3231    5449+
+            978     973    8440    5450
CTETRA      3847       1     167    4790     136    8112    3576    1735+
+           1688    1674    4793    1690
CTETRA      3848       1    7792    7884    7885    7878    7306    7888+
+           7258     793    4197    4198
CTETRA      3849       1    8130     136     141    8306    3603     986+
+           1654    3359    3578    3579
CTETRA      3850       1    4391    7839    6439    7838    4453    3503+
+           1048    4450    7843    3505
CTETRA      3851       1    7793    7877    7884    3777    3428    4194+
+           7304    3920    3429    3596
CTETRA      3852       1     141    8305     136    8127    2356    1733+
+            986     983    2358     985
CTETRA      3853       1    7793    9060    9059    7794    7303    7845+
+           3648    7800    7305    3695
CTETRA      3854       1     167    5182    5181    5183    3336    5359+
+           3577    3555    5363    5364
CTETRA      3855       1     139     140      88     138     977    1347+
+           1346     966    1643    1645
CTETRA      3856       1      92    9065      93    9066    3447    3448+
+            608    1839     907    1840
CTETRA      3857       1    3754      29    3752    3750    2127    2602+
+           3863    3862    3372    3851
CTETRA      3858       1    8453    6071    9119    4387     794    6143+
+           8455    4431    3248    4432
CTETRA      3859       1    3738      37      92    3737    2184     620+
+            603    3813     623     602
CTETRA      3860       1      60    4718    4719    4721     417    4761+
+           3534    2910    4772    4773
CTETRA      3861       1    6391    9119    4387    7836    2447    4432+
+           2534    2395    4436    4435
CTETRA      3862       1    6391    6407    6390    7836    6457    6456+
+           6458    2395    3717    2393
CTETRA      3863       1    6408    6407    4387    4386    6459    2533+
+           2535    1038    2942    4430
CTETRA      3864       1    6391    7836    4387    6407    2395    4435+
+           2534    6457    3717    2533
CTETRA      3865       1    4720    8554    6068    9118    2504    6115+
+           2481    4765    8558    6112
CTETRA      3866       1      25      42     174    7441     331    2098+
+           2114     340     339    2108
CTETRA      3867       1      98    5131    5199    5132     666    5430+
+           3669     664    5232    5431
CTETRA      3868       1      60    6410    6411    4717     457    6471+
+           3533    1165    1167    2484
CTETRA      3869       1      60    4718    4717    4719     417    4759+
+           1165    3534    4761    4760
CTETRA      3870       1      41    5132    5198    5133     665    5432+
+            677     367    5208    5424
CTETRA      3871       1    8326    8347    5010    5778    5072    5041+
+           5073    2800    5815    3720
CTETRA      3872       1    8069    7993    7986    9066    5575     857+
+            854    8075    7997    3703
CTETRA      3873       1     131    7945    9066    9065     925    7947+
+            904     906    3721     907
CTETRA      3874       1      93    7993    9066    7986    1722    7997+
+           1840    3355     857    3703
CTETRA      3875       1      92      37      94    3736     620    2181+
+            614     622     621     624
CTETRA      3876       1     121      94     169    3751     825    2182+
+           2302    2304    2306    2305
CTETRA      3877       1    3763      92    3803    3762     607     604+
+           4025    3893    3044    4027
CTETRA      3878       1    7867      94    3792    3791     625    1393+
+           1391     627     615    3989
CTETRA      3879       1    9065    7945    9066    4179    3721    7947+
+            907    3722    4182    4185
CTETRA      3880       1      92    9066    4179    9065    1839    4185+
+           2548    3447     907    3722
CTETRA      3881       1      93    3765    3766    3785    3680    3952+
+           1713    1718    3950    3953
CTETRA      3882       1    8245    6071    6392    8246    6133    2488+
+           6683    8262    6134    6684
CTETRA      3883       1      95      97      42     174     648    1573+
+           2004    2105    2104    2098
CTETRA      3884       1      26    5143    5145    5146    2179    5239+
+           2103    2431    5238    5240
CTETRA      3885       1    4343    3767    7871    4344    3682    3614+
+           4347    4348    3616    4345
CTETRA      3886       1    5528    8113      96    8112    5539    1753+
+           1778    5540    8114     643
CTETRA      3887       1     168    4360      93    3768    3597    3354+
+           1714    1720    3701    1721
CTETRA      3888       1    5170    5164    5163    4789    5310    5311+
+           5306    3477    3463    3684
CTETRA      3889       1     164    8112    5440    8104    1477    1476+
+           1441    3327    1687    5493
CTETRA      3890       1     101    4789    8301    5170    3217    4804+
+            681    3718    3477    3719
CTETRA      3891       1    8070     100    8063    5534    2001     819+
+           3362    5580    1094    3364
CTETRA      3892       1    7867    3791    3796    3790     627    3991+
+           1837     629    3992    3986
CTETRA      3893       1    7945    7942    9065     131     926    7944+
+           3721     925     928     906
CTETRA      3894       1    4693    8063    8070    8064    4701    3362+
+            941    4699    8066     939
CTETRA      3895       1    8751    8049    8827    8050    2595    6976+
+           7235    2592    8053    6973
CTETRA      3896       1     167    8112    4789    4790    1674    4791+
+           3620    3576    4793    4792
CTETRA      3897       1     131    8062    7942    9065     911    4709+
+            928     906    8068    7944
CTETRA      3898       1    7986    8062     125    8069    5443    2121+
+            856     854     912     855
CTETRA      3899       1      98    8301     101    9084     671     681+
+            680    3723    8302    2239
CTETRA      3900       1     167    5180     101    4806    1685    1693+
+           1676    1684    1682    1696
CTETRA      3901       1    7985    7992     125    5535    3335    1831+
+           2065    1439    5583    1090
CTETRA      3902       1      27    8057    8778    8056    2600    2599+
+            259    3702    8060    3321
CTETRA      3903       1      93    7986    9065    7864    3355    7990+
+           3448     609    4374    7866
CTETRA      3904       1      27    8056    8778    8055    3702    3321+
+            259     258    8058     261
CTETRA      3905       1    7986    7993     125     168     857     858+
+            856    3481    1723    1829
CTETRA      3906       1      27    8055    4456    8056     258    4458+
+           2604    3702    8058    4459
CTETRA      3907       1      92    7864    3762    3763     605    3571+
+           3044     607     606    3893
CTETRA      3908       1     168    3789    3788    3786    1705    3973+
+           3586    1702    3972    3969
CTETRA      3909       1    3782    3781    7879    3780    3944    3373+
+           3402    3942    3935    3374
CTETRA      3910       1    5136    5143      26    5132    5233    2179+
+           2178    5207    5230    2320
CTETRA      3911       1      93    9066    9065    7986    1840     907+
+           3448    3355    3703    7990
CTETRA      3912       1      41      24      26    5136     329     253+
+           1889    2211    2212    2178
CTETRA      3913       1     168    7986      93    4360    3481    3355+
+           1714    3597    4365    3354
CTETRA      3914       1      93    4360    3775    3768    3354    3633+
+           1827    1721    3701    3911
CTETRA      3915       1    8104    8111     164    8112    3671    1432+
+           3327    1687    8115    1477
CTETRA      3916       1      98    9084    4987    8301    3723    4993+
+           1968     671    8302    4994
CTETRA      3917       1     101    9084    8301    8113    2239    8302+
+            681    2242    8117    4803
CTETRA      3918       1    8112     101    8113    8106    1677    2242+
+           8114     646    1675    1751
CTETRA      3919       1    4789    8218    8301    5167    4802    4805+
+           4804    3468    3470    3625
CTETRA      3920       1      93      92    3790    3763     608     628+
+           1838     610     607    3987
CTETRA      3921       1    3741    3748     169    3737    3838    3651+
+           2186    3812    3835    2698
CTETRA      3922       1    9084    8064      96    8106    3683    3699+
+           1752    1750    5480     647
CTETRA      3923       1     105     108     165    7858     726    1507+
+           1498     723    2328    2329
CTETRA      3924       1      92    7864    9065    4171     605    7866+
+           3447    3710    4178    4177
CTETRA      3925       1      92    4179    9066    7867    2548    4185+
+           1839     626    4186    7869
CTETRA      3926       1    4979    9083    9084      98    4985    2241+
+           3692     653    3724    3723
CTETRA      3927       1      98    9083     101    8298    3724    2240+
+            680    2208    8299    2237
CTETRA      3928       1     134    4693    8064    8154     940    4699+
+            936     935    4698    4697
CTETRA      3929       1     121    3751    3754    3755    2304    3864+
+           2303     843    3861    3865
CTETRA      3930       1     167    5180    5183    5184    1685    5362+
+           3555    3472    5369    5368
CTETRA      3931       1      94    3736    3735    3800     624    3842+
+           1395     613    4016    4015
CTETRA      3932       1      92    3737    3736    3804     602    3837+
+            622    3142    4036    4035
CTETRA      3933       1     167    5179    4807    5182    1683    3686+
+           1692    3336    5360    3337
CTETRA      3934       1     105    7991    9078    7972     712    7996+
+            715    3208    4355    7974
CTETRA      3935       1     137    9089    5434    5435    3231    5447+
+           1365     978    5449    5451
CTETRA      3936       1     101    5170    8301    5158    3718    3719+
+            681     682    5299     669
CTETRA      3937       1    4694    8063    8070    4693    4703    3362+
+           3611    4702    4701     941
CTETRA      3938       1      26    5131    5143    5146    2214    5231+
+           2179    2431    5235    5238
CTETRA      3939       1      98    4979    9083    8298     653    4985+
+           3724    2208    4986    8299
CTETRA      3940       1      99    5131    5130    5195    1888    5237+
+           1473    1474    5411    5410
CTETRA      3941       1      73    8550     104    8079     497    2224+
+           2228    1378    5498    2230
CTETRA      3942       1    6392    6393    6062    8245    6466    2221+
+           2487    6683    6682    6132
CTETRA      3943       1    8273    6445    8272    5012    6631    6632+
+           8288    3491    3059    3058
CTETRA      3944       1    8453    6392    9075    6071    3550    1372+
+           8454     794    2488     795
CTETRA      3945       1    4387    6071    6392    8453    3248    2488+
+           3249    4431     794    3550
CTETRA      3946       1    6429    5011    6446    6445    3184    3544+
+           6584    6582    3083    6583
CTETRA      3947       1    6443    4722    4723    5779    3538    4779+
+           2796    2933    3725    2932
CTETRA      3948       1    6442    8276    5779    8275    6625    5803+
+           3518    6626    8285    5804
CTETRA      3949       1    5777    6447    5025    5009    2981    2512+
+           2983    3569    3073    5098
CTETRA      3950       1    8121    6063    6401    8094    3458    3456+
+           3457    4673    6077    3514
CTETRA      3951       1    3739    7795    9023      30    3817    7337+
+           3700    1796    1803    1804
CTETRA      3952       1    5132    5136    5133      41    5207    5206+
+           5208     665    2211     367
CTETRA      3953       1    8105     167    8104    8112    3054    1686+
+           8108     645    1674    1687
CTETRA      3954       1     101    5163    5160    5180    1695    5305+
+           2233    1693    5346    5345
CTETRA      3955       1    8298    5191    5189    5190     678    5376+
+           3668    2238    5375    5377
CTETRA      3956       1    4979    9084    4987      98    3692    4993+
+           1969     653    3723    1968
CTETRA      3957       1     101    5191    5185    8298    2236    5381+
+           2244    2237     678     679
CTETRA      3958       1    4806    5190    8298    8225    2234    2238+
+           4821    4819    3573    4822
CTETRA      3959       1      23    5144     174      26     248    2102+
+           2109     255    2101    2096
CTETRA      3960       1    8368      24    9038    5134    3390    3707+
+           7583    5212    3393    3499
CTETRA      3961       1      93    7867    9066    7993    1834    7869+
+           1840    1722    4357    7997
CTETRA      3962       1    4789    5170    5171    5167    3477    5309+
+           3469    3468    5300    5307
CTETRA      3963       1    4789    5167    8301    5170    3468    3625+
+           4804    3477    5300    3719
CTETRA      3964       1    5163    4789     101    5170    3684    3217+
+           1695    5306    3477    3718
CTETRA      3965       1    7864    3763    3772    3762     606    3894+
+           3631    3571    3893    3892
CTETRA      3966       1      92    7867      93    3790     626    1834+
+            608     628     629    1838
CTETRA      3967       1      37    4179    4171      92     619     617+
+            301     620    2548    3710
CTETRA      3968       1    8778    8057    4494    8779    2599     447+
+            260    8795    3319    3320
CTETRA      3969       1      41      98    4987    5198     654    1968+
+            369     677     670    3694
CTETRA      3970       1      98    5131    5195    5199     666    5411+
+           3670    3669    5430    5427
CTETRA      3971       1    4360    3772    7864    3775    3163    3631+
+           4375    3633    3905    1828
CTETRA      3972       1    4360    3775    3776    3772    3633    3914+
+           3164    3163    3905    3912
CTETRA      3973       1    4361    7984     165     168    4369    1511+
+           2472    2478    1707    1704
CTETRA      3974       1    4360    3768    3769    3775    3701    3916+
+           3357    3633    3911    3915
CTETRA      3975       1      93    3765    3796    3795    3680    3983+
+           1836    1832    3978    3980
CTETRA      3976       1      93    3768    3765    3785    1721    3910+
+           3680    1718    3951    3950
CTETRA      3977       1    8752    8827    9073    8050    7338    8828+
+           7339    2596    6973    6972
CTETRA      3978       1    8752    9073    9024    9063    7339    9025+
+           7340    1158    7948    4161
CTETRA      3979       1    9065    4171    7942    7945    4177    4176+
+           7944    3721    3715     926
CTETRA      3980       1    8752    7847    9063    9024    1156    7849+
+           1158    7340    4162    4161
CTETRA      3981       1    8003    8751    8724    8725    2619    7056+
+           7005    7002    7054    8738
CTETRA      3982       1    7853    3792      94     122    1390    1393+
+           1392    1405    3201    1396
CTETRA      3983       1    4492    8005    8004    8750    4582    8017+
+           4580    1124    3386    2590
CTETRA      3984       1      92    3804    3736    3800    3142    4035+
+            622     611    4032    4016
CTETRA      3985       1      92    3790    3804    3791     628    4033+
+           3142     612    3992    4031
CTETRA      3986       1    8753    8726    8752    8002    7058    7060+
+           8760    3624    7000    3389
CTETRA      3987       1    7999    8729    8756    8000    6994    7064+
+           2563    8012    6998    2912
CTETRA      3988       1     132    9064    7945    7852    1469    7946+
+            915    2172    7854    4181
CTETRA      3989       1    6419    7976    7977    4062    3598    7981+
+           3009    3588    4152    4151
CTETRA      3990       1    8549    8453    6071    9119    5495     794+
+           6137    8555    8455    6143
CTETRA      3991       1    8779    9064    9074    8057    1468    7949+
+           7679    3319    8061    7108
CTETRA      3992       1      31    7146    7147    7145     291    7390+
+           1014    3537    7391    7373
CTETRA      3993       1    8779    8832    8057    9074    7678    7109+
+           3319    7679    8833    7108
CTETRA      3994       1     154    7444     118    7419    1857    1852+
+           1858    2290    7635     802
CTETRA      3995       1      73      91     104    6393    1375    2414+
+           2228     495    3554    2223
CTETRA      3996       1    8623    7446    7770    8622    2582    7649+
+           6200    8635    3230    6197
CTETRA      3997       1    6448    8270    5777    5776    6637    5800+
+           2982    2516    5788    5801
CTETRA      3998       1     120    3761     124    3759     840     841+
+            839    2159    3889    3195
CTETRA      3999       1    6689    8652    8401    6688    6819    6883+
+           3726    6723    6820    3643
CTETRA      4000       1    8751    8826    8049    8048    7234    6977+
+           2595    2601    6975    8051
CTETRA      4001       1    8751    8827    8049    8826    7235    6976+
+           2595    7234    8830    6977
CTETRA      4002       1      49      60      35      63     414     422+
+            421     431    1485     441
CTETRA      4003       1    8749    7128    9034    8311    7253    7252+
+           7238    2434    3315    4996
CTETRA      4004       1     135      99      43     114    1128    1127+
+           1118    1785     752    2190
CTETRA      4005       1     114    8748    8749    7127    2388    8771+
+           1784    2383    7244    7251
CTETRA      4006       1    8777    9082    8055    9096    1142    8059+
+           3323    7588    8153    7110
CTETRA      4007       1    8326    5780    6444    4723    3298    2787+
+           2832    4784    2795    2794
CTETRA      4008       1    8566    4722    5779    8567    3113    3725+
+           5807    8569    3207    5808
CTETRA      4009       1       2    8922    8921      21     779    8935+
+            780     772    1146    1145
CTETRA      4010       1    8777    9039    9082    9096    7586    5000+
+           1142    7588    9040    8153
CTETRA      4011       1      44    8157    9082    8316     944    8159+
+           1143     346    4988    8318
CTETRA      4012       1    8804    8777    8803    8030    7082    7087+
+           8817    7039    2606    7038
CTETRA      4013       1    8749    8722    8005    8750    7077    7012+
+           2614    8769    7076    3386
CTETRA      4014       1      24    7442    9038    8317    2204    7595+
+           3707     330    2217    5003
CTETRA      4015       1     174    5148    5144    5138    3412    5252+
+           2102    3385    5251    5242
CTETRA      4016       1    5779    4722    4723    8567    3725    4779+
+           2932    5808    3207    3634
CTETRA      4017       1    8274    8326    5778    5780    2967    2800+
+           5812    5813    3298    5809
CTETRA      4018       1    8564    8565      47    5785    8574     596+
+           2940    5853    5850    2523
CTETRA      4019       1    5786    8562    9121    4390    5855    8571+
+           5856    3595    2823    4445
CTETRA      4020       1      31    7144    7145    7147    2445    7372+
+           3537    1014    7371    7373
CTETRA      4021       1      23    5141    5138    5140    2188    5222+
+            249     250    5224    5225
CTETRA      4022       1     119    8491    8492    8950    1410    8506+
+           1070    1063    5621    5620
CTETRA      4023       1      25    8775    7441    8776     333    7591+
+            340     347    8786    7593
CTETRA      4024       1    4052    6421    6404    6420    3347    6512+
+           3097    3349    6511    6509
CTETRA      4025       1     154    7419    7917    7444    2290    7637+
+           1935    1857    7635    7638
CTETRA      4026       1    4492    8005    8750    8749    4582    3386+
+           1124    2608    2614    8769
CTETRA      4027       1    4504    8718    8009    8008    2668    7006+
+           4626    4624    7010    8021
CTETRA      4028       1    7136    7135    6256    6255    7319    2920+
+            526     524    3379    6287
CTETRA      4029       1    8377      95    8376     174    2106    2430+
+           8380    1996    2105    2112
CTETRA      4030       1     169    3737      37    3741    2698     623+
+           1801    2186    3812    3706
CTETRA      4031       1    7848      36    7847    4171     303     323+
+           7851    4174     302    4175
CTETRA      4032       1      40      37    4171      36     318     301+
+            618     316     300     302
CTETRA      4033       1      30    3740    3747    3741     268    3832+
+            271    2185    3807    3833
CTETRA      4034       1    3743    3746      28    7787    3827    3381+
+            265    3828    3825     262
CTETRA      4035       1    5778    5010    8273    8347    3720    3546+
+           5819    5815    5041    5821
CTETRA      4036       1    4475    8782    8025    8781    2070    2553+
+           4513    2117    8797    3658
CTETRA      4037       1      71    4219    4220    4221    1253    4313+
+            482     869    4312    4311
CTETRA      4038       1     126    7787    7132    6148    2157    3199+
+            884     878    6160     885
CTETRA      4039       1    6406    6422    8596    4048    6515    6613+
+           6610    2988    3451    2987
CTETRA      4040       1    9051    3746      28    7796    3826    3381+
+            274    7799    3831     273
CTETRA      4041       1    5012    6445    6446    5011    3059    6583+
+           3060    5034    3083    3544
CTETRA      4042       1    4388    4380    8088    9076    4437    2419+
+           3450    4438    4412    8090
CTETRA      4043       1    9061    7853    3793    3792    7855    3200+
+           3657    3655    1390    4010
CTETRA      4044       1      38    4478    8754    4473    1613     887+
+            309     312    4516     313
CTETRA      4045       1      47    8087    5511    8564     373    5526+
+            374    2940    5527    5523
CTETRA      4046       1     122    7806    3802    3733    1400    4019+
+           3143     835    4021    4022
CTETRA      4047       1    5028    6415    6432    6416    3416    6544+
+           3485    3484    6491    6545
CTETRA      4048       1    8780    8807    8808    8026    7104    8825+
+           7107    3286    7053    7052
CTETRA      4049       1    3763      92    3790    3803     607     628+
+           3987    4025     604    4026
CTETRA      4050       1    4171    4179    7945    9065     617    4182+
+           3715    4177    3722    3721
CTETRA      4051       1      95    4502    6690    6697     650    2566+
+           2565     641    2314    6726
CTETRA      4052       1      40    4171    7942    7847     618    4176+
+           3384     324    4175    4173
CTETRA      4053       1      89    5531    5532    8576    1361    5555+
+            581     582    5554    5556
CTETRA      4054       1    4826    8886    5688    8887    2887    5746+
+           2885    2881    8908    5771
CTETRA      4055       1     163    4839    4825    4824    1340    4904+
+           1335    1312    4905    4860
CTETRA      4056       1     112    5130    5150    5129    1472    5253+
+            737     740    5255    5254
CTETRA      4057       1     113    5130    5129    5196    1471    5255+
+            756    3605    5412    5413
CTETRA      4058       1     141    4836    4832    8305    1447    4900+
+           1446    2356    4895    4903
CTETRA      4059       1     141    8306    4832    5689    3579    4902+
+           1446    1655    3446    3260
CTETRA      4060       1    5186      99    5187    5195     663     660+
+           5384    5425    1474    5408
CTETRA      4061       1      44    8157    4987    8154     944    4992+
+           2216     945     947    2613
CTETRA      4062       1    6395    4717    6411    6394    2486    2484+
+           6473    6474    2740    6472
CTETRA      4063       1     169    3747    3750    3748    1795    3848+
+           3371    3651    3839    3844
CTETRA      4064       1    5692     138    8472      77    2900    2343+
+           5769    2359    1649    2059
CTETRA      4065       1     140    5596    5591    8437    1641    5651+
+           3128    1344    5650    5629
CTETRA      4066       1    3741     169    3748    3747    2186    3651+
+           3838    3833    1795    3839
CTETRA      4067       1     139    5530    5531    8575     972    5550+
+           1360    1354    5545    5551
CTETRA      4068       1     137    5434    8104    8111    1365    5448+
+           3672     964    1434    3671
CTETRA      4069       1    3787     165    7858     105    2373    2329+
+           3963     722    1498     723
CTETRA      4070       1     162    8532    5438    5437    2063    5468+
+           3727    1893    5464    5467
CTETRA      4071       1    4834    5597    5600    8962    2905    5669+
+           3003    2906    5671    5672
CTETRA      4072       1    4835    5592     140    5597    1633    1632+
+           1634    3156    5654    1637
CTETRA      4073       1     134    4493    4693    8154     956    3663+
+            940     935     946    4698
CTETRA      4074       1     143    9094    8162    7116    1965    8184+
+           1973    1952    7185    7183
CTETRA      4075       1      27    4494    4493    4497     256    4590+
+            957     461    4598    4600
CTETRA      4076       1     134    8064    8071    9084     936    3365+
+            953     955    3683    8072
CTETRA      4077       1      60    4722    4718    4721    1487    4774+
+            417    2910    4775    4772
CTETRA      4078       1      41    5198    4987    5133     677    3694+
+            369     367    5424     368
CTETRA      4079       1    5198    4987    5133    8301    3694     368+
+           5424     668    4994    2215
CTETRA      4080       1    6400    6417    6416    5027    6496    6495+
+           6493    3437    3462    3523
CTETRA      4081       1     166    5149      26    5147    2093    2319+
+           2097    1997    5258    2100
CTETRA      4082       1    4489    8750    8751    8048    2588    8768+
+           2591    2586    2589    2601
CTETRA      4083       1      27    4457     131    7945     933     910+
+            932    3197    4471     925
CTETRA      4084       1    6416    5029    5028    5026    3482    5117+
+           3484    3524    5116    5115
CTETRA      4085       1      33      66      62      46    1031    1199+
+           1198    1194    1196     430
CTETRA      4086       1    7838    6438    6422    4050    3506    6561+
+           3454    4103    2980    3452
CTETRA      4087       1      95    7441    8775    7435    2429    7591+
+            633    2428    7592    7581
CTETRA      4088       1    8554    9085    4717    8553    5501    4753+
+           2274    8559    5502    2442
CTETRA      4089       1     134    8071    4456    8157     953    4461+
+            952     954    4460    4462
CTETRA      4090       1      27    4456    4693    4694    2604     951+
+           3030     930    3612    4702
CTETRA      4091       1      27    4456    4457    8056    2604    4466+
+            933    3702    4459    4464
CTETRA      4092       1    8298    5190    9104    8225    2238    3689+
+           8300    4822    3573    8231
CTETRA      4093       1      98    5199    5186    5185    3669    5426+
+           3545    2243    5428    5387
CTETRA      4094       1     139     107     106     109    1349     725+
+           1348    1355    3553    1356
CTETRA      4095       1    8154    9083    9084    4979    8155    2241+
+           3693    4982    4985    3692
CTETRA      4096       1      27    4457    4456    4694     933    4466+
+           2604     930     934    3612
CTETRA      4097       1    4694    4693      27    4489    4702    3030+
+            930    2597    3316    3294
CTETRA      4098       1     131    8069    7945    4457     905    4472+
+            925     910    4469    4471
CTETRA      4099       1      27    9082    4493    8157     460    1144+
+            957     959    8159     943
CTETRA      4100       1     101    5170    5159    5163    3718    5302+
+           3646    1695    5306    5303
CTETRA      4101       1    5160    4806    5161    5190    2235    3228+
+           5347    5373    2234    5374
CTETRA      4102       1     123    7452    8780    7453    2120    7693+
+           2169     833    7690    7695
CTETRA      4103       1     168    4360    7985    7986    3597    4362+
+           2477    3481    4365    7987
CTETRA      4104       1      98    5185    5198    5199    2243    5421+
+            670    3669    5428    5429
CTETRA      4105       1     101    5159    5158    5185    3646    5301+
+            682    2244    5380    5382
CTETRA      4106       1    4489    8050    8751    8752    2593    2592+
+           2591    2618    2596    8758
CTETRA      4107       1    8753    9024    7139    7847    7341    7346+
+           7348     325    4162    2579
CTETRA      4108       1    3737    3748     169    3736    3835    3651+
+           2698    3837    3836    2180
CTETRA      4109       1    4343    3767    3766    3798    3682    3958+
+           1716    3617    3994    3993
CTETRA      4110       1     131    4694    4490    7942     931    3108+
+            929     928    4708     927
CTETRA      4111       1    7945    4171    7942      40    3715    4176+
+            926     914     618    3384
CTETRA      4112       1    4360     168    3789    3768    3597    1705+
+           3356    3701    1720    3975
CTETRA      4113       1     131    8062    4694    7942     911    4706+
+            931     928    4709    4708
CTETRA      4114       1     169    3750    3754    3751    3371    3862+
+           2126    2305    3845    3864
CTETRA      4115       1    7867    3796    3794    3795    1837    3981+
+           3654    1835    3980    3982
CTETRA      4116       1      93    3768    3775    3764    1721    3911+
+           1827    3246    3908    3907
CTETRA      4117       1       9    4221    4217    4219     848    4304+
+            218     860    4312    4307
CTETRA      4118       1      12    7898    8996    8995    1812    7276+
+           1426    2861    7273    9020
CTETRA      4119       1    4220    8997    7896    8998     484    7279+
+           4310    1822    9021    7280
CTETRA      4120       1     168    3768    3785    3789    1720    3951+
+           1719    1705    3975    3974
CTETRA      4121       1    4223    7920    8921    7919    4316    7625+
+           2462    4317    7936    7623
CTETRA      4122       1      74    8509    8920    5873    1816    5934+
+           2426    2716    5938    5936
CTETRA      4123       1    6453    8265    7827    5783    6647    5838+
+           3089    1506    5836    5839
CTETRA      4124       1    8367    8368    9038    5134    8371    7583+
+           7582    5213    5212    3499
CTETRA      4125       1    8367    5134    9103    5169    5213    3498+
+           3475    5290    5291    3601
CTETRA      4126       1    4199    7922    8916    8917    4229    7617+
+           2814    1824    7620    8927
CTETRA      4127       1    4216    8920    4223    7920    3712    2425+
+           4314    4302    7626    4316
CTETRA      4128       1    9103    8366    9102    8367    3476    7549+
+           8322    3475    8373    7551
CTETRA      4129       1    8366    5168    9103    8218    5293    3474+
+           3476    3600    3466    8224
CTETRA      4130       1    4060    6403    8234    7978    3431    6661+
+           3418    4141    3204    3408
CTETRA      4131       1    4215    7900    8993    8992    4283    7271+
+           3247    2876    7270    9004
CTETRA      4132       1    7794    7795    9023    3739    7798    7337+
+           7336    3818    3817    3700
CTETRA      4133       1    9059    7794    9023    3739    3695    7336+
+           4163    3641    3818    3700
CTETRA      4134       1    4215    4201    8992    5958    4280    2877+
+           2876    1321    2811    5975
CTETRA      4135       1    4199    4204    5863    7923    4238    2200+
+           1288    4228    4239    2813
CTETRA      4136       1    4214    7898    5970    8994    4286    2760+
+           2759    2797    7272    6042
CTETRA      4137       1    7794    7793    3773    9059    7800    3898+
+           3897    3695    3648    3637
CTETRA      4138       1    8597    9105    6390    6069    8598    6608+
+           6607    3512    6128    2756
CTETRA      4139       1    7877    9060    9059    7793    4193    7845+
+           7880    3428    7303    3648
CTETRA      4140       1     107    8531    8530    5962    3728    8541+
+           1352    2379    5995    5996
CTETRA      4141       1     110    4209     107    4212    3149    1668+
+           3711    2261    4275     729
CTETRA      4142       1      85     149      89      86    1172    1671+
+            576     564    1664     583
CTETRA      4143       1    7926    8912    8911    5868    7611    8932+
+           7608    2891    5909    5908
CTETRA      4144       1    4215    7899    8993    7900    4284    7268+
+           3247    4283    7910    7271
CTETRA      4145       1    4486    8050    4489    8752    2577    2593+
+           4570    1157    2596    2618
CTETRA      4146       1    4835    8304    4836    5592    4897    4894+
+           4898    1633    3035    1636
CTETRA      4147       1     109    5864    5865    8575    2255    5898+
+            734    1357    5887    5897
CTETRA      4148       1      90    5870    4207    5869    2146    2878+
+           1291    2148    5914    2149
CTETRA      4149       1     110    5868    5864    5871    2368    5906+
+           2374    2258    5921    5919
CTETRA      4150       1    4207    5867    7924    8914    2866    3713+
+           4251    3714    5900    7612
CTETRA      4151       1      88    5531    8472    5532    1362    5553+
+           2058     579    5555    5557
CTETRA      4152       1     146    8579     150    5867    1177    1176+
+           1175    2066    5903    2067
CTETRA      4153       1    4199    5862    8916    5863    2798    5880+
+           2814    1288    5883    5885
CTETRA      4154       1     149    4209    4205    4208    1658    4258+
+           1659    1669    4260    4257
CTETRA      4155       1     110    5868    5865    5864    2368    5905+
+            735    2374    5906    5898
CTETRA      4156       1    8233    7815    4056    4053    6118    4128+
+           3094    3240    4126    4121
CTETRA      4157       1     149    5961    8531    5962    1661    5994+
+           2364    2378    6000    5995
CTETRA      4158       1     150    5863    8579    8580    1286    5901+
+           1176    2055    5884    8593
CTETRA      4159       1    4208    5965    7904    5964    3401    3010+
+           4256    2375    6008    3378
CTETRA      4160       1      54    4215    5957    5958    1272    3551+
+           3729    1318    1321    5974
CTETRA      4161       1    4207    7925    8913    8914    4254    7614+
+           3730    3714    7615    8933
CTETRA      4162       1    5529     139    5435     106     988     979+
+           1363    1514    1348    2365
CTETRA      4163       1      18    8918    5861    5872    1621    5928+
+           1545    1619    5930    5929
CTETRA      4164       1    5437      89    5436    8437     577    1366+
+           5460    5462    1892    5458
CTETRA      4165       1     139    5435    8530    5436     979    5454+
+           1350    1367    5455    5456
CTETRA      4166       1    4208    5962    5964    5963    2376    6004+
+           2375    2265    6001    6003
CTETRA      4167       1      18    5861    8917    5862    1545    5881+
+           1626    1624    5876    5879
CTETRA      4168       1    7901    8991    5959    8990    7260    5982+
+           2871    7259    9006    5985
CTETRA      4169       1    4201    7901    7900    8991    4232    7909+
+           4282    2872    7260    7267
CTETRA      4170       1      27     134    4493    4693     958     956+
+            957    3030     940    3663
CTETRA      4171       1      21    8511    8922    8510    1882    5926+
+           1146    1147    8529    5925
CTETRA      4172       1     101    5190    5160    5191    2232    5373+
+           2233    2236    5375    5378
CTETRA      4173       1      98      99    5195    5131     657    1474+
+           3670     666    1888    5411
CTETRA      4174       1      99    5195    5196    5187    1474    5409+
+           1475     660    5408    5406
CTETRA      4175       1     144    4205    4202    5960    1082    4246+
+           1081    2262    2264    2873
CTETRA      4176       1     146    4203    4206    4207    1086    4248+
+           1083    1292    4252    4253
CTETRA      4177       1      90    5870    8577    8578    2146    5918+
+            584    1181    5917    8590
CTETRA      4178       1     110      90    4209    4210    2256    1657+
+           3149    2367    2150    4264
CTETRA      4179       1     146    5867    8578    8579    2066    5904+
+           1184    1177    5903    8591
CTETRA      4180       1    7902    8990    5960    8989    7263    5987+
+           2867    7264    9007    5990
CTETRA      4181       1    4205    8989    7903    7902    2868    7266+
+           4245    4244    7264    7906
CTETRA      4182       1      90    8577    5870    5869     584    5918+
+           2146    2148    5924    5914
CTETRA      4183       1      93    4343    3795    7867    1717    1833+
+           1832    1834    4358    1835
CTETRA      4184       1    7867    3795    9061    7870    1835    3351+
+           7868    4359    3681    7873
CTETRA      4185       1      92    4171    9065    4179    3710    4177+
+           3447    2548     617    3722
CTETRA      4186       1    4055    6405    8597    6070    3100    6654+
+           3235    3238    3510    3511
CTETRA      4187       1    4043    8595    4050    4048    3137    3453+
+           4101    4091    3144    4099
CTETRA      4188       1    6422    4049    4050    4048    3507    4100+
+           3452    3451    4096    4099
CTETRA      4189       1    6396    5013    8324    8323    2494    5055+
+           3398    2493    5054    8327
CTETRA      4190       1     117    7964     154    7419    2296    2289+
+           1210     801    2288    2290
CTETRA      4191       1     173    7116    9123    7114    1951    7190+
+           2734    1970    7186    7188
CTETRA      4192       1    5017    5016    6445    5015    5067    2737+
+           2719    5066    5063    3572
CTETRA      4193       1    6445    5017    6444    5016    2719    2718+
+           6580    2737    5067    3599
CTETRA      4194       1    6428    6444    5016    6445    6579    3599+
+           2738    6581    6580    2737
CTETRA      4195       1    8276    8566    8565    6442    5805    8570+
+           5806    6625    3642     594
CTETRA      4196       1    6445    5010    5012    8273    3084    5035+
+           3059    6631    3546    3491
CTETRA      4197       1      60    6442      63    6443    2421    2422+
+           1485    2842    6574    3536
CTETRA      4198       1      40    7942    7945    4490    3384     926+
+            914     917     927     918
CTETRA      4199       1    7804    3798    7871    7870    4001    3619+
+           3679    3400    3618    7875
CTETRA      4200       1    6403    6404    4060    8234    6510    3242+
+           3431    6661    6660    3418
CTETRA      4201       1    3797    9061    7870    7804    3352    7873+
+           3652    3999    3653    3400
CTETRA      4202       1    5021    5023    6399    5019    5089    3103+
+           3244    5079    5086    3105
CTETRA      4203       1      90    5869    5871    8577    2148    5922+
+           2257     584    5924    5923
CTETRA      4204       1     150      53    8580     151    2799    2201+
+           2055    1179    1788    2054
CTETRA      4205       1    4201    8991    5958    5959    2872    5980+
+           2811    1078    5982    5981
CTETRA      4206       1    4207    8914    5870    5867    3714    5910+
+           2878    2866    5900    5911
CTETRA      4207       1    4207    5869    5870    8913    2149    5914+
+           2878    3730    5913    5912
CTETRA      4208       1    8749    8750    8311    9034    8769    1123+
+           2434    7238    7236    4996
CTETRA      4209       1    5027    6063    8121    9087    3436    3458+
+           5108    5107    6078    8122
CTETRA      4210       1    4845    8189    8188    8880    4929    8203+
+           4930    2714    7458    7456
CTETRA      4211       1    8354    8355    5162    8226    8361    5393+
+           5342    3501    3443    3494
CTETRA      4212       1     119    8952    8490    8951     815    5618+
+           1414    3325    8971    5619
CTETRA      4213       1    4847    8953    8165    8954    1848    7174+
+           4940    1846    8969    7175
CTETRA      4214       1    4847    8165    8953    8164    4940    7174+
+           1848    4941    8181    7172
CTETRA      4215       1       2       1    4220    4225     177    1821+
+           2457     181     180    4323
CTETRA      4216       1    4823    8168    8958    8167    4852    7159+
+           2815    4853    8173    7166
CTETRA      4217       1     170    8983    7119      81    2735    7300+
+           2397    1758    2651    2398
CTETRA      4218       1    4823    4828    5598    8168    4862    2819+
+           1309    4852    4863    2816
CTETRA      4219       1    4846    8163    8164    8952    4943    8182+
+           4942     816    7180    7173
CTETRA      4220       1     103    4838    4837    4841    1219    4913+
+           1518     691    4921    4920
CTETRA      4221       1    4838    8189    8881    8882    4910    7454+
+           2755    1236    7455    8899
CTETRA      4222       1    4839    8190    8883    8191    4908    7463+
+           2791    4907    8201    7464
CTETRA      4223       1      93    3796    3765    3764    1836    3983+
+           3680    3246    3984    3909
CTETRA      4224       1      77    4829    5693    5692    2354    2908+
+           2360    2359    2902    5770
CTETRA      4225       1    4839    8884    8883    5685    3161    8901+
+           2791    3731    5730    5729
CTETRA      4226       1    4825    8192    8191    8885    4856    8200+
+           4906    2883    7461    7460
CTETRA      4227       1     102      11      10    8431     683     200+
+           2339    1782    1781    2446
CTETRA      4228       1    4839    5685    8883    5682    3731    5729+
+           2791    1231    5731    5733
CTETRA      4229       1    8192    5687    8886    8885    2884    5744+
+           7544    7461    5743    8904
CTETRA      4230       1    4826    8193    8192    8886    4857    8196+
+           4854    2887    7545    7544
CTETRA      4231       1    4825    5686    5687    8885    2789    5742+
+           1336    2883    5735    5743
CTETRA      4232       1      78    4829    4826    5688    2352    4870+
+           1992    2350    2353    2885
CTETRA      4233       1      43    4495    4499    4496    1117    4605+
+           2189    1120    4596    4606
CTETRA      4234       1     167    5163    5180    5184    1694    5346+
+           1685    3472    5370    5369
CTETRA      4235       1    9084    8157    8154    4987    8158     947+
+           3693    4993    4992    2613
CTETRA      4236       1    4834    8961    5600    5601    2909    5673+
+           3003    2898    5674    5675
CTETRA      4237       1     159    4823    4828    5598    1302    4862+
+           1258    1307    1309    2819
CTETRA      4238       1    8191    8885    8884    5686    7460    8903+
+           7462    2821    5735    5734
CTETRA      4239       1      75    5601    4834    5600     507    2898+
+            522    2345    5675    3003
CTETRA      4240       1     126    4481    6265    6264     871    2675+
+           2318    2925    2556    6292
CTETRA      4241       1    7132    7760    6148    7787    7332    6159+
+            885    3199    6158    6160
CTETRA      4242       1    8782    8025    8781    8809    2553    3658+
+           8797    7098    7047    7105
CTETRA      4243       1      63    8566    5779    6442    3111    5807+
+           3535    2422    3642    3518
CTETRA      4244       1    8399    8376    6877    7435    6887    6889+
+           6888    7578    1509    3623
CTETRA      4245       1      98    9084     101    9083    3723    2239+
+            680    3724    2241    2240
CTETRA      4246       1    5164     167    5184    5163    3473    3472+
+           5372    5311    1694    5370
CTETRA      4247       1     136    8104     137    8127    1689    3672+
+            962     985    4818     980
CTETRA      4248       1    6398    5023    5022    8334    3102    5090+
+           2454    1780    5092    5091
CTETRA      4249       1    8301    5157    5158    5167    3626    5288+
+            669    3625    5287    5289
CTETRA      4250       1      95    6877    8376    7435    3622    6889+
+           2430    2428    3623    1509
CTETRA      4251       1    8369      23    5141    7441    2209    2188+
+           5226    7599    2110    2435
CTETRA      4252       1    7121    6881    8391    8390    2175    6928+
+           7205    7209    6917    8398
CTETRA      4253       1    7120    9109    8378    8390    7208    8382+
+           1570    7207    8395    6915
CTETRA      4254       1      42    4500    4499    4503     335    4612+
+           2000    2567    4620    4622
CTETRA      4255       1      36      37     169      39     300    1801+
+           1738     314     317    2073
CTETRA      4256       1    4171      36    7847      40     302     323+
+           4175     618     316     324
CTETRA      4257       1     168    7992    7991    4344    1830    7995+
+           1708    1699    4351    4352
CTETRA      4258       1     169      30    3741      37    1794    2185+
+           2186    1801    1802    3706
CTETRA      4259       1    7445    7769    7785    6152    7651    6186+
+           2165    2936    6188    6187
CTETRA      4260       1    8780    8807    8027    8779    7104    7050+
+           2583    8796    7103    2584
CTETRA      4261       1    7446    6152    7770    7769    2935    6199+
+           7649    7653    6188    7777
CTETRA      4262       1    7445    9052    7785    7769    7652    7791+
+           2165    7651    7774    6186
CTETRA      4263       1    6263    7137    6255    7135    2763    1914+
+           6285    3056    7326    3379
CTETRA      4264       1    5008    5024    6447    5009    5099    2514+
+           3071    5038    5101    3073
CTETRA      4265       1    9072    7964    7419    7917    7968    2288+
+           7511    7939    4340    7637
CTETRA      4266       1      56    4841     103     102     690     691+
+            689     686    1517    1516
CTETRA      4267       1     151    8434    8534    8433    1980    5476+
+           1982    1990    8448    5479
CTETRA      4268       1    7927    7859    5866    9054    4272    3146+
+           3147    7933    7862    3275
CTETRA      4269       1     163    8469      78    5687    1987    1986+
+           1330    1333    5739    1334
CTETRA      4270       1      79    5599    8435    8434    1260    5668+
+            543    1978    5667    8446
CTETRA      4271       1    7859    5866    9054    9067    3146    3275+
+           7862    3488    5890    2938
CTETRA      4272       1    4220    8997    7897    7896     484    7275+
+           4309    4310    7279    7913
CTETRA      4273       1    8133    8147    7429    9093    4727    7524+
+           1384    8136    8148    7514
CTETRA      4274       1      58      11      55    8536    1266    1531+
+           1275    1268    1267    1546
CTETRA      4275       1     159    8434    8433    5598    1991    8448+
+           1296    1307    5663    5662
CTETRA      4276       1    7927    5865    8911    8910    3148    5907+
+           7603    7602    5893    8931
CTETRA      4277       1      57      10      11       9     555     200+
+            397     553     199     201
CTETRA      4278       1    8960    4828    8169    8959    3280    4867+
+           7163    8979    2820    7161
CTETRA      4279       1    7927    5865    8910    5866    3148    5893+
+           7602    3147    5892    5894
CTETRA      4280       1      86    5864    8576    5871    2254    5888+
+            566    2260    5919    5920
CTETRA      4281       1    7859    5865    5866    7972     721    5892+
+           3146    3439    5891    5889
CTETRA      4282       1    6688    8651    8401    6687    6821    6885+
+           3643    6719    6780    3645
CTETRA      4283       1    7965    7150    9071    7952     289    7394+
+           7967    4398    7395    7953
CTETRA      4284       1     147    4841    4842    4840    1115    4922+
+           1551    1849    4924    4923
CTETRA      4285       1     163    4824    4825    4827    1312    4860+
+           1335    1311    4859    4858
CTETRA      4286       1     108    3780    7857    7969    2330    3933+
+           2331    1502    3479    2336
CTETRA      4287       1     107     109     110     105    3553     732+
+           3711     724     731     733
CTETRA      4288       1    4201    4202    7901    5959    4231    4230+
+           4232    1078    2870    2871
CTETRA      4289       1    8304    8305    8127    5182    8307    2358+
+           3037    5356    5358    3131
CTETRA      4290       1      77    4830    4829    4833    2342    4873+
+           2354    2355    4883    4882
CTETRA      4291       1    7924    5867    8915    8914    3713    5899+
+           7609    7612    5900    8930
CTETRA      4292       1     137    8473     141     138     968    1653+
+            982     965     969    1444
CTETRA      4293       1    5174     136    8306    8305    1680    3578+
+           5326    5327    1733    8310
CTETRA      4294       1    4829    8887    5688    5693    2882    5771+
+           2353    2908    5772    5767
CTETRA      4295       1    5591    5596     140    5597    5651    1641+
+           3128    5656    5657    1637
CTETRA      4296       1    4829    8193    8888    8194    4868    7548+
+           2903    4869    8197    7546
CTETRA      4297       1     141    4832    8306    8305    1446    4902+
+           3579    2356    4903    8310
CTETRA      4298       1     138      77    5692    4829    1649    2359+
+           2900    2346    2354    2902
CTETRA      4299       1     150    5867    8579    5863    2067    5903+
+           1176    1286    5902    5901
CTETRA      4300       1    4204    8915    5867    5863    2810    5899+
+           2068    2200    5886    5902
CTETRA      4301       1    4205    8988    8989    5961    2889    9008+
+           2868    1660    5997    5992
CTETRA      4302       1    4201    8991    8992    5958    2872    9005+
+           2877    2811    5980    5975
CTETRA      4303       1      52    5862    8580    8581    1625    5882+
+           2152    1623    5877    8592
CTETRA      4304       1     148    7445    6152    7446    2164    2936+
+           2544    2581    7646    2935
CTETRA      4305       1     149      89     107    8531    1671    1672+
+           1666    2364    2053    3728
CTETRA      4306       1    8627    7763    7762    7136    6157    7765+
+           6156     525    7324    7316
CTETRA      4307       1    8603    6255    6150    9129    6346    2766+
+           3350    8607    6347    6170
CTETRA      4308       1    7450    6273    8784    6280    1244    1245+
+           7670    3650    6339    3376
CTETRA      4309       1    8754    8728    8727    8000    7065    8733+
+           7059    3288    6996    6995
CTETRA      4310       1    7803    7804    3767    7871    7810    3998+
+           3947    3339    3679    3614
CTETRA      4311       1    8626    7762    7761    7136    6154    7764+
+           6155    3413    7316    7317
CTETRA      4312       1      29    7786    3753    7787    2156    3852+
+           3487     263    7789    3853
CTETRA      4313       1    6400    5026    6416    6399    3460    3524+
+           6493    6494    3424    6492
CTETRA      4314       1     133    8612    8613    6694     992    8617+
+            924    2849    6782    6781
CTETRA      4315       1    6408    4386      48    6407    1038    1035+
+           1039    6459    2942    2225
CTETRA      4316       1    8401    6689    7439    8400    3726    2934+
+           7562    8403    2929    7563
CTETRA      4317       1    6688    6689    7439    8401    6723    2934+
+           3687    3643    3726    7562
CTETRA      4318       1    8400    8652    8401    6689    6884    6883+
+           8403    2929    6819    3726
CTETRA      4319       1    9076    4388    8461    8562    4438    4443+
+           8462    5518    2824    5517
CTETRA      4320       1    4826    8886    5687    5688    2887    5744+
+           2886    2885    5746    5745
CTETRA      4321       1     147    4841    4840    4843    1115    4924+
+           1849    1114    4931    4932
CTETRA      4322       1    4844    8878    8879    8187    2605    8895+
+           1106    4934    7472    7471
CTETRA      4323       1    8877      21      22    8510     238     241+
+           1884    5708    1147    1815
CTETRA      4324       1    4498    8747    4501    8007    2035    2133+
+           4614    4604    3043    4613
CTETRA      4325       1     163    4825    5686    5687    1335    2789+
+           1339    1333    1336    5742
CTETRA      4326       1    4498    4495    8748    8006    4603    2390+
+           2611    4602    4593    3292
CTETRA      4327       1      75    5601    8436    8435     507    5679+
+           1256    1977    5678    8444
CTETRA      4328       1    4839    5685    5686    8884    3731    5736+
+           1341    3161    5730    5734
CTETRA      4329       1    8913    5869    7925    4207    5913    2893+
+           7614    3730    2149    4254
CTETRA      4330       1    4390    6439    5786    8562    1045    2926+
+           3595    2823    3065    5855
CTETRA      4331       1    6062     104    6066    6393    2222    2267+
+           6092    2221    2223    2438
CTETRA      4332       1    6430    5011    6446    6429    2471    3544+
+           6585    6537    3184    6584
CTETRA      4333       1    8325    5017    6444    8326    5070    2718+
+           3564    8329    5071    2832
CTETRA      4334       1     111    7128     113    5128     742     753+
+            748     743     744     755
CTETRA      4335       1      85     144    8532     149    1171    2062+
+           2061    1172    1174    2363
CTETRA      4336       1    6440    8562    8563    8278    3425    8572+
+           2499    6621    5846    5845
CTETRA      4337       1      63    6443    5779    4722    3536    2933+
+           3535    1488    3538    3725
CTETRA      4338       1    4388    8563    8562    9076    3606    8572+
+           2824    4438    5519    5518
CTETRA      4339       1    4215    5957    5958    8992    3551    5974+
+           1321    2876    5973    5975
CTETRA      4340       1      85    8533      64     162    2060     439+
+            572    1905    1983    1305
CTETRA      4341       1    4831    8960    5601    5599    3300    5676+
+            511    2880    5665    5677
CTETRA      4342       1    8237    6064    6400    8238    6086    3435+
+           6667    8250    6083    6668
CTETRA      4343       1      71    8996    8997    5972    1425    9022+
+            481     485    6060    6059
CTETRA      4344       1    4057    7825    6451    7975    4131    3420+
+           3021    4160    4159    3006
CTETRA      4345       1    8273    5778    8274    5010    5819    5812+
+           8287    3546    3720    3732
CTETRA      4346       1    6451    7976    6435    4063    3005    3548+
+           6600    3022    4157    3580
CTETRA      4347       1    7827    4038    7826    6453    4076    4077+
+           7831    3089    3085    3088
CTETRA      4348       1    4045    5783    7827    7828    3141    5839+
+           4078    4074    5840    7832
CTETRA      4349       1    4038    6453    4058    6452    3085    3139+
+           4134    3023    6604    3024
CTETRA      4350       1    4055    6070    8597    4042    3238    3511+
+           3235    4115    3152    3509
CTETRA      4351       1      89    8575    5531    8576    1359    5551+
+           1361     582    8586    5554
CTETRA      4352       1    4658    6418    6419    6402    3015    6503+
+           3008    2993    6501    6504
CTETRA      4353       1      85    5532      87    8577     580    1898+
+            568     562    5559    1203
CTETRA      4354       1    6431    6447    6430    5008    6588    6587+
+           6540    3570    3071    2469
CTETRA      4355       1      97    4502    8747    6690     649    2034+
+           1587    1590    2566    2134
CTETRA      4356       1    5966     108    5968    4208    2334    1504+
+           6018    2333    2332    2337
CTETRA      4357       1    6435    4062    4063    7976    3584    4154+
+           3580    3548    4152    4157
CTETRA      4358       1      14    8465    5683    9122    1553    5716+
+           2401    1111    8474    5715
CTETRA      4359       1    4057    6451    7825    6452    3021    3420+
+           4131    3019    6601    3026
CTETRA      4360       1    4850    7423    8186    8185    2299    7469+
+           4954    4955    7476    8205
CTETRA      4361       1     151      53    8580      83    1788    2201+
+           2054    1975    2153    2341
CTETRA      4362       1     159     156     160     161    2129    1523+
+           1294    1297    1807    1298
CTETRA      4363       1       9      12      67      10     202    1819+
+            554     199     203     556
CTETRA      4364       1    4656    7976    6435    4659    4663    3548+
+           3547    4676    4675    3549
CTETRA      4365       1    6394    4717    6411    6410    2740    2484+
+           6472    6469    1167    6471
CTETRA      4366       1     157    8923    7918    8922    2282    7632+
+           2008    1241    8940    7631
CTETRA      4367       1    4823    8958    5598    5595    2815    5658+
+           1309    1539    5649    5661
CTETRA      4368       1      57     147      10      67    1113    2338+
+            555     488    1556     556
CTETRA      4369       1     103    8466    5682    5684    1233    5725+
+           1224     706    5727    5720
CTETRA      4370       1      21    8511    8877    5681    1882    5714+
+            238     527    5713    5710
CTETRA      4371       1    8920    4216      15    8919    3712     865+
+           1732    8939    2578    1731
CTETRA      4372       1    8753    4473    4487      36    1153    4564+
+           1154     322     311    1757
CTETRA      4373       1    5027    6417    6416    8120    3462    6495+
+           3523    5110    3012    3521
CTETRA      4374       1      83    8469    8578    8470    1988    5570+
+           1974    1993    8481    5569
CTETRA      4375       1    4828    8959    5599    5598    2820    5664+
+           1262    2819    5659    5666
CTETRA      4376       1     156    4824    4837    4839    1342    4914+
+           1524    1229    4905    4912
CTETRA      4377       1    8118    8099    4661    6449    4688    4689+
+           4685    2517    2916    3187
CTETRA      4378       1    5010    5778    8274    8326    3720    5812+
+           3732    5073    2800    2967
CTETRA      4379       1    4658    6403    6419    7978    3203    6505+
+           3008    4665    3204    3432
CTETRA      4380       1      89     107    8531    8530    1672    3728+
+           2053    1368    1352    8541
CTETRA      4381       1    8432     161      55    8433    2132    1541+
+           1533    8447    1299    1792
CTETRA      4382       1     159     163    4824     156    1310    1312+
+           1301    2129    1325    1342
CTETRA      4383       1    6415    5026    6416    5028    3526    3524+
+           6491    3416    5115    3484
CTETRA      4384       1     159     163      78    4827    1310    1330+
+           1329    1263    1311    1265
CTETRA      4385       1     102    5590    8956    5594    2131    5627+
+           1525    3423    5641    5643
CTETRA      4386       1    8195    5689    8890    8889    3261    5756+
+           7537    7539    5761    8906
CTETRA      4387       1    5684      14    5683      84    1552    2401+
+           5724     709     551    2400
CTETRA      4388       1      55    8535    8536    8432    1793    8547+
+           1546    1533    5477    5472
CTETRA      4389       1    8274    5010    5017    8273    3732    5069+
+           2968    8287    3546    2717
CTETRA      4390       1      54    8536    8535    5957    1276    8547+
+           1316    3729    6024    5979
CTETRA      4391       1    8120    5027    6417    8121    5110    3462+
+           3012    8123    5108    3461
CTETRA      4392       1    5023    8333    6399    5018    5095    3104+
+           3103    5087    5093    3106
CTETRA      4393       1      13      18      15    4217     214    1615+
+            208     217    1428     866
CTETRA      4394       1    8333    8238    8334    6399    6081    6082+
+           8341    3104    6669    1779
CTETRA      4395       1      75    8436    5600    5596    1256    5680+
+           2345     534    5652    5670
CTETRA      4396       1     144     145    8534    5959    1076    2144+
+           2056    1077    1079    5983
CTETRA      4397       1      81    7894    7117    7130    1768    7286+
+           3289    1760    7285    7287
CTETRA      4398       1    8238    6064    6400    6399    6083    3435+
+           6668    6669    3224    6494
CTETRA      4399       1    6414    6397    5005    5013    6484    3177+
+           2050    3180    3178    5046
CTETRA      4400       1    6432    5029    8119    5030    3483    5119+
+           2943    2944    5121    5124
CTETRA      4401       1    9088    8118    8343    5776    8126    5126+
+           8353    5792    2518    5802
CTETRA      4402       1    5023    6399    6398    5021    3103    6490+
+           3102    5089    3244    3101
CTETRA      4403       1     102    5590    5594    8431    2131    5641+
+           3423    1782    5640    5642
CTETRA      4404       1     141    8473    5689    5690    1653    5759+
+           1655    2348    5749    5760
CTETRA      4405       1      68    8953    8489    8952    1847    5616+
+           1842    2403    8970    5617
CTETRA      4406       1      95    4499    4502    4503     651    4617+
+            650     630    4622    4623
CTETRA      4407       1     110    4211    4210    4209    2371    4268+
+           2367    3149    4269    4264
CTETRA      4408       1     161     156      83     159    1807    1328+
+           2340    1297    2129    1331
CTETRA      4409       1     139    5436    8437    8438    1367    5458+
+           1343     974    5457    8441
CTETRA      4410       1      72    8879    8509    9122    2399    5704+
+           2612    1110    5705    8525
CTETRA      4411       1      79     159      83      78    1257    1331+
+            539     514    1329    1332
CTETRA      4412       1      80    5597    4834    4833     537    2905+
+            521     523    1640    4888
CTETRA      4413       1    5690    5692     138    8472    5763    2900+
+           2347    5750    5769    2343
CTETRA      4414       1    4844    8188    8187    8879    4933    8204+
+           4934    1106    7457    7471
CTETRA      4415       1     140    8127    4836     141     981    2357+
+           1635     984     983    1447
CTETRA      4416       1    4222    7919    8921    8922    4318    7623+
+            777     776    7624    8935
CTETRA      4417       1    4832    5689    8306    8195    3260    3446+
+           4902    4880    3261    4901
CTETRA      4418       1       3    8998    8999    8489    2423    9018+
+            758    2466    6044    6046
CTETRA      4419       1      74    8921    8920    8509    2461    8937+
+           2426    1816    5933    5934
CTETRA      4420       1    5692    8889    5690    4832    5762    5764+
+           5763    2901    3259    2349
CTETRA      4421       1     151      55    8535      54    1789    1793+
+           1317    1314     388    1316
CTETRA      4422       1    8889    5690    4832    5689    5764    2349+
+           3259    5761    5760    3260
CTETRA      4423       1       3    8489    8999    8490    2466    6046+
+            758    1415    8505    6052
CTETRA      4424       1      15    8919    7921    8918    1731    7619+
+           1724    1622    8938    7618
CTETRA      4425       1    8488    5972      69    8997    6056     479+
+            472    6058    6059     471
CTETRA      4426       1    4829    8887    5693    8888    2882    5772+
+           2908    2903    8909    5773
CTETRA      4427       1    4846    8952    8164    8953     816    7173+
+           4942    2715    8970    7172
CTETRA      4428       1    9092    8220    8306    9100    8222    3117+
+           3360    3216    3118    8309
CTETRA      4429       1      68    8953    8488    8489    1847    5615+
+           1843    1842    5616    8504
CTETRA      4430       1      73    4383    4385    9075    1370    4422+
+           2507    1371    4419    4420
CTETRA      4431       1      46    4383    4378    4381    2077    4416+
+           1389    2087    4417    4407
CTETRA      4432       1    5005    5006    6414    5013    5047    2051+
+           2050    5046    5048    3180
CTETRA      4433       1      48    8563    8562    4388     361    8572+
+           2825    1055    3606    2824
CTETRA      4434       1    6441    8563    6440      48    3076    2499+
+           6568    1058     361    2502
CTETRA      4435       1      47    5784    8563    8564    3090    5847+
+            360    2940    5848    8573
CTETRA      4436       1      77    5693    8471    8472    2360    5766+
+           1901    2059    5768    8477
CTETRA      4437       1      45      46    4382    4381     350     354+
+            353    2088    2087    4410
CTETRA      4438       1     141    4832    5690    5689    1446    2349+
+           2348    1655    3260    5760
CTETRA      4439       1    5592    8304    8172    4835    3035    4896+
+           3155    1633    4897    4891
CTETRA      4440       1    4846    4847    8953    8164    4944    1848+
+           2715    4942    4941    7172
CTETRA      4441       1    8172    8304    5593    9099    4896    3036+
+           3154    8178    8308    3262
CTETRA      4442       1      54    8536    5957    5969    1276    6024+
+           3729    1278    6036    6035
CTETRA      4443       1    8583      17    8582      15    1727    1823+
+           8588    1726    1725    1818
CTETRA      4444       1     156    8468    5686    5685    1324    5738+
+           1338    2863    5737    5736
CTETRA      4445       1      79    5599    5601    8435    1260    5677+
+            508     543    5668    5678
CTETRA      4446       1    5013    6412    8324    5016    3542    3414+
+           5055    5062    3559    5064
CTETRA      4447       1    8168    8958    8959    5598    7159    8978+
+           7158    2816    5658    5659
CTETRA      4448       1      63    8566    8085    9086    3111    5515+
+           1492    3112    5514    8089
CTETRA      4449       1      66    4377    7432    7427    1193    2643+
+           1103    2079    3109    7523
CTETRA      4450       1    4382    7957    7427    8088    4415    7499+
+            355    2416    7496    7497
CTETRA      4451       1     152    9093    7428    7420    1592    7505+
+           1591    2655    7504    7503
CTETRA      4452       1     173    7114     143    7116    1970    1966+
+           1953    1951    7186    1952
CTETRA      4453       1      34    7429    7430    7431    1383    7510+
+           1386    2025    7509    7508
CTETRA      4454       1     119    8951    8163    8952    3325    7181+
+           1065     815    8971    7180
CTETRA      4455       1      84    8880    9122    5683    2818    5717+
+           1109    2400    5718    5715
CTETRA      4456       1    4380    8088    9076    7957    2419    8090+
+           4412    4411    7496    7962
CTETRA      4457       1    4845    4838    8881    5684    4927    2755+
+           2754    2402    1238    5722
CTETRA      4458       1      17    5684    8465    8466     708    5728+
+           1554    1235    5727    8478
CTETRA      4459       1    4383    4378    7950    7140    4416    4401+
+           4418    3613    2415    7357
CTETRA      4460       1      61    6410    4717    6394     692    1167+
+           1166     695    6469    2740
CTETRA      4461       1    4216    7920    8919    8920    4302    7622+
+           2578    3712    7626    8939
CTETRA      4462       1    4383    8079    7950    9075    3530    7354+
+           4418    4419    8080    7956
CTETRA      4463       1      22    8509    8878    8510    1817    5706+
+           1885    1815    8526    5707
CTETRA      4464       1      68       1    8952    8489     821    2404+
+           2403    1842    1841    5617
CTETRA      4465       1      66    7432      34    7433    1103    1096+
+           1030    1380    7528    1381
CTETRA      4466       1      50      66      46      62     454    1196+
+            365     429    1199     430
CTETRA      4467       1      59    4716    7141    8076    2270    3334+
+           2247    2271    2272    7360
CTETRA      4468       1      50    8085    8086    7426    1489    8091+
+            459     453    7492    7493
CTETRA      4469       1    8146    7426    8145    4715    7495    7494+
+           8150    4744    3709    4743
CTETRA      4470       1    8955    4840     147    8956    2453    1849+
+           2452    8973    2865    1549
CTETRA      4471       1     147    8955    5590    5589    2452    5626+
+           2130    1557    5611    5624
CTETRA      4472       1     172     157    8924    7443    1865    2037+
+           2999    1932    1937    7629
CTETRA      4473       1      50    7434    7426    8086    2080    7535+
+            453     459    7533    7493
CTETRA      4474       1    8566    8565      35    8085    8570     287+
+           3640    5515    5516    1490
CTETRA      4475       1      73      91      46     175    1375     597+
+           2086    2085    2084    2075
CTETRA      4476       1    4715    4711    7426      50    4748     452+
+           3709     443     451     453
CTETRA      4477       1    6442    8565      35    8566     594     287+
+            595    3642    8570    3640
CTETRA      4478       1    6441    8277    5785    8276    6623    5851+
+           2496    6624    8295    5849
CTETRA      4479       1      63    4722    5779    8566    1488    3725+
+           3535    3111    3113    5807
CTETRA      4480       1    4710    8139    7151    7141    4733    7398+
+           1089    2246    7363    7399
CTETRA      4481       1     104    6066    8553    8552    2267    6101+
+           2812    2845    6096    8560
CTETRA      4482       1    5780    8326    5778    9120    3298    2800+
+           5809    5810    4783    5811
CTETRA      4483       1    4717    8554    6065    4720    2274    6107+
+           2441    4762    2504    2483
CTETRA      4484       1    4840    8954    8165    8955    1850    7175+
+           4926    2453    8968    7171
CTETRA      4485       1    8272    8346    5012    8345    5795    5042+
+           3058    5793    8350    5045
CTETRA      4486       1    8334    6399    6398    5023    1779    6490+
+           1780    5092    3103    3102
CTETRA      4487       1      59    8076    7141    8077    2271    7360+
+           2247    2409    8084    7361
CTETRA      4488       1    4385    4386      73    4387    4427    1041+
+           2507    4429    4430    2506
CTETRA      4489       1    5780    4723    9120    8567    2795    4778+
+           5810    5818    3634    8568
CTETRA      4490       1    6415    5008    6414    5020    3422    3175+
+           6487    3417    5075    2492
CTETRA      4491       1    4715    8085    7426    8145    1491    7492+
+           3709    4743    7491    7494
CTETRA      4492       1      63    9086    4714    4722    3112    4739+
+           2899    1488    4771    4770
CTETRA      4493       1    6451    6452    8266    7825    6601    6645+
+           6644    3420    3026    5824
CTETRA      4494       1    9057    7825    6451    8267    7835    3420+
+           3194    5828    5825    6643
CTETRA      4495       1    7857    4208    5966    5965    4278    2333+
+           2335    3367    3401    6015
CTETRA      4496       1    4215    5957    8992    8993    3551    5973+
+           2876    3247    5976    9004
CTETRA      4497       1     149    5960    8532    5961    2263    5989+
+           2363    1661    5991    5993
CTETRA      4498       1     156    4839    5685    5686    1229    3731+
+           2863    1338    1341    5736
CTETRA      4499       1      54    5958    5957    8535    1318    5974+
+           3729    1316    5977    5979
CTETRA      4500       1    4055    4042    7817    6070    4115    4114+
+           4116    3238    3152    6122
CTETRA      4501       1      54    4200    4213    4215    1322    4290+
+            393    1272    4281    4288
CTETRA      4502       1    7923    8916    8915    5863    7616    8928+
+           7610    2813    5885    5886
CTETRA      4503       1    4047    8597    4042    4046    3593    3509+
+           4083    4089    3172    4079
CTETRA      4504       1    6390    6406    7836    6407    6454    3589+
+           2393    6456    6455    3717
CTETRA      4505       1    8325    6412    8324    6411    3558    3414+
+           8331    3557    6475    3404
CTETRA      4506       1    6390    7836    4046    4047    2393    4087+
+           3513    3592    4086    4089
CTETRA      4507       1    7817    6069    4042    7818    6124    3153+
+           4114    7820    6125    4084
CTETRA      4508       1      33    4378    7140    7152    1003    2415+
+           2413    1005    1004    7403
CTETRA      4509       1    4047    7818    6072    9056    4082    6138+
+           3590    4085    7819    6139
CTETRA      4510       1    7951    7140    4378    7152    7358    2415+
+           4400    7402    7403    1004
CTETRA      4511       1    4053    4060    6404    8233    4139    3242+
+           3096    3240    3396    6659
CTETRA      4512       1      66    7427      46    4377    2079     351+
+           1196    1193    3109    1195
CTETRA      4513       1    6436    4063    4062    4061    3581    4154+
+           3585    3582    4153    4150
CTETRA      4514       1    6071    9075    8549    8550     795    5496+
+           6137    6136    5497    8556
CTETRA      4515       1     175    8078    7155    7140    2406    7416+
+           2411    2405    7356    7417
CTETRA      4516       1     104    6410    6393      91     694    6468+
+           2223    2414    1168    3554
CTETRA      4517       1    7952    4379    7150    7152    4399     288+
+           7395    7400    1007    7401
CTETRA      4518       1    4041    4042    4055    8597    4081    4115+
+           4117    3166    3509    3235
CTETRA      4519       1    6405    6404    8233    4056    6514    6659+
+           6658    3098    3095    3094
CTETRA      4520       1     108    7858    4208    7857    2328    4279+
+           2332    2331    7860    4278
CTETRA      4521       1     110      86    5871    5864    2259    2260+
+           2258    2374    2254    5919
CTETRA      4522       1      85     149    8531      89    1172    2364+
+           2052     576    1671    2053
CTETRA      4523       1     150      53      54      52    2799     390+
+           2143    1279     385     395
CTETRA      4524       1    4216    7921    8919    7920    4301    7619+
+           2578    4302    7935    7622
CTETRA      4525       1    6406    7837    7836    6407    3716    7841+
+           3589    6455    2941    3717
CTETRA      4526       1    4199    7923    8916    7922    4228    7616+
+           2814    4229    7928    7617
CTETRA      4527       1      48    6439    8562    6440    1046    3065+
+           2825    2502    6565    3425
CTETRA      4528       1    4223    8920    8921    7920    2425    8937+
+           2462    4316    7626    7625
CTETRA      4529       1     152    7420    8185    9093    2655    7474+
+           2732    1592    7504    8207
CTETRA      4530       1    4047    6072    7818    6069    3590    6138+
+           4082    3591    6140    6125
CTETRA      4531       1      33      66    4712    4711    1031    1032+
+           1021    1197     455    4729
CTETRA      4532       1    6394    6065    6395    4717    2489    2480+
+           6474    2740    2441    2486
CTETRA      4533       1    6422    7838    4050    4049    3454    4103+
+           3452    3507    4098    4100
CTETRA      4534       1    6406    4049    4048    4046    3508    4096+
+           2988    2986    4095    4093
CTETRA      4535       1    4058    6452    6436    4063    3024    6603+
+           3344    4155    3020    3581
CTETRA      4536       1    8119    6432    6433    8120    2943    6546+
+           3189    8124    3522    3520
CTETRA      4537       1    5007    5020    6414    5008    5074    2492+
+           2491    5033    5075    3175
CTETRA      4538       1    7925    8912    5869    8913    7613    5915+
+           2893    7614    8934    5913
CTETRA      4539       1     110     105    4212     107     733     717+
+           2261    3711     724     729
CTETRA      4540       1    9118    8323    6068    4720    4769    3490+
+           6112    4765    4768    2481
CTETRA      4541       1    4720    9118    8449    8554    4765    8451+
+           4764    2504    8558    5500
CTETRA      4542       1    8323    6067    9107    9118    3489    6108+
+           8328    4769    6109    8452
CTETRA      4543       1    6391    6408    4387    6392    6460    2535+
+           2534    6462    6461    3249
CTETRA      4544       1     140    4833    4835    5597    1639    4893+
+           1634    1637    1640    3156
CTETRA      4545       1     155    7425    8873    8874    2293    7480+
+           2731    3193    7479    8893
CTETRA      4546       1      68    8488    8953    8954    1843    5615+
+           1847    1562    5613    8969
CTETRA      4547       1    4491    8779    4494    8057    1455    3320+
+           4587     446    3319     447
CTETRA      4548       1     144    8533    5959    8534    2057    5984+
+           1077    2056    8546    5983
CTETRA      4549       1    5776    6448    5025    5777    2516    2511+
+           2984    5801    2982    2983
CTETRA      4550       1    5865    7859    7927    4211     721    4272+
+           3148    2370    4273    4267
CTETRA      4551       1     110      90    4210    5869    2256    2150+
+           2367    2366    2148    2151
CTETRA      4552       1      85    5437    8531    8532     573    5461+
+           2052    2061    5464    8542
CTETRA      4553       1     107      86     109      89    1667    2252+
+           3553    1672     583    2325
CTETRA      4554       1    4720    6396    6068    6395    3399    2831+
+           2481    2482    6478    2479
CTETRA      4555       1     137     138     141     140     965    1444+
+            982     975    1643     984
CTETRA      4556       1      89    8576     109    8575     582    2253+
+           2325    1359    8586    1357
CTETRA      4557       1    5530    5529    9078     106    5546    5542+
+           5544    3281    1514     716
CTETRA      4558       1      13      15      18      17     208    1615+
+            214     213    1725     216
CTETRA      4559       1      83    8580    8579    8468    2341    8593+
+           1976    1327    5573    5574
CTETRA      4560       1    4207    5870    8914    8913    2878    5910+
+           3714    3730    5912    8933
CTETRA      4561       1    8246    6072    6391    8247    6144    2392+
+           6685    8264    6142    6686
CTETRA      4562       1    6400    6401    6063    8237    6498    3456+
+           3434    6667    6666    6074
CTETRA      4563       1      89      88    8437    5437     578    1345+
+           1892     577     574    5462
CTETRA      4564       1    6072    6390    4047    7836    2391    3592+
+           3590    2394    2393    4086
CTETRA      4565       1     159    5599    8434    5598    1261    5667+
+           1991    1307    5666    5663
CTETRA      4566       1      89    5436    8531    5437    1366    5459+
+           2053     577    5460    5461
CTETRA      4567       1      83      64    8578     151     541     570+
+           1974    1975    1284    1285
CTETRA      4568       1      85    5532      88      87     580     579+
+            575     568    1898    1897
CTETRA      4569       1      86    8577    5871    8576     563    5923+
+           2260     566    8587    5920
CTETRA      4570       1     110    5868    5871    5869    2368    5921+
+           2258    2366    5916    5922
CTETRA      4571       1      87    8471    5533    5532    1900    5564+
+           3135    1898    5558    5562
CTETRA      4572       1     145    4203    4200    4201    1289    4235+
+           1290    1075    4234    4236
CTETRA      4573       1      85      90     149      86     585    1173+
+           1172     564     586    1664
CTETRA      4574       1     151    8433    8534    8535    1990    5479+
+           1982    1317    5478    8548
CTETRA      4575       1      83    8579    8469    8468    1976    5571+
+           1988    1327    5574    8483
CTETRA      4576       1    6400    6064    5018    6399    3435    3225+
+           3459    6494    3224    3106
CTETRA      4577       1      76      77    5688    8471     502    2351+
+           2793    1902    1901    5748
CTETRA      4578       1    6415    5024    6432    6431    3421    3527+
+           6544    6542    3568    6543
CTETRA      4579       1    9057    6451    7825    7975    3194    3420+
+           7835    7983    3006    4159
CTETRA      4580       1      89      86     109    8576     583    2252+
+           2325     582     566    2253
CTETRA      4581       1      78    4829      77    4830    2352    2354+
+            506     545    4873    2342
CTETRA      4582       1    5025    8344    8343    5777    5096    8352+
+           5097    2983    5796    5797
CTETRA      4583       1    9087    5027    6063    8332    5107    3436+
+           6078    8342    5105    6084
CTETRA      4584       1      76    8470      78      83    2792    1994+
+            505     538    1993    1332
CTETRA      4585       1     162    8435    8436    5438    1306    8444+
+           1894    3727    5470    5469
CTETRA      4586       1     162    5437    5438    8436    1893    5467+
+           3727    1894    5463    5469
CTETRA      4587       1      85    8578      90    8577     569    1181+
+            585     562    8590     584
CTETRA      4588       1    5029    6432    5028    5030    3483    3485+
+           5117    5121    2944    5120
CTETRA      4589       1    6063    8121    9087    8094    3458    8122+
+           6078    6077    4673    8098
CTETRA      4590       1      85     162    8532    8533    1905    2063+
+           2061    2060    1983    8545
CTETRA      4591       1      90      86    8577    5871     586     563+
+            584    2257    2260    5923
CTETRA      4592       1     162    8533    5438    8532    1983    5473+
+           3727    2063    8545    5468
CTETRA      4593       1     146      90    5870    4207    1183    2146+
+           2145    1292    1291    2878
CTETRA      4594       1      54    4215    5969    5957    1272    1548+
+           1278    3729    3551    6035
CTETRA      4595       1    4199    8917    8916    5862    1824    8927+
+           2814    2798    5879    5880
CTETRA      4596       1     139     109      89     107    1355    2325+
+           1358    1349    3553    1672
CTETRA      4597       1    8437      88      80    5437    1345    1646+
+           1642    5462     574    1896
CTETRA      4598       1      76      83      64    8470     538     541+
+            540    2792    1993    2147
CTETRA      4599       1     110      90      86    4209    2256     586+
+           2259    3149    1657    1665
CTETRA      4600       1     102    5594    5595    8432    3423    5646+
+           1536    1532    5645    5647
CTETRA      4601       1    4210    5869    8912    5868    2151    5915+
+           2892    2369    5916    5909
CTETRA      4602       1    4832    8889    8194    5692    3259    7543+
+           4879    2901    5762    2904
CTETRA      4603       1      80    8437    8436    5596    1642    8442+
+           1255     536    5650    5652
CTETRA      4604       1    4831    4828    8169    8960    4874    4867+
+           4875    3300    3280    7163
CTETRA      4605       1     159      83     151      79    1331    1975+
+           1989    1257     539    1979
CTETRA      4606       1     141    9090    8130    8473     989    8132+
+           1654    1653    8475    5758
CTETRA      4607       1    9068    7879    7857    9053    7881    3382+
+           3277    3237    3253    7861
CTETRA      4608       1     160    5595    8433    8432    1537    5660+
+           1295    1535    5647    8447
CTETRA      4609       1    4058    6436    6453    6437    3344    6605+
+           3139    3342    6558    6606
CTETRA      4610       1    4823    8957    8958    5595    1540    8976+
+           2815    1539    5648    5649
CTETRA      4611       1      78    5687    4826    4825    1334    2886+
+           1992    1337    1336    4855
CTETRA      4612       1     160    5595    5598    8433    1537    5661+
+           1308    1295    5660    5662
CTETRA      4613       1    6428    8325    5016    6444    3556    5065+
+           2738    6579    3564    3599
CTETRA      4614       1    4044    5782    7829    5781    2978    5831+
+           4075    2757    5830    5829
CTETRA      4615       1    6399    8238    8334    8239    6669    6082+
+           1779    6670    8252    6089
CTETRA      4616       1    8272    5009    8271    8345    3080    3078+
+           8283    5793    5043    5794
CTETRA      4617       1    8240    6067    5014    6397    6103    2864+
+           2888    6673    2727    3176
CTETRA      4618       1    8597    9105    6069    6070    8598    6128+
+           3512    3511    6127    6126
CTETRA      4619       1    9107    5014    6067    8323    5052    2864+
+           6108    8328    5053    3489
CTETRA      4620       1    8336    6067    5014    8240    6106    2864+
+           5049    6105    6103    2888
CTETRA      4621       1      15    8918    5872    8919    1622    5930+
+           1620    1731    8938    5935
CTETRA      4622       1      53    8580    8468    8467    2201    5573+
+           1809    1810    5572    8482
CTETRA      4623       1    7839    5786    9121    4390    3274    5856+
+           4454    4455    3595    4445
CTETRA      4624       1      74    4222    4219    4223    2456    4321+
+            859     862    4320    4315
CTETRA      4625       1     145    4201    4215    5958    1075    4280+
+           1320    1319    2811    1321
CTETRA      4626       1    8962    8963    8171    5597    8980    7156+
+           7160    5671    5655    2907
CTETRA      4627       1    4835    5597    8963    5592    3156    5655+
+           3160    1633    5654    5653
CTETRA      4628       1    4044    7829    5782    7828    4075    5831+
+           2978    4073    7830    5841
CTETRA      4629       1    8232    6405    4056    6070    6657    3098+
+           3093    6129    3510    3239
CTETRA      4630       1    8597    9105    6070    8232    8598    6127+
+           3511    6656    8259    6129
CTETRA      4631       1    8324    6395    4720    6411    3415    2482+
+           4766    3404    6473    2485
CTETRA      4632       1    4042    6069    4047    7818    3153    3591+
+           4083    4084    6125    4082
CTETRA      4633       1    8594    5782    9106    5783    3081    5834+
+           8602    3091    5842    5837
CTETRA      4634       1    6406    7838    7837    6407    2961    7842+
+           3716    6455    2959    2941
CTETRA      4635       1    4044    4045    7828    5783    4069    4074+
+           4073    3092    3141    5840
CTETRA      4636       1    4047    7836    9056    6072    4086    7840+
+           4085    3590    2394    6139
CTETRA      4637       1    5781    6439    5786    7839    3082    2926+
+           5860    2758    3503    3274
CTETRA      4638       1    4044    5782    5783    7828    2978    5842+
+           3092    4073    5841    5840
CTETRA      4639       1    7803    7872    9054    7890    3338    2937+
+           7809    7607    4190    7606
CTETRA      4640       1    7803    7804    7871    7889    7810    3679+
+           3339    7645    7644    4191
CTETRA      4641       1    9099    8964    9097    5593    7194    8974+
+           7195    3262    5635    5636
CTETRA      4642       1    7803    7871    3767    7872    3339    3614+
+           3947    3338    7876    3615
CTETRA      4643       1    8354    9099    8227    5178    8360    3233+
+           3502    5340    5343    3264
CTETRA      4644       1    8354    5178    8227    5162    5340    3264+
+           3502    5342    5341    3495
CTETRA      4645       1    4807    8127    5178    8227    4817    3265+
+           3685    4809    4816    3264
CTETRA      4646       1    8304    5182    8127    5178    5356    3131+
+           3037    5344    5357    3265
CTETRA      4647       1    5162    8227    4807    5178    3495    4809+
+           3496    5341    3264    3685
CTETRA      4648       1    4807    5162    5178    5179    3496    5341+
+           3685    3686    5351    5352
CTETRA      4649       1    8354    8355    8226    8208    8361    3443+
+           3501    7201    7200    4977
CTETRA      4650       1    8354    5162    8227    8226    5342    3495+
+           3502    3501    3494    8228
CTETRA      4651       1     149     107    5962    8531    1666    2379+
+           2378    2364    3728    5995
CTETRA      4652       1    6398    5005    6414    6397    2455    2050+
+           6485    6486    3177    6484
CTETRA      4653       1      79    4831    4827    4830     512    4876+
+           1264     519    4877    4872
CTETRA      4654       1    6428    6444    4724    8325    6579    2833+
+           3539    3556    3564    4782
CTETRA      4655       1    7859    3787    7972    3783    3961    3209+
+           3439    3949    3962    3272
CTETRA      4656       1    9054    8910    9070    5866    7604    8929+
+           7605    3275    5894    5895
CTETRA      4657       1    7837    7838    4386    6407    7842    4448+
+           4434    2941    2959    2942
CTETRA      4658       1    5027    6064    5018    6400    3438    3225+
+           5106    3437    3435    3459
CTETRA      4659       1     170    7118    9128    7131    2024    7301+
+           2653    1762    7297    7296
CTETRA      4660       1     110      86     109     107    2259    2252+
+            732    3711    1667    3553
CTETRA      4661       1    7857    5966    7969    5967    2335    6012+
+           2336    3276    6011    6010
CTETRA      4662       1    6406    7836    7837    4046    3589    7841+
+           3716    2986    4087    4088
CTETRA      4663       1    8326    5010    5017    8274    5073    5069+
+           5071    2967    3732    2968
CTETRA      4664       1    8274    8326    5780    6444    2967    3298+
+           5813    6629    2832    2787
CTETRA      4665       1     145    5958    8535    8534    1319    5977+
+           1315    2144    5978    8548
CTETRA      4666       1      84    4844    4845    4843    1104    4935+
+           1105     550    4937    4936
CTETRA      4667       1    4840    4843    4847    8954    4932    4939+
+           4938    1850    1563    1846
CTETRA      4668       1    9108    8326    5778    8347    8330    2800+
+           5814    8351    5072    5815
CTETRA      4669       1     110    4211    5865    5868    2371    2370+
+            735    2368    3002    5905
CTETRA      4670       1    8471      76      88      87    1902    1903+
+           1899    1900    1985    1897
CTETRA      4671       1      69      68    9117    8488     468     465+
+            469     472    1843    8503
CTETRA      4672       1    5015    6445    6429    5016    3572    6582+
+           3183    5063    2737    2736
CTETRA      4673       1    4656    6435    7976    6419    3547    3548+
+           4663    3007    6554    3598
CTETRA      4674       1    4657    8094    8121    6401    4672    4673+
+           4674    3515    3514    3457
CTETRA      4675       1    4840    8166    8956    8955    4925    7167+
+           2865    2453    7168    8973
CTETRA      4676       1    5019    6399    6415    5026    3105    6489+
+           3243    5104    3424    3526
CTETRA      4677       1    8430    5589      10    5590    5623    2450+
+           3322    5625    5624    2451
CTETRA      4678       1      13      15       9    4217     208     210+
+            207     217     866     218
CTETRA      4679       1    6420    4052    4061    4059    3349    4147+
+           3583    3427    4137    4148
CTETRA      4680       1    6445    5010    8273    5017    3084    3546+
+           6631    2719    5069    2717
CTETRA      4681       1      85     162      88    5437    1905    1904+
+            575     573    1893     574
CTETRA      4682       1    9088    8118    5776    8099    8126    2518+
+           5792    8101    4688    5791
CTETRA      4683       1    4832    8195    8194    8889    4880    8198+
+           4879    3259    7539    7543
CTETRA      4684       1    6700    6699    7126    6707    6736    2207+
+           3370    6758    6757    3369
CTETRA      4685       1    4486    8002    4473    8753    4558    4518+
+           4559    1152    3624    1153
CTETRA      4686       1    8243    6066    6394    8244    6099    2268+
+           6679    8254    6094    6680
CTETRA      4687       1    4390    9121    8461    8562    4445    8463+
+           4444    2823    8571    5517
CTETRA      4688       1    8553      61    6065    6066    2444    2443+
+           6102    6101    2266    6100
CTETRA      4689       1    7859    3783    7972    9067    3949    3272+
+           3439    3488    3273    7973
CTETRA      4690       1    7927    9054    5866    8910    7933    3275+
+           3147    7602    7604    5894
CTETRA      4691       1    7859    9067    9054    3783    3488    2938+
+           7862    3949    3273    3948
CTETRA      4692       1    8277    6440    6441    5784    6622    6568+
+           6623    5844    2498    3075
CTETRA      4693       1    7839    5781    9058    5786    2758    5832+
+           7844    3274    5860    5859
CTETRA      4694       1     105    7972    5865    7859    3208    5891+
+            719     718    3439     721
CTETRA      4695       1    6411    6412    8324    6395    6475    3414+
+           3404    6473    6476    3415
CTETRA      4696       1    6438    8279    8280    5781    6618    8296+
+           6617    2974    5854    5835
CTETRA      4697       1    6438    5781    8280    5782    2974    5835+
+           6617    2979    5830    5833
CTETRA      4698       1    8304    9099    5178    9091    8308    5343+
+           5344    3575    3234    3263
CTETRA      4699       1    4836    8127    5592    8304    2357    5632+
+           1636    4894    3037    3035
CTETRA      4700       1    7898    8995    5970    8994    7273    6043+
+           2760    7272    9017    6042
CTETRA      4701       1      58    4214    5970    8994    1438    2759+
+           1435    2465    2797    6042
CTETRA      4702       1      52    5862    5863    8580    1625    5883+
+           1287    2152    5882    5884
CTETRA      4703       1      16      55      58      11     389    1275+
+            408    1826    1531    1266
CTETRA      4704       1    4208    7904    7903    5963    4256    7907+
+           4255    2265    3664    2890
CTETRA      4705       1    5779    6442    8566    8276    3518    3642+
+           5807    5803    6625    5805
CTETRA      4706       1    4205    7903    5963    4208    4245    2890+
+           1663    4257    4255    2265
CTETRA      4707       1    7803    3783    9054    7872    3945    3948+
+           7809    3338    3271    2937
CTETRA      4708       1       2       3    4225       4     178     182+
+            181     186     183     190
CTETRA      4709       1     156    4839    5682    5685    1229    1231+
+           1225    2863    3731    5731
CTETRA      4710       1     150      53      52    8580    2799     385+
+           1279    2055    2201    2152
CTETRA      4711       1      75    5601    5600    8436     507    5675+
+           2345    1256    5679    5680
CTETRA      4712       1     102    5594    8957    5595    3423    5644+
+           1526    1536    5646    5648
CTETRA      4713       1      64    8434    8533    8534     437    5475+
+            439    1981    5476    8546
CTETRA      4714       1     103    4838    4839    4837    1219    4911+
+           1230    1518    4913    4912
CTETRA      4715       1     156    8467    5685    5682    1222    5732+
+           2863    1225    5726    5731
CTETRA      4716       1      87    5533    8470    8578    3135    5565+
+           2874     567    5568    5569
CTETRA      4717       1     146    5867    5870    8578    2066    5911+
+           2145    1184    5904    5917
CTETRA      4718       1    7903    7904    8987    5963    7907    7261+
+           7262    2890    3664    6002
CTETRA      4719       1    5438    8533     162    8435    5473    1983+
+           3727    5470    5474    1306
CTETRA      4720       1      76      78    5688      77     505    2350+
+           2793     502     506    2351
CTETRA      4721       1      76    8470      87    8471    2792    2874+
+           1985    1902    8479    1900
CTETRA      4722       1      87    8470    5533    8471    2874    5565+
+           3135    1900    8479    5564
CTETRA      4723       1     163    8468    8469    5686    1323    8483+
+           1987    1339    5738    5741
CTETRA      4724       1      90    4209     149      86    1657    1658+
+           1173     586    1665    1664
CTETRA      4725       1      10    5590    8431    8430    2451    5640+
+           2446    3322    5625    8443
CTETRA      4726       1      84    4845    4841    4843    1105    4928+
+            547     550    4936    4931
CTETRA      4727       1    4851       8     152      82    1929    2027+
+           2028    1931    1928    1205
CTETRA      4728       1     154    7917    7443    7444    1935    7630+
+           1933    1857    7638    7639
CTETRA      4729       1     102    8431    5594    8432    1782    5642+
+           3423    1532    8445    5645
CTETRA      4730       1     160    4823    4837    4824    1303    4915+
+           1522    1300    4866    4914
CTETRA      4731       1    8883    4838    5682    8882    2790    1237+
+           5733    8902    1236    5721
CTETRA      4732       1    4486    4489    8003    8752    4570    4569+
+           4560    1157    2618    2617
CTETRA      4733       1      58    5969    8537    8536    1277    6039+
+           1269    1268    6036    8544
CTETRA      4734       1      40      39     132    4179     315    1463+
+            913     616    1458    2311
CTETRA      4735       1    6072    6069    6390    8247    6140    2756+
+           2391    6142    6141    6609
CTETRA      4736       1    4202    8990    5960    7902    2869    5987+
+           2873    4233    7263    2867
CTETRA      4737       1     149    5962    5963    5961    2378    6001+
+           1662    1661    6000    5998
$*
$* PROPERTY CARDS
$*
$*  NX Property: PSOLID1
PSOLID         1       1       0                           SMECH
$*
$* MATERIAL CARDS
$*
$*  NX Material: Aluminum_A356
MAT1           17.0000+7        0.3300002.6700-62.1400-5
$*
$* LOAD AND CONSTRAINT CARDS
$*
$*  NX Load and Constraint: Fixed(1)
SPC            1    6201  123456  0.0000
SPC            1    6202  123456  0.0000
SPC            1    6203  123456  0.0000
SPC            1    6204  123456  0.0000
SPC            1    6205  123456  0.0000
SPC            1    6206  123456  0.0000
SPC            1    6207  123456  0.0000
SPC            1    6208  123456  0.0000
SPC            1    6209  123456  0.0000
SPC            1    6210  123456  0.0000
SPC            1    6211  123456  0.0000
SPC            1    6212  123456  0.0000
SPC            1    6213  123456  0.0000
SPC            1    6214  123456  0.0000
SPC            1    6215  123456  0.0000
SPC            1    6216  123456  0.0000
SPC            1    6217  123456  0.0000
SPC            1    6218  123456  0.0000
SPC            1    6219  123456  0.0000
SPC            1    6220  123456  0.0000
SPC            1    6221  123456  0.0000
SPC            1    6222  123456  0.0000
SPC            1    6223  123456  0.0000
SPC            1    6224  123456  0.0000
SPC            1    6225  123456  0.0000
SPC            1    6226  123456  0.0000
SPC            1    6227  123456  0.0000
SPC            1    6228  123456  0.0000
SPC            1    6229  123456  0.0000
SPC            1    6230  123456  0.0000
SPC            1    6231  123456  0.0000
SPC            1    6232  123456  0.0000
SPC            1    6233  123456  0.0000
SPC            1    6234  123456  0.0000
SPC            1    6235  123456  0.0000
SPC            1    6236  123456  0.0000
SPC            1    6237  123456  0.0000
SPC            1    6238  123456  0.0000
SPC            1    6239  123456  0.0000
SPC            1    6240  123456  0.0000
SPC            1    6241  123456  0.0000
SPC            1    6242  123456  0.0000
SPC            1    6243  123456  0.0000
SPC            1    6244  123456  0.0000
SPC            1    6245  123456  0.0000
SPC            1    6246  123456  0.0000
SPC            1    6247  123456  0.0000
SPC            1    6248  123456  0.0000
SPC            1    6249  123456  0.0000
SPC            1    6250  123456  0.0000
SPC            1    6251  123456  0.0000
SPC            1    6252  123456  0.0000
SPC            1    6253  123456  0.0000
SPC            1    6254  123456  0.0000
SPC            1    6822  123456  0.0000
SPC            1    6823  123456  0.0000
SPC            1    6824  123456  0.0000
SPC            1    6825  123456  0.0000
SPC            1    6826  123456  0.0000
SPC            1    6827  123456  0.0000
SPC            1    6828  123456  0.0000
SPC            1    6829  123456  0.0000
SPC            1    6830  123456  0.0000
SPC            1    6831  123456  0.0000
SPC            1    6832  123456  0.0000
SPC            1    6833  123456  0.0000
SPC            1    6834  123456  0.0000
SPC            1    6835  123456  0.0000
SPC            1    6836  123456  0.0000
SPC            1    6837  123456  0.0000
SPC            1    6838  123456  0.0000
SPC            1    6839  123456  0.0000
SPC            1    6840  123456  0.0000
SPC            1    6841  123456  0.0000
SPC            1    6842  123456  0.0000
SPC            1    6843  123456  0.0000
SPC            1    6844  123456  0.0000
SPC            1    6845  123456  0.0000
SPC            1    6846  123456  0.0000
SPC            1    6847  123456  0.0000
SPC            1    6848  123456  0.0000
SPC            1    6849  123456  0.0000
SPC            1    6850  123456  0.0000
SPC            1    6851  123456  0.0000
SPC            1    6852  123456  0.0000
SPC            1    6853  123456  0.0000
SPC            1    6854  123456  0.0000
SPC            1    6855  123456  0.0000
SPC            1    6856  123456  0.0000
SPC            1    6857  123456  0.0000
SPC            1    6858  123456  0.0000
SPC            1    6859  123456  0.0000
SPC            1    6860  123456  0.0000
SPC            1    6861  123456  0.0000
SPC            1    6862  123456  0.0000
SPC            1    6863  123456  0.0000
SPC            1    6864  123456  0.0000
SPC            1    6865  123456  0.0000
SPC            1    6866  123456  0.0000
SPC            1    6867  123456  0.0000
SPC            1    6868  123456  0.0000
SPC            1    6869  123456  0.0000
SPC            1    6870  123456  0.0000
SPC            1    6871  123456  0.0000
SPC            1    6872  123456  0.0000
SPC            1    6873  123456  0.0000
SPC            1    6874  123456  0.0000
SPC            1    6875  123456  0.0000
SPC            1    7744  123456  0.0000
SPC            1    7745  123456  0.0000
SPC            1    7746  123456  0.0000
SPC            1    7747  123456  0.0000
SPC            1    7748  123456  0.0000
SPC            1    7749  123456  0.0000
SPC            1    7750  123456  0.0000
SPC            1    7751  123456  0.0000
SPC            1    7752  123456  0.0000
SPC            1    7753  123456  0.0000
SPC            1    7754  123456  0.0000
SPC            1    7755  123456  0.0000
SPC            1    7756  123456  0.0000
SPC            1    7757  123456  0.0000
SPC            1    7758  123456  0.0000
SPC            1    7759  123456  0.0000
SPC            1    7778  123456  0.0000
SPC            1    7779  123456  0.0000
SPC            1    7780  123456  0.0000
SPC            1    7781  123456  0.0000
SPC            1    7782  123456  0.0000
SPC            1    7783  123456  0.0000
SPC            1    7784  123456  0.0000
SPC            1    8383  123456  0.0000
SPC            1    8384  123456  0.0000
SPC            1    8385  123456  0.0000
SPC            1    8386  123456  0.0000
SPC            1    8387  123456  0.0000
SPC            1    8388  123456  0.0000
SPC            1    8389  123456  0.0000
SPC            1    8408  123456  0.0000
SPC            1    8409  123456  0.0000
SPC            1    8410  123456  0.0000
SPC            1    8411  123456  0.0000
SPC            1    8412  123456  0.0000
SPC            1    8413  123456  0.0000
SPC            1    8414  123456  0.0000
SPC            1    8415  123456  0.0000
SPC            1    8416  123456  0.0000
SPC            1    8417  123456  0.0000
SPC            1    8418  123456  0.0000
SPC            1    8419  123456  0.0000
SPC            1    8420  123456  0.0000
SPC            1    8421  123456  0.0000
SPC            1    8422  123456  0.0000
SPC            1    8423  123456  0.0000
SPC            1    8636  123456  0.0000
SPC            1    8637  123456  0.0000
SPC            1    8638  123456  0.0000
SPC            1    8639  123456  0.0000
SPC            1    8640  123456  0.0000
SPC            1    8641  123456  0.0000
SPC            1    8642  123456  0.0000
SPC            1    8643  123456  0.0000
SPC            1    8644  123456  0.0000
SPC            1    8645  123456  0.0000
SPC            1    8646  123456  0.0000
SPC            1    8647  123456  0.0000
SPC            1    8648  123456  0.0000
SPC            1    8649  123456  0.0000
SPC            1    8650  123456  0.0000
SPC            1    8666  123456  0.0000
SPC            1    8667  123456  0.0000
SPC            1    8668  123456  0.0000
SPC            1    8669  123456  0.0000
SPC            1    8670  123456  0.0000
SPC            1    8671  123456  0.0000
SPC            1    8672  123456  0.0000
SPC            1    8673  123456  0.0000
SPC            1    8674  123456  0.0000
SPC            1    8675  123456  0.0000
SPC            1    8676  123456  0.0000
SPC            1    8677  123456  0.0000
SPC            1    8678  123456  0.0000
SPC            1    8679  123456  0.0000
SPC            1    8680  123456  0.0000
SPC            1    9046  123456  0.0000
SPC            1    9047  123456  0.0000
SPC            1    9048  123456  0.0000
SPC            1    9049  123456  0.0000
SPC            1    9050  123456  0.0000
SPC            1    9079  123456  0.0000
SPC            1    9080  123456  0.0000
SPC            1    9113  123456  0.0000
SPC            1    9114  123456  0.0000
SPC            1    9115  123456  0.0000
SPC            1    9130  123456  0.0000
SPC            1    9132  123456  0.0000
$*  NX Load and Constraint: Bearing(1)
FORCE          2    6471       00.0011690.445689-0.89519  0.0000
FORCE          2    6472       00.0015300.445706-0.89518  0.0000
FORCE          2    6473       0 1018.160.602689-0.79798  0.0000
FORCE          2    6474       00.0015300.445757-0.89515  0.0000
FORCE          2    6475       0 3317.040.739027-0.67368  0.0000
FORCE          2    6476       0 3317.070.739020-0.67368  0.0000
FORCE          2    6477       0 8673.330.850204-0.52645  0.0000
FORCE          2    6478       0 3317.010.739014-0.67369  0.0000
FORCE          2    6479       015569.860.932477-0.36123  0.0000
FORCE          2    6480       015565.720.932494-0.36118  0.0000
FORCE          2    6481       025504.950.982980-0.18371  0.0000
FORCE          2    6482       015563.990.932490-0.36120  0.0000
FORCE          2    6483       032626.511.000000-4.880-8  0.0000
FORCE          2    6484       032631.871.000000-4.880-8  0.0000
FORCE          2    6485       025510.840.9829740.183745  0.0000
FORCE          2    6486       032636.451.000000-4.880-8  0.0000
FORCE          2    6487       015563.950.9324440.361313  0.0000
FORCE          2    6488       015562.710.9324500.361299  0.0000
FORCE          2    6489       0 8669.300.8502130.526439  0.0000
FORCE          2    6490       015559.360.9324600.361274  0.0000
FORCE          2    6491       0 3317.620.7390370.673665  0.0000
FORCE          2    6492       0 3317.560.7390340.673668  0.0000
FORCE          2    6493       0 1018.350.6025800.798059  0.0000
FORCE          2    6494       0 3317.860.7390170.673687  0.0000
FORCE          2    6495       09.2650-40.4457010.895182  0.0000
FORCE          2    6496       09.2650-40.4457140.895176  0.0000
FORCE          2    6498       00.0011540.4457260.895169  0.0000
FORCE          2    6528       09.2341-40.445700-0.89518  0.0000
FORCE          2    6529       00.0011690.445690-0.89519  0.0000
FORCE          2    6530       0 1018.400.602657-0.79800  0.0000
FORCE          2    6531       0 3317.620.739036-0.67367  0.0000
FORCE          2    6532       0 3317.290.739033-0.67367  0.0000
FORCE          2    6533       0 8670.210.850208-0.52645  0.0000
FORCE          2    6534       015563.940.932444-0.36131  0.0000
FORCE          2    6535       015566.760.932450-0.36130  0.0000
FORCE          2    6536       025508.310.982986-0.18368  0.0000
FORCE          2    6537       032626.511.000000-4.880-8  0.0000
FORCE          2    6538       032625.731.000000-4.880-8  0.0000
FORCE          2    6539       025508.310.9829860.183683  0.0000
FORCE          2    6540       015569.860.9324770.361230  0.0000
FORCE          2    6541       015566.770.9324500.361299  0.0000
FORCE          2    6542       0 8670.220.8502080.526447  0.0000
FORCE          2    6543       0 3317.050.7390270.673676  0.0000
FORCE          2    6544       0 3317.300.7390330.673669  0.0000
FORCE          2    6545       0 1018.410.6026580.798000  0.0000
FORCE          2    6546       00.0011720.4456890.895188  0.0000
FORCE          2    6547       00.0011720.4456900.895187  0.0000
FORCE          2    6574       00.0011510.445726-0.89517  0.0000
FORCE          2    6575       09.2341-40.445714-0.89518  0.0000
FORCE          2    6576       0 1018.340.602579-0.79806  0.0000
FORCE          2    6577       0 3317.850.739017-0.67369  0.0000
FORCE          2    6578       0 3317.560.739034-0.67367  0.0000
FORCE          2    6579       0 8669.290.850213-0.52644  0.0000
FORCE          2    6580       015559.350.932460-0.36127  0.0000
FORCE          2    6581       015562.700.932450-0.36130  0.0000
FORCE          2    6582       025510.840.982974-0.18375  0.0000
FORCE          2    6583       032636.451.000000-4.880-8  0.0000
FORCE          2    6584       032631.871.000000-4.880-8  0.0000
FORCE          2    6585       025504.960.9829800.183711  0.0000
FORCE          2    6586       015564.000.9324900.361196  0.0000
FORCE          2    6587       015565.730.9324940.361185  0.0000
FORCE          2    6588       0 8673.330.8502040.526453  0.0000
FORCE          2    6589       0 3317.010.7390140.673690  0.0000
FORCE          2    6590       0 3317.070.7390200.673683  0.0000
FORCE          2    6591       0 1018.160.6026890.797976  0.0000
FORCE          2    6592       00.0015340.4457580.895154  0.0000
FORCE          2    6593       00.0015340.4457070.895179  0.0000
FORCE          2    6626       00.0011510.445736-0.89516  0.0000
FORCE          2    6627       0 1018.030.602622-0.79803  0.0000
FORCE          2    6628       0 3317.540.738998-0.67371  0.0000
FORCE          2    6629       0 8671.210.850217-0.52643  0.0000
FORCE          2    6630       015560.970.932469-0.36125  0.0000
FORCE          2    6631       025507.470.982969-0.18377  0.0000
FORCE          2    6632       032636.431.000000-4.880-8  0.0000
FORCE          2    6633       025508.590.9829740.183745  0.0000
FORCE          2    6634       015563.040.9324790.361225  0.0000
FORCE          2    6635       0 8672.070.8502210.526426  0.0000
FORCE          2    6636       0 3317.480.7390100.673694  0.0000
FORCE          2    6637       0 1018.100.6026450.798009  0.0000
FORCE          2    6638       00.0013760.4457560.895154  0.0000
FORCE          2    6666       00.0011540.4457360.895165  0.0000
FORCE          2    6667       0 1018.030.6026230.798026  0.0000
FORCE          2    6668       0 3317.540.7389980.673708  0.0000
FORCE          2    6669       0 8671.210.8502170.526432  0.0000
FORCE          2    6670       015560.980.9324690.361251  0.0000
FORCE          2    6671       025507.480.9829690.183770  0.0000
FORCE          2    6672       032636.431.000000-4.880-8  0.0000
FORCE          2    6673       025508.580.982974-0.18374  0.0000
FORCE          2    6674       015563.040.932479-0.36123  0.0000
FORCE          2    6675       0 8672.070.850221-0.52643  0.0000
FORCE          2    6676       0 3317.470.739010-0.67369  0.0000
FORCE          2    6677       0 1018.090.602645-0.79801  0.0000
FORCE          2    6678       00.0013730.445756-0.89515  0.0000
FORCE          2    8250       0 1018.030.7390090.673696  0.0000
FORCE          2    8251       016318.201.000000-4.881-8  0.0000
FORCE          2    8252       0 6371.700.9324720.361241  0.0000
FORCE          2    8253       00.0013730.445739-0.89516  0.0000
FORCE          2    8255       0 9190.350.932472-0.36124  0.0000
FORCE          2    8256       0 2299.380.739009-0.67370  0.0000
FORCE          2    8281       00.0013760.4457390.895163  0.0000
FORCE          2    8283       0 9190.350.9324720.361241  0.0000
FORCE          2    8284       0 2299.380.7390090.673696  0.0000
FORCE          2    8286       0 1018.030.739009-0.67370  0.0000
FORCE          2    8287       0 6371.700.932472-0.36124  0.0000
FORCE          2    8288       016318.201.000000-4.881-8  0.0000
$*  NX Load and Constraint: Bearing(2)
FORCE          3    6489       0400.54380.8502130.526439  0.0000
FORCE          3    6491       0 1705.560.7390370.673665  0.0000
FORCE          3    6492       0 1706.260.7390340.673668  0.0000
FORCE          3    6493       0 5947.800.6025800.798059  0.0000
FORCE          3    6494       0 1706.380.7390170.673687  0.0000
FORCE          3    6495       011738.240.4457010.895182  0.0000
FORCE          3    6496       011738.490.4457140.895176  0.0000
FORCE          3    6497       020615.220.2736700.961824  0.0000
FORCE          3    6498       011738.390.4457260.895169  0.0000
FORCE          3    6499       031048.830.0923060.995731  0.0000
FORCE          3    6500       031042.220.0922290.995738  0.0000
FORCE          3    6501       029249.50-0.092320.995729  0.0000
FORCE          3    6502       031040.420.0922210.995739  0.0000
FORCE          3    6503       020223.45-0.273670.961825  0.0000
FORCE          3    6504       020225.30-0.273660.961825  0.0000
FORCE          3    6505       012122.74-0.445710.895179  0.0000
FORCE          3    6506       020228.79-0.273660.961826  0.0000
FORCE          3    6507       0 5566.06-0.602690.797973  0.0000
FORCE          3    6508       0 5565.40-0.602690.797976  0.0000
FORCE          3    6509       0 2087.43-0.739020.673684  0.0000
FORCE          3    6510       0 5563.76-0.602670.797992  0.0000
FORCE          3    6511       0145.5556-0.850210.526451  0.0000
FORCE          3    6512       0145.5556-0.850200.526453  0.0000
FORCE          3    6514       0145.5717-0.850210.526449  0.0000
FORCE          3    6542       0400.39060.8502080.526447  0.0000
FORCE          3    6543       0 1704.770.7390270.673676  0.0000
FORCE          3    6544       0 1705.400.7390330.673669  0.0000
FORCE          3    6545       0 5949.050.6026580.798000  0.0000
FORCE          3    6546       011741.490.4456890.895188  0.0000
FORCE          3    6547       011740.210.4456900.895187  0.0000
FORCE          3    6548       020608.930.2736680.961824  0.0000
FORCE          3    6549       031034.170.0923390.995728  0.0000
FORCE          3    6550       031042.790.0923410.995727  0.0000
FORCE          3    6551       029256.17-0.092340.995728  0.0000
FORCE          3    6552       020224.38-0.273670.961824  0.0000
FORCE          3    6553       020223.50-0.273670.961824  0.0000
FORCE          3    6554       012121.34-0.445690.895187  0.0000
FORCE          3    6555       0 5567.48-0.602590.798050  0.0000
FORCE          3    6556       0 5566.52-0.602660.798000  0.0000
FORCE          3    6557       0 2088.07-0.739030.673670  0.0000
FORCE          3    6558       0145.5402-0.850210.526443  0.0000
FORCE          3    6559       0145.5402-0.850210.526448  0.0000
FORCE          3    6588       0400.49650.8502040.526453  0.0000
FORCE          3    6589       0 1705.340.7390140.673690  0.0000
FORCE          3    6590       0 1704.880.7390200.673683  0.0000
FORCE          3    6591       0 5947.820.6026890.797976  0.0000
FORCE          3    6592       011741.320.4457580.895154  0.0000
FORCE          3    6593       011740.880.4457070.895179  0.0000
FORCE          3    6594       020609.140.2736650.961825  0.0000
FORCE          3    6595       031029.900.0922960.995732  0.0000
FORCE          3    6596       031033.090.0923200.995729  0.0000
FORCE          3    6597       029254.03-0.092230.995738  0.0000
FORCE          3    6598       020232.91-0.273670.961823  0.0000
FORCE          3    6599       020230.87-0.273670.961824  0.0000
FORCE          3    6600       012120.73-0.445710.895176  0.0000
FORCE          3    6601       0 5565.25-0.602600.798045  0.0000
FORCE          3    6602       0 5565.99-0.602580.798059  0.0000
FORCE          3    6603       0 2089.02-0.739030.673668  0.0000
FORCE          3    6604       0145.5326-0.850220.526435  0.0000
FORCE          3    6605       0145.5326-0.850210.526439  0.0000
FORCE          3    6635       0400.59030.8502210.526426  0.0000
FORCE          3    6636       0 1705.430.7390100.673694  0.0000
FORCE          3    6637       0 5946.790.6026450.798009  0.0000
FORCE          3    6638       011739.840.4457560.895154  0.0000
FORCE          3    6639       020612.670.2736630.961826  0.0000
FORCE          3    6640       031033.000.0922760.995733  0.0000
FORCE          3    6641       029249.47-0.092250.995736  0.0000
FORCE          3    6642       020231.53-0.273670.961824  0.0000
FORCE          3    6643       012122.54-0.445740.895165  0.0000
FORCE          3    6644       0 5565.02-0.602620.798026  0.0000
FORCE          3    6645       0 2088.34-0.739000.673708  0.0000
FORCE          3    6646       0145.5932-0.850220.526433  0.0000
FORCE          3    6658       0145.5717-0.850220.526427  0.0000
FORCE          3    6659       0 2088.01-0.739010.673695  0.0000
FORCE          3    6660       0 5564.33-0.602640.798010  0.0000
FORCE          3    6661       012122.05-0.445760.895154  0.0000
FORCE          3    6662       020229.74-0.273660.961826  0.0000
FORCE          3    6663       029249.87-0.092280.995734  0.0000
FORCE          3    6664       031037.300.0922490.995736  0.0000
FORCE          3    6665       020614.230.2736680.961824  0.0000
FORCE          3    6666       011739.190.4457360.895165  0.0000
FORCE          3    6667       0 5947.150.6026230.798026  0.0000
FORCE          3    6668       0 1705.840.7389980.673708  0.0000
FORCE          3    6669       0400.66420.8502170.526432  0.0000
FORCE          3    8248       0 7097.210.4457390.895163  0.0000
FORCE          3    8249       017520.290.0922680.995734  0.0000
FORCE          3    8250       0 1305.170.7390090.673696  0.0000
FORCE          3    8257       0 1942.44-0.602630.798017  0.0000
FORCE          3    8258       0 8500.16-0.273660.961826  0.0000
FORCE          3    8281       0 4641.950.4457390.895163  0.0000
FORCE          3    8282       013514.790.0922680.995734  0.0000
FORCE          3    8284       0400.59030.7390090.673696  0.0000
FORCE          3    8289       0145.5932-0.850220.526432  0.0000
FORCE          3    8290       0 3622.27-0.602630.798017  0.0000
FORCE          3    8291       011731.26-0.273660.961826  0.0000
ENDDATA
