$*$$$$$$$$$$$$$$$$$$$$$$$$$$$$$$$$$$$$$$$$$$$$$$$$$$$$$$$$$$$$$$$$$
$*
$*                    NX v8.0.0.24 TRANSLATOR
$*                    FOR NX NASTRAN VERSION 8.0
$*
$*             FEM FILE: D:\Parts\Motion\FlexBody\rons_new_part\FBcam_assy_fem2.fem
$*             SIM FILE: D:\Parts\Motion\FlexBody\rons_new_part\FBcam_assy_sim2.sim
$*        ANALYSIS TYPE: Structural
$*        SOLUTION NAME: Solution 1
$*        SOLUTION TYPE: SEMODES 103 - Flexible Body
$*
$*    SOLVER INPUT FILE: fbcam_assy_sim2-solution_1.dat
$*        CREATION DATE:  5-Jul-2011
$*        CREATION TIME: 08:08:30
$*             HOSTNAME: cii6w448
$*      NASTRAN LICENSE: Desktop Bundle
$*
$*                UNITS: Inch (pound f)
$*                      ... LENGTH : inch
$*                      ... TIME   : sec
$*                      ... MASS   : lbf-sec**2/in
$*                      ... TEMPERATURE : deg Fahrenheit
$*                      ... FORCE  : pound (lbf)
$*                      ... THERMAL ENERGY : lbf-in
$*
$* IMPORTANT NOTE:
$*     This banner was generated by NX and altering this information
$*     may compromise the NX post processing of results.
$*
$*$$$$$$$$$$$$$$$$$$$$$$$$$$$$$$$$$$$$$$$$$$$$$$$$$$$$$$$$$$$$$$$$$
$*
$*$$$$$$$$$$$$$$$$$$$$$$$$$$$$$$$$$$$
$*
$* FILE MANAGEMENT
$*
$*$$$$$$$$$$$$$$$$$$$$$$$$$$$$$$$$$$$
$*
ASSIGN OUTPUT2='fbcam_assy_sim2-solution_1_0.op2' STATUS=UNKNOWN,
UNIT=20 FORM=UNFORM
$*
$*$$$$$$$$$$$$$$$$$$$$$$$$$$$$$$$$$$$
$*
$* EXECUTIVE CONTROL
$*
$*$$$$$$$$$$$$$$$$$$$$$$$$$$$$$$$$$$$
$*
ID,NASTRAN,fbcam_assy_sim2-solution_1
SOL 103
CEND
$*
$*$$$$$$$$$$$$$$$$$$$$$$$$$$$$$$$$$$$
$*
$* CASE CONTROL
$*
$*$$$$$$$$$$$$$$$$$$$$$$$$$$$$$$$$$$$
$*
MBDEXPORT RECURDYN STANDARD FLEXBODY=YES FLEXONLY=NO MINVAR=PARTIAL,
RECVROP2=YES PSETID=NONE
ECHO = NONE
RSMETHOD = 100
METHOD = 200
OUTPUT
DISPLACEMENT(PLOT,REAL) = ALL
SPCFORCES(PLOT,REAL) = ALL
STRESS(PLOT,REAL,VONMISES,CENTER) = ALL
$*
$*$$$$$$$$$$$$$$$$$$$$$$$$$$$$$$$$$$$
$*
$* BULK DATA
$*
$*$$$$$$$$$$$$$$$$$$$$$$$$$$$$$$$$$$$
$*
BEGIN BULK
$*
$* SOLUTION CARDS
$*
DTI        UNITS       1     SLI     LBF      IN       S
EIGRL        100  0.0000              20       0       7            MASS
EIGR         200    AHOU                          100000
SPOINT    100001    THRU  100500
QSET1          0  100001    THRU  100500
$*
$* PARAM CARDS
$*
PARAM      K6ROT100.0000
PARAM    OMACHPR     YES
PARAM       POST      -2
PARAM    POSTEXT     YES
PARAM    UNITSYS  LBF-IN
$*
$* GRID CARDS
$*
GRID*               5332               09.8880761862E-012.7264075279E+00+
*       -2.076048851E+00               0
GRID*               5335               09.8880761862E-012.7264075279E+00+
*       -1.216048837E+00               0
GRID*               5338               01.7889024019E+001.1381983757E+01+
*       -2.829260349E+00               0
GRID*               5039               09.5284685825E-014.5955983778E+00+
*       -1.901058045E+00               0
GRID*               5040               07.6118918829E-014.5363897094E+00+
*       -1.815407731E+00               0
GRID*               5041               06.8945191503E-014.4914214943E+00+
*       -1.745965388E+00               0
GRID*               5042               01.0602637449E+004.6052256762E+00+
*       -1.921125552E+00               0
GRID*               5043               08.5150983527E-014.5723970595E+00+
*       -1.866048863E+00               0
GRID*               5063               01.5851662367E+006.8723643660E+00+
*       -1.859218304E+00               0
GRID*               5064               01.7572303685E+006.8564596613E+00+
*       -1.763222948E+00               0
GRID*               5065               01.7961983948E+006.8528576843E+00+
*       -1.581371510E+00               0
GRID*               5066               01.6474168870E+006.8666108272E+00+
*       -1.454917829E+00               0
GRID*               5067               01.4556748808E+006.8843348708E+00+
*       -1.405573118E+00               0
GRID*               5068               01.2573396898E+006.9026681318E+00+
*       -1.409774777E+00               0
GRID*               5069               01.0684019513E+006.9201328187E+00+
*       -1.469475064E+00               0
GRID*               5070               09.3796991033E-016.9321896510E+00+
*       -1.612572819E+00               0
GRID*               5071               01.0131367858E+006.9252415437E+00+
*       -1.785414639E+00               0
GRID*               5072               01.1924321685E+006.9086678982E+00+
*       -1.868147465E+00               0
GRID*               5073               01.6770189338E+006.8638744317E+00+
*       -1.821510554E+00               0
GRID*               5074               01.7767143817E+006.8546586728E+00+
*       -1.672297229E+00               0
GRID*               5075               01.7326642006E+006.8587305626E+00+
*       -1.505681068E+00               0
GRID*               5076               09.8821570365E-016.9275452253E+00+
*       -1.527790825E+00               0
GRID*               5077               01.5534429368E+006.8752970163E+00+
*       -1.422841479E+00               0
GRID*               5078               01.3563772109E+006.8935136318E+00+
*       -1.401342544E+00               0
GRID*               5079               01.1603551236E+006.9116331685E+00+
*       -1.431635478E+00               0
GRID*               5080               09.7555334805E-016.9287155973E+00+
*       -1.698993729E+00               0
GRID*               5081               01.0984612798E+006.9173544427E+00+
*       -1.836123061E+00               0
GRID*               5082               01.2902202617E+006.8996285219E+00+
*       -1.885369954E+00               0
GRID*               5083               01.4883183396E+006.8813174722E+00+
*       -1.881114053E+00               0
GRID*               5084               01.6032764984E+007.1425759352E+00+
*       -1.927129244E+00               0
GRID*               5085               01.7771379931E+007.1728114422E+00+
*       -1.847264047E+00               0
GRID*               5086               01.8267447585E+007.2572244084E+00+
*       -1.693768373E+00               0
GRID*               5087               01.6872670301E+007.3325471124E+00+
*       -1.586095927E+00               0
GRID*               5088               01.5016964318E+007.3741037981E+00+
*       -1.544007702E+00               0
GRID*               5089               01.3074612158E+007.3903356719E+00+
*       -1.546978894E+00               0
GRID*               5090               01.1195247036E+007.3790994787E+00+
*       -1.596319979E+00               0
GRID*               5091               09.8291239023E-017.3224347205E+00+
*       -1.715828940E+00               0
GRID*               5092               01.0464040962E+007.2313051099E+00+
*       -1.862877860E+00               0
GRID*               5093               01.2181157891E+007.1745915786E+00+
*       -1.933316704E+00               0
GRID*               5094               01.2114994420E+007.3887637969E+00+
*       -1.564988315E+00               0
GRID*               5095               01.0376077626E+007.3585401893E+00+
*       -1.644838007E+00               0
GRID*               5096               01.0146582432E+007.2768699152E+00+
*       -1.789353400E+00               0
GRID*               5097               01.4047479180E+007.3852791627E+00+
*       -1.540190240E+00               0
GRID*               5098               01.5966769412E+007.3567399192E+00+
*       -1.558813217E+00               0
GRID*               5099               01.6952319635E+007.1522439068E+00+
*       -1.895794428E+00               0
GRID*               5100               01.5072933422E+007.1410068190E+00+
*       -1.945137592E+00               0
GRID*               5101               01.7683843265E+007.3000136365E+00+
*       -1.629274319E+00               0
GRID*               5102               01.8019413758E+007.2150179253E+00+
*       -1.770516210E+00               0
GRID*               5103               01.1275701003E+007.1987761574E+00+
*       -1.906040842E+00               0
GRID*               5104               01.3130844031E+007.1572306010E+00+
*       -1.948118314E+00               0
GRID*               5105               09.3962198012E-013.2349867969E+00+
*       -2.076048851E+00               0
GRID*               5106               07.8371640723E-013.3454023052E+00+
*       -2.076048851E+00               0
GRID*               5107               07.0385427475E-013.5189537306E+00+
*       -2.076048851E+00               0
GRID*               5108               07.2152525637E-013.7095005282E+00+
*       -2.076048851E+00               0
GRID*               5109               08.3194082640E-013.8654060524E+00+
*       -2.076048851E+00               0
GRID*               5110               01.0054922703E+003.9452681644E+00+
*       -2.076048851E+00               0
GRID*               5111               01.1960390791E+003.9275972718E+00+
*       -2.076048851E+00               0
GRID*               5112               01.3519445980E+003.8171816903E+00+
*       -2.076048851E+00               0
GRID*               5113               01.4318066847E+003.6436302596E+00+
*       -2.076048851E+00               0
GRID*               5114               01.4141357786E+003.4530834555E+00+
*       -2.076048851E+00               0
GRID*               5115               01.3037202336E+003.2971778699E+00+
*       -2.076048851E+00               0
GRID*               5116               01.3691655861E+003.3678396091E+00+
*       -2.076048851E+00               0
GRID*               5117               01.4355286806E+003.5471920024E+00+
*       -2.076048851E+00               0
GRID*               5118               01.2222285959E+003.2458429901E+00+
*       -2.076048851E+00               0
GRID*               5119               01.1019305282E+003.9489901573E+00+
*       -2.076048851E+00               0
GRID*               5120               09.1343249269E-013.9167408759E+00+
*       -2.076048851E+00               0
GRID*               5121               01.4032794859E+003.7356900678E+00+
*       -2.076048851E+00               0
GRID*               5122               01.2812829407E+003.8826271241E+00+
*       -2.076048851E+00               0
GRID*               5123               07.0013231840E-013.6153919891E+00+
*       -2.076048851E+00               0
GRID*               5124               07.3238154422E-013.4268939462E+00+
*       -2.076048851E+00               0
GRID*               5125               07.6649541604E-013.7947443818E+00+
*       -2.076048851E+00               0
GRID*               5126               08.5437810222E-013.2799569162E+00+
*       -2.076048851E+00               0
GRID*               5127               01.0337305290E+003.2135939044E+00+
*       -2.076048851E+00               0
GRID*               5128               01.3037202336E+003.2971778699E+00+
*       -1.216048837E+00               0
GRID*               5129               01.4141357786E+003.4530834555E+00+
*       -1.216048837E+00               0
GRID*               5130               01.4318066847E+003.6436302596E+00+
*       -1.216048837E+00               0
GRID*               5131               01.3519445980E+003.8171816903E+00+
*       -1.216048837E+00               0
GRID*               5132               01.1960390791E+003.9275972718E+00+
*       -1.216048837E+00               0
GRID*               5133               01.0054922703E+003.9452681644E+00+
*       -1.216048837E+00               0
GRID*               5134               08.3194082640E-013.8654060524E+00+
*       -1.216048837E+00               0
GRID*               5135               07.2152525637E-013.7095005282E+00+
*       -1.216048837E+00               0
GRID*               5136               07.0385427475E-013.5189537306E+00+
*       -1.216048837E+00               0
GRID*               5137               07.8371640723E-013.3454023052E+00+
*       -1.216048837E+00               0
GRID*               5138               09.3962198012E-013.2349867969E+00+
*       -1.216048837E+00               0
GRID*               5139               01.4032794859E+003.7356900678E+00+
*       -1.216048837E+00               0
GRID*               5140               01.4355286806E+003.5471920024E+00+
*       -1.216048837E+00               0
GRID*               5141               01.1019305282E+003.9489901573E+00+
*       -1.216048837E+00               0
GRID*               5142               01.2812829407E+003.8826271241E+00+
*       -1.216048837E+00               0
GRID*               5143               01.3691655861E+003.3678396091E+00+
*       -1.216048837E+00               0
GRID*               5144               01.2222285959E+003.2458429901E+00+
*       -1.216048837E+00               0
GRID*               5145               07.0013231840E-013.6153919891E+00+
*       -1.216048837E+00               0
GRID*               5146               07.6649541604E-013.7947443818E+00+
*       -1.216048837E+00               0
GRID*               5147               09.1343249269E-013.9167408759E+00+
*       -1.216048837E+00               0
GRID*               5148               08.5437810222E-013.2799569162E+00+
*       -1.216048837E+00               0
GRID*               5149               07.3238154422E-013.4268939462E+00+
*       -1.216048837E+00               0
GRID*               5150               01.0337305290E+003.2135939044E+00+
*       -1.216048837E+00               0
GRID*               4893               07.3967898689E-012.7879519201E+00+
*       -2.076048851E+00               0
GRID*               4894               05.1980652863E-012.9204277267E+00+
*       -2.076048851E+00               0
GRID*               4895               03.4898336557E-013.1118995864E+00+
*       -2.076048851E+00               0
GRID*               4896               02.4235335425E-013.3453696978E+00+
*       -2.076048851E+00               0
GRID*               4897               02.0950459503E-013.5999066467E+00+
*       -2.076048851E+00               0
GRID*               4898               02.5334537280E-013.8527429137E+00+
*       -2.076048851E+00               0
GRID*               4899               03.6996360571E-014.0813451505E+00+
*       -2.076048851E+00               0
GRID*               4900               05.4892792001E-014.2652593183E+00+
*       -2.076048851E+00               0
GRID*               4901               07.5896478496E-014.3823374144E+00+
*       -2.076048851E+00               0
GRID*               4902               04.5251849402E-014.1800098520E+00+
*       -2.076048851E+00               0
GRID*               4903               03.0306707717E-013.9714297816E+00+
*       -2.076048851E+00               0
GRID*               4904               06.4985281325E-014.3312027734E+00+
*       -2.076048851E+00               0
GRID*               4905               08.6188609444E-014.4147534940E+00+
*       -2.076048851E+00               0
GRID*               4906               08.6189661335E-012.7478275132E+00+
*       -2.076048851E+00               0
GRID*               4907               02.2192592201E-013.7279792130E+00+
*       -2.076048851E+00               0
GRID*               4908               06.2477370701E-012.8459207189E+00+
*       -2.076048851E+00               0
GRID*               4909               02.1636746256E-013.4713766835E+00+
*       -2.076048851E+00               0
GRID*               4910               04.2720319313E-013.0097429886E+00+
*       -2.076048851E+00               0
GRID*               4911               02.8688274795E-013.2246523960E+00+
*       -2.076048851E+00               0
GRID*               4936               07.4192910326E-012.7870249025E+00+
*       -1.216048837E+00               0
GRID*               4937               05.2356087377E-012.9173323314E+00+
*       -1.216048837E+00               0
GRID*               4938               03.5300393570E-013.1057987809E+00+
*       -1.216048837E+00               0
GRID*               4939               02.4508115698E-013.3360261736E+00+
*       -1.216048837E+00               0
GRID*               4940               02.0932690900E-013.5877325541E+00+
*       -1.216048837E+00               0
GRID*               4941               02.4884624857E-013.8388501096E+00+
*       -1.216048837E+00               0
GRID*               4942               03.6017737524E-014.0673972391E+00+
*       -1.216048837E+00               0
GRID*               4943               05.3354344443E-014.2533096798E+00+
*       -1.216048837E+00               0
GRID*               4944               07.4612109208E-014.3772662220E+00+
*       -1.216048837E+00               0
GRID*               4945               04.3993228090E-014.1667967402E+00+
*       -1.216048837E+00               0
GRID*               4946               02.9600575940E-013.9572665498E+00+
*       -1.216048837E+00               0
GRID*               4947               06.3539130499E-014.3229572167E+00+
*       -1.216048837E+00               0
GRID*               4948               08.5135607641E-014.4120806314E+00+
*       -1.216048837E+00               0
GRID*               4949               02.1974185998E-013.7147741806E+00+
*       -1.216048837E+00               0
GRID*               4950               02.1783932313E-013.4605203392E+00+
*       -1.216048837E+00               0
GRID*               4951               02.9046077645E-013.2169189035E+00+
*       -1.216048837E+00               0
GRID*               4952               06.2790665332E-012.8440420571E+00+
*       -1.216048837E+00               0
GRID*               4953               04.3126999526E-013.0052170113E+00+
*       -1.216048837E+00               0
GRID*               4954               08.6307756480E-012.7475366092E+00+
*       -1.216048837E+00               0
GRID*               5151               01.4286340520E+009.5254442341E+00+
*       -2.848461855E+00               0
GRID*               5152               01.2628098979E+009.4941331076E+00+
*       -2.928901928E+00               0
GRID*               5153               01.2657741942E+009.4087811654E+00+
*       -3.075636096E+00               0
GRID*               5154               01.4281004974E+009.3509407007E+00+
*       -3.149514049E+00               0
GRID*               5155               01.5217992551E+009.5264554078E+00+
*       -2.831864950E+00               0
GRID*               5156               01.3396174556E+009.5159828640E+00+
*       -2.878972589E+00               0
GRID*               5157               01.2642920461E+009.4514571365E+00+
*       -3.002269012E+00               0
GRID*               5158               01.3409515787E+009.3750925808E+00+
*       -3.121752275E+00               0
GRID*               5159               01.5200531236E+009.3339721240E+00+
*       -3.164119727E+00               0
GRID*               5169               01.4435013999E+009.8143511550E+00+
*       -2.936427944E+00               0
GRID*               5170               01.2823829396E+009.8292439816E+00+
*       -3.049117509E+00               0
GRID*               5171               01.3522217917E+009.8227888483E+00+
*       -3.217204526E+00               0
GRID*               5172               01.5414574099E+009.8052956914E+00+
*       -3.281190496E+00               0
GRID*               5173               01.7417837260E+009.7867770292E+00+
*       -3.281169745E+00               0
GRID*               5174               01.9309835740E+009.7692895862E+00+
*       -3.217179594E+00               0
GRID*               5175               02.0008696504E+009.7628292615E+00+
*       -3.049180092E+00               0
GRID*               5176               01.8397141908E+009.7777261126E+00+
*       -2.936447331E+00               0
GRID*               5177               01.6416355205E+009.7960362405E+00+
*       -3.288239411E+00               0
GRID*               5178               01.8397570183E+009.7777229741E+00+
*       -3.258954689E+00               0
GRID*               5179               01.7418068808E+009.7867771910E+00+
*       -2.914156785E+00               0
GRID*               5180               01.9310003851E+009.7692874714E+00+
*       -2.978087909E+00               0
GRID*               5181               01.9659266122E+009.7660594239E+00+
*       -3.133179843E+00               0
GRID*               5182               01.4435710107E+009.8143442695E+00+
*       -3.258916809E+00               0
GRID*               5183               01.5414041639E+009.8053010437E+00+
*       -2.914170047E+00               0
GRID*               5184               01.3173023657E+009.8260164149E+00+
*       -3.133161018E+00               0
GRID*               5185               01.3522595591E+009.8227851420E+00+
*       -2.978155597E+00               0
GRID*               5186               01.5290706510E+001.0264910286E+01+
*       -2.932077626E+00               0
GRID*               5187               01.3993314644E+001.0346268050E+01+
*       -2.989942089E+00               0
GRID*               5188               01.3688728879E+001.0387630637E+01+
*       -3.048464544E+00               0
GRID*               5189               01.6063584593E+001.0240001941E+01+
*       -2.918317814E+00               0
GRID*               5190               01.4642010577E+001.0305589168E+01+
*       -2.961009858E+00               0
GRID*               4977               01.9683846480E+001.1332825550E+01+
*       -2.829260349E+00               0
GRID*               4978               02.1201608408E+001.1224991060E+01+
*       -2.829260349E+00               0
GRID*               4979               02.2256323577E+001.1071715247E+01+
*       -2.829260349E+00               0
GRID*               4980               02.2721099930E+001.0891512029E+01+
*       -2.829260349E+00               0
GRID*               4981               02.2539177855E+001.0706302339E+01+
*       -2.829260349E+00               0
GRID*               4982               02.1733018912E+001.0538633919E+01+
*       -2.829260349E+00               0
GRID*               4983               02.0399404655E+001.0408728545E+01+
*       -2.829260349E+00               0
GRID*               4984               02.1123284579E+001.0467828370E+01+
*       -2.829260349E+00               0
GRID*               4985               01.9584271813E+001.0363176940E+01+
*       -2.829260349E+00               0
GRID*               4986               02.2209590862E+001.0618910759E+01+
*       -2.829260349E+00               0
GRID*               4987               02.2711472615E+001.0798124448E+01+
*       -2.829260349E+00               0
GRID*               4988               02.2567885329E+001.0983630216E+01+
*       -2.829260349E+00               0
GRID*               4989               02.1796134130E+001.1152998411E+01+
*       -2.829260349E+00               0
GRID*               4990               02.0489910835E+001.1285588065E+01+
*       -2.829260349E+00               0
GRID*               4991               01.8808466240E+001.1365270686E+01+
*       -2.829260349E+00               0
GRID*               5204               01.9548422144E+001.0830461517E+01+
*       -2.816048861E+00               0
GRID*               5205               01.8644489700E+001.1026676027E+01+
*       -2.816048861E+00               0
GRID*               5206               01.6494317313E+001.1046510708E+01+
*       -2.816048861E+00               0
GRID*               5207               01.5246686034E+001.0870143902E+01+
*       -2.816048861E+00               0
GRID*               5208               01.6150618642E+001.0673929414E+01+
*       -2.816048861E+00               0
GRID*               5209               01.5435472537E+001.0759979030E+01+
*       -2.816048861E+00               0
GRID*               5210               01.7199142640E+001.0635215836E+01+
*       -2.816048861E+00               0
GRID*               5211               01.5633820819E+001.0974996204E+01+
*       -2.816048861E+00               0
GRID*               5212               01.7595965517E+001.1065389553E+01+
*       -2.816048861E+00               0
GRID*               5213               01.9359635316E+001.0940626360E+01+
*       -2.816048861E+00               0
GRID*               5214               01.9161287187E+001.0725609211E+01+
*       -2.816048861E+00               0
GRID*               5215               01.6150618642E+001.0673929414E+01+
*       -3.379048824E+00               0
GRID*               5216               01.5246686034E+001.0870143902E+01+
*       -3.379048824E+00               0
GRID*               5217               01.6494317313E+001.1046510708E+01+
*       -3.379048824E+00               0
GRID*               5218               01.8644489700E+001.1026676027E+01+
*       -3.379048824E+00               0
GRID*               5219               01.9548422144E+001.0830461517E+01+
*       -3.379048824E+00               0
GRID*               5220               01.7225704714E+001.0664012055E+01+
*       -3.379048824E+00               0
GRID*               5221               01.5435472537E+001.0759979030E+01+
*       -3.379048824E+00               0
GRID*               5222               01.5633820819E+001.0974996204E+01+
*       -3.379048824E+00               0
GRID*               5223               01.9359635316E+001.0940626360E+01+
*       -3.379048824E+00               0
GRID*               5224               01.7595965517E+001.1065389553E+01+
*       -3.379048824E+00               0
GRID*               5225               01.9161287187E+001.0725609211E+01+
*       -3.379048824E+00               0
GRID*               5226               01.6902426094E+001.0318655584E+01+
*       -3.365837574E+00               0
GRID*               5227               01.7811397717E+001.0326127338E+01+
*       -3.365837574E+00               0
GRID*               5228               01.6022763655E+001.0342750358E+01+
*       -3.365837574E+00               0
GRID*               3572               01.4380152943E+009.0517506952E+00+
*       -2.994233353E+00               0
GRID*               3573               01.2782432089E+009.0637496292E+00+
*       -2.926529418E+00               0
GRID*               3574               01.1883204295E+009.0953648050E+00+
*       -2.755632335E+00               0
GRID*               3575               01.3234534185E+009.0710069566E+00+
*       -2.596868512E+00               0
GRID*               3576               01.4932424982E+008.9865488419E+00+
*       -2.505021964E+00               0
GRID*               3577               01.6534023364E+008.8841782283E+00+
*       -2.455779079E+00               0
GRID*               3578               01.8108114901E+008.7681553967E+00+
*       -2.449287107E+00               0
GRID*               3579               01.9260880439E+008.6157407567E+00+
*       -2.501403663E+00               0
GRID*               3580               01.8596610642E+008.4551181038E+00+
*       -2.585219091E+00               0
GRID*               3581               01.6939151230E+008.3399668361E+00+
*       -2.599853343E+00               0
GRID*               3582               01.7267264172E+008.6989096180E+00+
*       -2.800033282E+00               0
GRID*               3583               01.8757436149E+008.6344878055E+00+
*       -2.684169788E+00               0
GRID*               3584               01.7105171282E+008.5196920165E+00+
*       -2.700044958E+00               0
GRID*               3585               01.7431883518E+008.8807472773E+00+
*       -2.901468721E+00               0
GRID*               3586               01.8915604886E+008.8160355741E+00+
*       -2.784680936E+00               0
GRID*               3587               01.9359384316E+008.7962251806E+00+
*       -2.598918095E+00               0
GRID*               3588               01.7620238353E+009.0699164423E+00+
*       -3.006517809E+00               0
GRID*               3589               01.9060861544E+009.0002947759E+00+
*       -2.888115610E+00               0
GRID*               3590               01.9457169259E+008.9821423019E+00+
*       -2.699752181E+00               0
GRID*               3591               01.8137670183E+008.9446424049E+00+
*       -2.548305725E+00               0
GRID*               3592               01.6885465327E+009.3537184407E+00+
*       -2.736892665E+00               0
GRID*               3593               01.7987516036E+009.1540818368E+00+
*       -2.657427025E+00               0
GRID*               3594               01.8784489109E+009.3258141601E+00+
*       -2.797307900E+00               0
GRID*               3595               01.9616418643E+009.1603344586E+00+
*       -2.812788882E+00               0
GRID*               3596               01.9770140892E+009.2921421384E+00+
*       -2.911396852E+00               0
GRID*               3597               01.9224786863E+009.1853428133E+00+
*       -2.990193231E+00               0
GRID*               3598               01.5380947772E+009.1880597840E+00+
*       -2.625325385E+00               0
GRID*               3599               01.6616025807E+009.0348657894E+00+
*       -2.545367915E+00               0
GRID*               3600               01.4854907375E+009.3831261148E+00+
*       -2.748248277E+00               0
GRID*               3601               01.3264426437E+009.2534191999E+00+
*       -2.713913407E+00               0
GRID*               3602               01.3293529607E+009.4013963870E+00+
*       -2.809309947E+00               0
GRID*               3603               01.2070576545E+009.2825427040E+00+
*       -2.895851087E+00               0
GRID*               3604               01.3506564496E+009.2066730989E+00+
*       -3.042067231E+00               0
GRID*               3605               01.3055053520E+007.8225443193E+00+
*       -2.303293167E+00               0
GRID*               3606               01.1634333189E+007.9578488666E+00+
*       -2.305335313E+00               0
GRID*               3607               01.0754727563E+008.1159320999E+00+
*       -2.252967915E+00               0
GRID*               3608               01.1444762095E+008.2705740317E+00+
*       -2.181280198E+00               0
GRID*               3609               01.2986823395E+008.3848280112E+00+
*       -2.167688536E+00               0
GRID*               3610               01.4701254547E+008.4735881042E+00+
*       -2.195182507E+00               0
GRID*               3611               01.6426999678E+008.5430755311E+00+
*       -2.254999064E+00               0
GRID*               3612               01.8060145671E+008.5931554110E+00+
*       -2.350348743E+00               0
GRID*               3613               01.1745630362E+008.9244156226E+00+
*       -2.634629375E+00               0
GRID*               3614               01.1623167853E+008.7553923750E+00+
*       -2.518720777E+00               0
GRID*               3615               01.1543621337E+008.5901909116E+00+
*       -2.402530760E+00               0
GRID*               3616               01.1502258036E+008.4296271174E+00+
*       -2.288866810E+00               0
GRID*               3617               01.4806053380E+008.8148646959E+00+
*       -2.401450645E+00               0
GRID*               3618               01.4742170394E+008.6440578719E+00+
*       -2.298165378E+00               0
GRID*               3619               01.6476502293E+008.7150868920E+00+
*       -2.356064337E+00               0
GRID*               3620               01.3016692440E+008.5508717426E+00+
*       -2.272091804E+00               0
GRID*               3621               01.3121683973E+008.8916585573E+00+
*       -2.486100569E+00               0
GRID*               3622               01.3051391167E+008.7193335834E+00+
*       -2.378330528E+00               0
GRID*               3623               01.2375613538E+008.9031946906E+00+
*       -2.816872316E+00               0
GRID*               3624               01.2038284616E+008.7346375373E+00+
*       -2.706905040E+00               0
GRID*               3625               01.1681520187E+008.5643723934E+00+
*       -2.591482541E+00               0
GRID*               3626               01.1266374991E+008.4103757069E+00+
*       -2.467550237E+00               0
GRID*               3627               01.0966428378E+008.2687792232E+00+
*       -2.353684827E+00               0
GRID*               3628               01.4083695003E+008.9134101252E+00+
*       -2.912267847E+00               0
GRID*               3629               01.3788243441E+008.7454213097E+00+
*       -2.814202023E+00               0
GRID*               3630               01.3483443158E+008.5670848266E+00+
*       -2.710053317E+00               0
GRID*               3631               01.3064825566E+008.3684845891E+00+
*       -2.590504308E+00               0
GRID*               3632               01.3230241343E+007.9985483798E+00+
*       -2.401817294E+00               0
GRID*               3633               01.1824161656E+008.1210278546E+00+
*       -2.398475646E+00               0
GRID*               3634               01.3321131570E+008.1700643807E+00+
*       -2.495441307E+00               0
GRID*               3635               01.1944723978E+008.2590408078E+00+
*       -2.474377260E+00               0
GRID*               3636               01.9159967417E+008.4370487274E+00+
*       -2.404988993E+00               0
GRID*               3637               01.8435030018E+008.2761689369E+00+
*       -2.486537432E+00               0
GRID*               3638               01.6772167790E+008.1597791486E+00+
*       -2.499411848E+00               0
GRID*               3639               01.6379956597E+008.3695760179E+00+
*       -2.153325669E+00               0
GRID*               3640               01.7945189157E+008.2408889221E+00+
*       -2.150936966E+00               0
GRID*               3641               01.8942613586E+008.0782185143E+00+
*       -2.210126655E+00               0
GRID*               3642               01.8120215096E+007.9162939319E+00+
*       -2.287078957E+00               0
GRID*               3643               01.6448737991E+007.7972644255E+00+
*       -2.297030954E+00               0
GRID*               3644               01.8004808838E+008.4173314671E+00+
*       -2.250818945E+00               0
GRID*               3645               01.9053691257E+008.2578446586E+00+
*       -2.307937574E+00               0
GRID*               3646               01.8274948187E+008.0964825553E+00+
*       -2.387214584E+00               0
GRID*               3647               01.6607727356E+007.9788331309E+00+
*       -2.398468957E+00               0
GRID*               3648               01.4657202924E+008.3020866138E+00+
*       -2.091793366E+00               0
GRID*               3649               01.6332501082E+008.1951576068E+00+
*       -2.051310930E+00               0
GRID*               3650               01.7879793799E+008.0635287514E+00+
*       -2.050434386E+00               0
GRID*               3651               01.8826659248E+007.8988688761E+00+
*       -2.110739300E+00               0
GRID*               3652               01.7982249893E+007.7364616131E+00+
*       -2.185737099E+00               0
GRID*               3653               01.6304370963E+007.6151744183E+00+
*       -2.194919688E+00               0
GRID*               3654               01.2837543583E+007.6436385728E+00+
*       -2.201974068E+00               0
GRID*               3655               01.1396501051E+007.7858071289E+00+
*       -2.204245832E+00               0
GRID*               3656               01.0543305240E+007.9511525724E+00+
*       -2.147739700E+00               0
GRID*               3657               01.1350005413E+008.1055158729E+00+
*       -2.074602471E+00               0
GRID*               3658               01.2936832449E+008.2158559294E+00+
*       -2.062476531E+00               0
GRID*               3659               01.4604981341E+008.1296289919E+00+
*       -1.988021308E+00               0
GRID*               3660               01.6269220565E+008.0198821496E+00+
*       -1.948539314E+00               0
GRID*               3661               01.7787863496E+007.8863915715E+00+
*       -1.948347391E+00               0
GRID*               3662               01.8704364079E+007.7207772318E+00+
*       -2.007445981E+00               0
GRID*               3663               01.7874020053E+007.5565045449E+00+
*       -2.081771057E+00               0
GRID*               3664               01.6181227136E+007.4338144594E+00+
*       -2.092676110E+00               0
GRID*               3665               01.2608966117E+007.4650787445E+00+
*       -2.100461357E+00               0
GRID*               3666               01.1146958118E+007.6119440195E+00+
*       -2.101303429E+00               0
GRID*               3667               01.0334602997E+007.7826776827E+00+
*       -2.041491701E+00               0
GRID*               3668               01.1230316950E+007.9371272707E+00+
*       -1.968502965E+00               0
GRID*               3669               01.2861191110E+008.0455369953E+00+
*       -1.957414484E+00               0
GRID*               3670               01.2485037464E+007.5171205198E+00+
*       -1.635805235E+00               0
GRID*               3671               01.2661112280E+007.7009125100E+00+
*       -1.746500312E+00               0
GRID*               3672               01.2767172209E+007.8742054972E+00+
*       -1.852367384E+00               0
GRID*               3673               01.1091051286E+007.7674317639E+00+
*       -1.863440208E+00               0
GRID*               3674               01.0130118016E+007.6143765048E+00+
*       -1.934993593E+00               0
GRID*               3675               01.0924820850E+007.6022672616E+00+
*       -1.763784428E+00               0
GRID*               3676               01.0663268575E+007.4660148483E+00+
*       -1.692189759E+00               0
GRID*               3677               01.0868910899E+007.4367000786E+00+
*       -1.995182259E+00               0
GRID*               3678               01.2372740189E+007.2940939017E+00+
*       -2.002644250E+00               0
GRID*               3679               09.9381663454E-017.4528670134E+00+
*       -1.828049825E+00               0
GRID*               3680               01.4464684890E+007.7815034639E+00+
*       -1.778938683E+00               0
GRID*               3681               01.6182129511E+007.8445052444E+00+
*       -1.845115782E+00               0
GRID*               3682               01.4526541475E+007.9560237780E+00+
*       -1.883666551E+00               0
GRID*               3683               01.4456999338E+007.6019757329E+00+
*       -1.671712850E+00               0
GRID*               3684               01.6082925068E+007.6698364633E+00+
*       -1.741785668E+00               0
GRID*               3685               01.7653090400E+007.7103310473E+00+
*       -1.843569245E+00               0
GRID*               3686               01.7803041762E+007.3764601251E+00+
*       -1.974291194E+00               0
GRID*               3687               01.6081449506E+007.2620592917E+00+
*       -1.995369264E+00               0
GRID*               3688               01.8572312076E+007.5454424168E+00+
*       -1.898403548E+00               0
GRID*               3689               01.8416047537E+007.3765410555E+00+
*       -1.782866663E+00               0
GRID*               3690               01.7447158141E+007.5358667731E+00+
*       -1.734314408E+00               0
GRID*               3691               01.6006121642E+007.5086156887E+00+
*       -1.646935766E+00               0
GRID*               3692               01.6375371417E+008.6524311675E+00+
*       -2.789726947E+00               0
GRID*               3693               01.6459167282E+008.7418890216E+00+
*       -2.839641671E+00               0
GRID*               3694               01.6294281445E+008.5628379436E+00+
*       -2.739705604E+00               0
GRID*               3695               01.6210050816E+008.4729200530E+00+
*       -2.689532854E+00               0
GRID*               3696               01.7186222498E+008.6093002160E+00+
*       -2.750040132E+00               0
GRID*               3697               01.8050106198E+008.6623730000E+00+
*       -2.749268448E+00               0
GRID*               3698               01.7969433032E+008.5727100045E+00+
*       -2.699365509E+00               0
GRID*               3699               01.6126975644E+008.3830828527E+00+
*       -2.639392670E+00               0
GRID*               3700               01.6042253696E+008.2926465376E+00+
*       -2.588928753E+00               0
GRID*               3701               01.8677023395E+008.5448029546E+00+
*       -2.634694439E+00               0
GRID*               3702               01.9009158294E+008.6251142811E+00+
*       -2.592786725E+00               0
GRID*               3703               01.8928745540E+008.5354294302E+00+
*       -2.543311377E+00               0
GRID*               3704               01.7022167206E+008.4298286580E+00+
*       -2.649950446E+00               0
GRID*               3705               01.7887214517E+008.4831897231E+00+
*       -2.649622718E+00               0
GRID*               3706               01.7804680125E+008.3932569963E+00+
*       -2.599645118E+00               0
GRID*               3707               01.6541537282E+008.8327897009E+00+
*       -2.890390943E+00               0
GRID*               3708               01.6624982239E+008.9218752811E+00+
*       -2.940096996E+00               0
GRID*               3709               01.7349577211E+008.7898280047E+00+
*       -2.850751748E+00               0
GRID*               3710               01.8130789817E+008.7530057756E+00+
*       -2.799752664E+00               0
GRID*               3711               01.8212720703E+008.8439795870E+00+
*       -2.850377872E+00               0
GRID*               3712               01.9310132378E+008.7059829686E+00+
*       -2.550160879E+00               0
GRID*               3713               01.8833800361E+008.7867597192E+00+
*       -2.515144963E+00               0
GRID*               3714               01.8800970462E+008.6969854794E+00+
*       -2.465394221E+00               0
GRID*               3715               01.9058410233E+008.7153564930E+00+
*       -2.641543942E+00               0
GRID*               3716               01.8836520518E+008.7252616898E+00+
*       -2.734425362E+00               0
GRID*               3717               01.9137494601E+008.8061303773E+00+
*       -2.691799516E+00               0
GRID*               3718               01.6719430730E+009.0163797235E+00+
*       -2.992760774E+00               0
GRID*               3719               01.6802629579E+009.1052041299E+00+
*       -3.042319872E+00               0
GRID*               3720               01.7526065997E+008.9753309275E+00+
*       -2.953994856E+00               0
GRID*               3721               01.8378959352E+009.0308010172E+00+
*       -2.954436900E+00               0
GRID*               3722               01.8285684986E+008.9360828401E+00+
*       -2.902137430E+00               0
GRID*               3723               01.8123058947E+008.8564157843E+00+
*       -2.498765923E+00               0
GRID*               3724               01.7352430568E+008.9169794880E+00+
*       -2.497526303E+00               0
GRID*               3725               01.7341635248E+008.8292176965E+00+
*       -2.447158180E+00               0
GRID*               3726               01.8856898095E+008.8755908778E+00+
*       -2.563559838E+00               0
GRID*               3727               01.8988233215E+008.9081651750E+00+
*       -2.836398273E+00               0
GRID*               3728               01.9259015401E+008.9912185389E+00+
*       -2.793933896E+00               0
GRID*               3729               01.9186387072E+008.8990889380E+00+
*       -2.742216559E+00               0
GRID*               3730               01.9408731012E+008.8891919845E+00+
*       -2.649315627E+00               0
GRID*               3731               01.8890555862E+008.9680458307E+00+
*       -2.615016407E+00               0
GRID*               3732               01.7422962000E+009.4239460471E+00+
*       -2.790427063E+00               0
GRID*               3733               01.6524692856E+009.4379353294E+00+
*       -2.780592976E+00               0
GRID*               3734               01.7866039425E+009.3440723106E+00+
*       -2.759485845E+00               0
GRID*               3735               01.7445665964E+009.2555595509E+00+
*       -2.694264530E+00               0
GRID*               3736               01.8392591515E+009.2405918122E+00+
*       -2.726201816E+00               0
GRID*               3737               01.8380418326E+009.4104348574E+00+
*       -2.819787924E+00               0
GRID*               3738               01.9162733997E+009.3816417837E+00+
*       -2.856981972E+00               0
GRID*               3739               01.9536793951E+009.0712383802E+00+
*       -2.756270532E+00               0
GRID*               3740               01.9338640094E+009.0803146172E+00+
*       -2.850452246E+00               0
GRID*               3741               01.8837319891E+009.0744910881E+00+
*       -2.666397741E+00               0
GRID*               3742               01.8063934815E+009.0495059045E+00+
*       -2.602607896E+00               0
GRID*               3743               01.8931696433E+009.1640868973E+00+
*       -2.721889262E+00               0
GRID*               3744               01.9279552880E+009.2463129894E+00+
*       -2.798596562E+00               0
GRID*               3745               01.9637167617E+009.3637455678E+00+
*       -2.916030557E+00               0
GRID*               3746               01.9652543397E+009.3222700659E+00+
*       -2.987317726E+00               0
GRID*               3747               01.9394688683E+009.3131227818E+00+
*       -2.845898603E+00               0
GRID*               3748               01.9693279767E+009.2262382985E+00+
*       -2.862092867E+00               0
GRID*               3749               01.9142878544E+009.0928156471E+00+
*       -2.939159271E+00               0
GRID*               3750               01.8463058734E+009.1231448024E+00+
*       -3.005766485E+00               0
GRID*               3751               01.9420602753E+009.1728386360E+00+
*       -2.901491057E+00               0
GRID*               3752               01.9497463877E+009.2387424759E+00+
*       -2.950795042E+00               0
GRID*               3753               01.9383144752E+009.2686889137E+00+
*       -3.026995660E+00               0
GRID*               3754               01.8623460492E+009.2490168028E+00+
*       -3.073313291E+00               0
GRID*               3755               01.6968120141E+009.2301405319E+00+
*       -3.111462250E+00               0
GRID*               3756               01.7784379628E+009.1952424596E+00+
*       -3.074983851E+00               0
GRID*               3757               01.6706305145E+009.1774589406E+00+
*       -2.630430062E+00               0
GRID*               3758               01.6135544720E+009.2724570476E+00+
*       -2.678468302E+00               0
GRID*               3759               01.6575033113E+008.9595245070E+00+
*       -2.500569218E+00               0
GRID*               3760               01.5776928391E+009.0130042673E+00+
*       -2.521337784E+00               0
GRID*               3761               01.5736279918E+008.9378185629E+00+
*       -2.476275361E+00               0
GRID*               3762               01.7394141763E+008.9924777599E+00+
*       -2.542053294E+00               0
GRID*               3763               01.7310845383E+009.0961007253E+00+
*       -2.598557755E+00               0
GRID*               3764               01.5156655184E+009.0873600483E+00+
*       -2.565081503E+00               0
GRID*               3765               01.4292649573E+009.1340981700E+00+
*       -2.603756392E+00               0
GRID*               3766               01.4070130844E+009.0324013321E+00+
*       -2.545140847E+00               0
GRID*               3767               01.6000953310E+009.1130782743E+00+
*       -2.582624975E+00               0
GRID*               3768               01.5507167287E+009.4532231427E+00+
*       -2.785335745E+00               0
GRID*               3769               01.4568896385E+009.4548347476E+00+
*       -2.797490122E+00               0
GRID*               3770               01.5872077464E+009.3721374874E+00+
*       -2.736370449E+00               0
GRID*               3771               01.5117316401E+009.2860601729E+00+
*       -2.686020334E+00               0
GRID*               3772               01.4302585646E+009.2262242127E+00+
*       -2.660832188E+00               0
GRID*               3773               01.4046365670E+009.3210544803E+00+
*       -2.726674947E+00               0
GRID*               3774               01.3249111747E+009.1622606196E+00+
*       -2.655318082E+00               0
GRID*               3775               01.2447578979E+009.1821200609E+00+
*       -2.724143127E+00               0
GRID*               3776               01.2419209025E+009.0922016581E+00+
*       -2.663707202E+00               0
GRID*               3777               01.4057007788E+009.3956457723E+00+
*       -2.773435909E+00               0
GRID*               3778               01.3278760350E+009.3274361324E+00+
*       -2.761568117E+00               0
GRID*               3779               01.3782241877E+009.4646206675E+00+
*       -2.827037854E+00               0
GRID*               3780               01.2934837189E+009.4498796222E+00+
*       -2.866039393E+00               0
GRID*               3781               01.2466108309E+009.2784536582E+00+
*       -2.791063080E+00               0
GRID*               3782               01.2495387316E+009.3512186436E+00+
*       -2.840543380E+00               0
GRID*               3783               01.1976890420E+009.1889537545E+00+
*       -2.825741711E+00               0
GRID*               3784               01.2426504317E+009.1731461666E+00+
*       -2.911190253E+00               0
GRID*               3785               01.2332818192E+009.0795572171E+00+
*       -2.841080877E+00               0
GRID*               3786               01.2349337762E+009.3883379058E+00+
*       -2.912376507E+00               0
GRID*               3787               01.2364159244E+009.3456619347E+00+
*       -2.985743592E+00               0
GRID*               3788               01.3138677838E+009.1347107483E+00+
*       -2.985296951E+00               0
GRID*               3789               01.3935417576E+009.1280986287E+00+
*       -3.020279618E+00               0
GRID*               3790               01.3553540885E+009.0546423644E+00+
*       -2.966427268E+00               0
GRID*               3791               01.2788570521E+009.2446079014E+00+
*       -2.968959159E+00               0
GRID*               3792               01.3082153219E+009.3077271321E+00+
*       -3.058851664E+00               0
GRID*               3793               01.3890282125E+009.2783588757E+00+
*       -3.096656092E+00               0
GRID*               3794               01.5117468996E+009.2453878215E+00+
*       -3.114666924E+00               0
GRID*               3795               01.4713997473E+009.1705167446E+00+
*       -3.066118445E+00               0
GRID*               3796               01.5172289931E+009.0969533595E+00+
*       -3.034856780E+00               0
GRID*               3797               01.5673080350E+008.8518774723E+00+
*       -2.424654370E+00               0
GRID*               3798               01.4869236916E+008.9007080096E+00+
*       -2.453234278E+00               0
GRID*               3799               01.6505291278E+008.7996404485E+00+
*       -2.405908178E+00               0
GRID*               3800               01.7311426008E+008.7443830129E+00+
*       -2.397802905E+00               0
GRID*               3801               01.5645011387E+008.7676131456E+00+
*       -2.374319096E+00               0
GRID*               3802               01.4774104435E+008.7294697747E+00+
*       -2.349794031E+00               0
GRID*               3803               01.5612983032E+008.6819296473E+00+
*       -2.323143079E+00               0
GRID*               3804               01.8084280730E+008.6806682964E+00+
*       -2.399794337E+00               0
GRID*               3805               01.8769708631E+008.6089945555E+00+
*       -2.416843692E+00               0
GRID*               3806               01.5589100577E+008.5962382153E+00+
*       -2.272075222E+00               0
GRID*               3807               01.6451789216E+008.6290910494E+00+
*       -2.305514787E+00               0
GRID*               3808               01.4721707450E+008.5588350364E+00+
*       -2.246654001E+00               0
GRID*               3809               01.5568440838E+008.5106615358E+00+
*       -2.221154689E+00               0
GRID*               3810               01.7291082587E+008.6572958032E+00+
*       -2.347594571E+00               0
GRID*               3811               01.7264576150E+008.5709631089E+00+
*       -2.297631710E+00               0
GRID*               3812               01.2194356199E+008.4124952944E+00+
*       -2.220366678E+00               0
GRID*               3813               01.3001628861E+008.4678760675E+00+
*       -2.219848761E+00               0
GRID*               3814               01.2259475238E+008.4902494300E+00+
*       -2.280479307E+00               0
GRID*               3815               01.1472582797E+008.3501618543E+00+
*       -2.234987743E+00               0
GRID*               3816               01.2178455645E+008.3318833433E+00+
*       -2.168158205E+00               0
GRID*               3817               01.3850208865E+008.5153913858E+00+
*       -2.228525920E+00               0
GRID*               3818               01.3871323654E+008.6002389221E+00+
*       -2.280650339E+00               0
GRID*               3819               01.3837295832E+008.4318550046E+00+
*       -2.177146460E+00               0
GRID*               3820               01.2390692490E+009.0048431925E+00+
*       -2.605615944E+00               0
GRID*               3821               01.1814417328E+009.0098902138E+00+
*       -2.695130855E+00               0
GRID*               3822               01.3178041449E+008.9813418851E+00+
*       -2.541470496E+00               0
GRID*               3823               01.4015389290E+008.9424050032E+00+
*       -2.490264671E+00               0
GRID*               3824               01.2329141248E+008.9157043964E+00+
*       -2.549428216E+00               0
GRID*               3825               01.1682091455E+008.8399848542E+00+
*       -2.576582867E+00               0
GRID*               3826               01.2293758454E+008.8297560885E+00+
*       -2.493405848E+00               0
GRID*               3827               01.3886426429E+008.6850090617E+00+
*       -2.332909990E+00               0
GRID*               3828               01.3033892357E+008.6351278981E+00+
*       -2.325171669E+00               0
GRID*               3829               01.3918953256E+008.7700842328E+00+
*       -2.385088588E+00               0
GRID*               3830               01.3951934115E+008.8566961982E+00+
*       -2.438261916E+00               0
GRID*               3831               01.3086405676E+008.8055149846E+00+
*       -2.432186308E+00               0
GRID*               3832               01.2252278252E+008.7443045804E+00+
*       -2.438445132E+00               0
GRID*               3833               01.2237932502E+008.6600802123E+00+
*       -2.382605270E+00               0
GRID*               3834               01.1583394595E+008.6727916433E+00+
*       -2.460625768E+00               0
GRID*               3835               01.2280156888E+008.5705313271E+00+
*       -2.337311282E+00               0
GRID*               3836               01.1522939686E+008.5099090145E+00+
*       -2.345698785E+00               0
GRID*               3837               01.1234343207E+008.3492031703E+00+
*       -2.321275818E+00               0
GRID*               3838               01.1384316514E+008.4200014121E+00+
*       -2.378208523E+00               0
GRID*               3839               01.1116401685E+008.3395774651E+00+
*       -2.410617532E+00               0
GRID*               3840               01.1205595237E+008.2696766275E+00+
*       -2.267482513E+00               0
GRID*               3841               01.0860577970E+008.1923556616E+00+
*       -2.303326371E+00               0
GRID*               3842               01.1099744829E+008.1932530658E+00+
*       -2.217124057E+00               0
GRID*               3843               01.2129408917E+008.9992797478E+00+
*       -2.786252325E+00               0
GRID*               3844               01.2060621950E+008.9138051566E+00+
*       -2.725750845E+00               0
GRID*               3845               01.2576746026E+008.9833507565E+00+
*       -2.871959539E+00               0
GRID*               3846               01.1404998164E+008.5002833092E+00+
*       -2.435040498E+00               0
GRID*               3847               01.1612570762E+008.5772816525E+00+
*       -2.497006650E+00               0
GRID*               3848               01.1652344020E+008.6598823842E+00+
*       -2.555101659E+00               0
GRID*               3849               01.1466503566E+008.4871406785E+00+
*       -2.530072833E+00               0
GRID*               3850               01.1830726234E+008.7450149561E+00+
*       -2.612812908E+00               0
GRID*               3851               01.1859902401E+008.6495049653E+00+
*       -2.649193790E+00               0
GRID*               3852               01.1891957489E+008.8295265799E+00+
*       -2.670767207E+00               0
GRID*               3853               01.2206949077E+008.8189161139E+00+
*       -2.761888678E+00               0
GRID*               3854               01.5089085254E+009.0081473155E+00+
*       -2.985264884E+00               0
GRID*               3855               01.4938973121E+008.9385268536E+00+
*       -2.945120118E+00               0
GRID*               3856               01.4855521219E+008.8494586529E+00+
*       -2.895383048E+00               0
GRID*               3857               01.4231790048E+008.9825569450E+00+
*       -2.953294856E+00               0
GRID*               3858               01.3408817922E+008.9859792438E+00+
*       -2.924476557E+00               0
GRID*               3859               01.3189504846E+008.9044869712E+00+
*       -2.872104879E+00               0
GRID*               3860               01.3935870339E+008.8293991908E+00+
*       -2.863266217E+00               0
GRID*               3861               01.3045355766E+008.8209510067E+00+
*       -2.822189582E+00               0
GRID*               3862               01.4705919484E+008.7650549416E+00+
*       -2.847114831E+00               0
GRID*               3863               01.4622115962E+008.6756136716E+00+
*       -2.797170535E+00               0
GRID*               3864               01.2862328860E+008.7357247798E+00+
*       -2.769159079E+00               0
GRID*               3865               01.3635763231E+008.6562387774E+00+
*       -2.762154588E+00               0
GRID*               3866               01.2714231593E+008.6470472077E+00+
*       -2.716131579E+00               0
GRID*               3867               01.4467598540E+008.5860052093E+00+
*       -2.745920223E+00               0
GRID*               3868               01.4383360939E+008.4961029366E+00+
*       -2.695719634E+00               0
GRID*               3869               01.2514948242E+008.5606794409E+00+
*       -2.661006962E+00               0
GRID*               3870               01.3273719488E+008.4677306353E+00+
*       -2.650382824E+00               0
GRID*               3871               01.2314551224E+008.4622835858E+00+
*       -2.599457979E+00               0
GRID*               3872               01.4169459025E+008.3959505487E+00+
*       -2.637549252E+00               0
GRID*               3873               01.4084733766E+008.3055284987E+00+
*       -2.587059864E+00               0
GRID*               3874               01.3917784075E+007.8518640122E+00+
*       -2.338254240E+00               0
GRID*               3875               01.3831598721E+007.7598873231E+00+
*       -2.286892520E+00               0
GRID*               3876               01.3142647644E+007.9105463887E+00+
*       -2.352555156E+00               0
GRID*               3877               01.2319208667E+007.8874370524E+00+
*       -2.309697878E+00               0
GRID*               3878               01.2406825527E+007.9754390616E+00+
*       -2.358959574E+00               0
GRID*               3879               01.4005444743E+007.9398823907E+00+
*       -2.387485895E+00               0
GRID*               3880               01.4091170296E+008.0313775022E+00+
*       -2.438579033E+00               0
GRID*               3881               01.1168476275E+008.1149115465E+00+
*       -2.334381276E+00               0
GRID*               3882               01.1298178686E+008.1917698612E+00+
*       -2.383503489E+00               0
GRID*               3883               01.1729223362E+008.0394371633E+00+
*       -2.351908074E+00               0
GRID*               3884               01.2502743448E+008.0571151895E+00+
*       -2.405356950E+00               0
GRID*               3885               01.1074751386E+008.0333782498E+00+
*       -2.287688884E+00               0
GRID*               3886               01.4220894409E+008.2078854792E+00+
*       -2.536586571E+00               0
GRID*               3887               01.4135667599E+008.1169215740E+00+
*       -2.485790168E+00               0
GRID*               3888               01.2053836262E+008.3829906803E+00+
*       -2.542574152E+00               0
GRID*               3889               01.2490942674E+008.3124471937E+00+
*       -2.535038109E+00               0
GRID*               3890               01.1558049658E+008.3327974758E+00+
*       -2.475258323E+00               0
GRID*               3891               01.3191521057E+008.2690648637E+00+
*       -2.543373238E+00               0
GRID*               3892               01.2609246071E+008.2120288834E+00+
*       -2.489839640E+00               0
GRID*               3893               01.1361461770E+008.2609206243E+00+
*       -2.421141358E+00               0
GRID*               3894               01.1884422596E+008.1900331494E+00+
*       -2.436428935E+00               0
GRID*               3895               01.3275649132E+008.0843008830E+00+
*       -2.448639744E+00               0
GRID*               3896               01.2549975745E+008.1431147612E+00+
*       -2.451705791E+00               0
GRID*               3897               01.9210904069E+008.5264007787E+00+
*       -2.453180269E+00               0
GRID*               3898               01.9111612672E+008.4402131771E+00+
*       -2.502528853E+00               0
GRID*               3899               01.8736068670E+008.5200790148E+00+
*       -2.367701705E+00               0
GRID*               3900               01.5958689162E+008.2025795616E+00+
*       -2.538661070E+00               0
GRID*               3901               01.5873450919E+008.1116005928E+00+
*       -2.487891792E+00               0
GRID*               3902               01.8515847665E+008.3656414999E+00+
*       -2.535881473E+00               0
GRID*               3903               01.9038694013E+008.3503895488E+00+
*       -2.453702560E+00               0
GRID*               3904               01.7722139568E+008.3039456579E+00+
*       -2.550038449E+00               0
GRID*               3905               01.6855656139E+008.2498732987E+00+
*       -2.549632088E+00               0
GRID*               3906               01.7639127788E+008.2137797407E+00+
*       -2.499939295E+00               0
GRID*               3907               01.8032627938E+008.5052564378E+00+
*       -2.300560077E+00               0
GRID*               3908               01.8700814891E+008.4317004453E+00+
*       -2.318818387E+00               0
GRID*               3909               01.7240629896E+008.4834457792E+00+
*       -2.247156710E+00               0
GRID*               3910               01.6403523326E+008.4563362898E+00+
*       -2.204144222E+00               0
GRID*               3911               01.5545914798E+008.4242377815E+00+
*       -2.169761379E+00               0
GRID*               3912               01.7215151533E+008.3963544143E+00+
*       -2.196916967E+00               0
GRID*               3913               01.9107243857E+008.3474482261E+00+
*       -2.356455733E+00               0
GRID*               3914               01.8965805039E+008.2609844416E+00+
*       -2.405070179E+00               0
GRID*               3915               01.8663809437E+008.3424614107E+00+
*       -2.269480884E+00               0
GRID*               3916               01.7975086973E+008.3291199819E+00+
*       -2.200860382E+00               0
GRID*               3917               01.7189081120E+008.3085153258E+00+
*       -2.146286329E+00               0
GRID*               3918               01.8626044413E+008.2537975184E+00+
*       -2.220385862E+00               0
GRID*               3919               01.8354997640E+008.1863236511E+00+
*       -2.436879601E+00               0
GRID*               3920               01.7557549623E+008.1240779170E+00+
*       -2.450047936E+00               0
GRID*               3921               01.8892379552E+008.1708300399E+00+
*       -2.355872565E+00               0
GRID*               3922               01.8998504671E+008.1680333549E+00+
*       -2.259024906E+00               0
GRID*               3923               01.8586489592E+008.1643115346E+00+
*       -2.170731674E+00               0
GRID*               3924               01.8819672686E+008.0812274213E+00+
*       -2.306806368E+00               0
GRID*               3925               01.5625914023E+007.8388517219E+00+
*       -2.335603129E+00               0
GRID*               3926               01.5539727231E+007.7468586184E+00+
*       -2.284270823E+00               0
GRID*               3927               01.5705423436E+007.9296365224E+00+
*       -2.386321163E+00               0
GRID*               3928               01.5791168413E+008.0211464913E+00+
*       -2.437387426E+00               0
GRID*               3929               01.6528228418E+007.8880493381E+00+
*       -2.347749009E+00               0
GRID*               3930               01.7397301844E+007.9435486727E+00+
*       -2.349450279E+00               0
GRID*               3931               01.7318020049E+007.8527338571E+00+
*       -2.298782495E+00               0
GRID*               3932               01.8197593699E+008.0063873830E+00+
*       -2.337148133E+00               0
GRID*               3933               01.8747156130E+007.9908943534E+00+
*       -2.257097192E+00               0
GRID*               3934               01.7475706189E+008.0335483626E+00+
*       -2.399671865E+00               0
GRID*               3935               01.6689943952E+008.0693065772E+00+
*       -2.448939666E+00               0
GRID*               3936               01.5467673085E+007.6557637173E+00+
*       -2.233302396E+00               0
GRID*               3937               01.5381120438E+007.5633725402E+00+
*       -2.181750670E+00               0
GRID*               3938               01.4679227790E+008.3878486270E+00+
*       -2.143469226E+00               0
GRID*               3939               01.5523596185E+008.3381563501E+00+
*       -2.118620639E+00               0
GRID*               3940               01.3814765796E+008.3464714159E+00+
*       -2.124849994E+00               0
GRID*               3941               01.6356281919E+008.2823767098E+00+
*       -2.102301058E+00               0
GRID*               3942               01.7163260382E+008.2209613055E+00+
*       -2.095883172E+00               0
GRID*               3943               01.5500974888E+008.2512750991E+00+
*       -2.067051780E+00               0
GRID*               3944               01.7912676456E+008.1522213781E+00+
*       -2.100662245E+00               0
GRID*               3945               01.8546051752E+008.0752232007E+00+
*       -2.121265859E+00               0
GRID*               3946               01.7134344503E+008.1326483087E+00+
*       -2.044966889E+00               0
GRID*               3947               01.8884805879E+007.9885441279E+00+
*       -2.160430224E+00               0
GRID*               3948               01.8677804559E+007.9013729820E+00+
*       -2.207272773E+00               0
GRID*               3949               01.8500436403E+007.9857759726E+00+
*       -2.071036310E+00               0
GRID*               3950               01.6376550762E+007.7062198754E+00+
*       -2.245974558E+00               0
GRID*               3951               01.7249234134E+007.7627958712E+00+
*       -2.248147671E+00               0
GRID*               3952               01.7176881201E+007.6717823930E+00+
*       -2.197038239E+00               0
GRID*               3953               01.8051230914E+007.8263778891E+00+
*       -2.236407842E+00               0
GRID*               3954               01.8610353046E+007.8113860380E+00+
*       -2.156706995E+00               0
GRID*               3955               01.2149712830E+008.2479663124E+00+
*       -2.114668346E+00               0
GRID*               3956               01.1396849344E+008.1880812027E+00+
*       -2.127890373E+00               0
GRID*               3957               01.2109671863E+008.1647495676E+00+
*       -2.062348286E+00               0
GRID*               3958               01.2961744240E+008.3003588228E+00+
*       -2.115055884E+00               0
GRID*               3959               01.3791267956E+008.2615606357E+00+
*       -2.072925522E+00               0
GRID*               3960               01.0830468425E+008.1176043633E+00+
*       -2.156452446E+00               0
GRID*               3961               01.0648278577E+008.0335408645E+00+
*       -2.200371173E+00               0
GRID*               3962               01.0750255807E+008.0347984340E+00+
*       -2.104041842E+00               0
GRID*               3963               01.0946815090E+007.9506509160E+00+
*       -2.236108987E+00               0
GRID*               3964               01.1515306710E+007.8718238793E+00+
*       -2.254799943E+00               0
GRID*               3965               01.0833353752E+007.8648805159E+00+
*       -2.185016516E+00               0
GRID*               3966               01.3722300954E+007.6703063987E+00+
*       -2.236471494E+00               0
GRID*               3967               01.3635745615E+007.5779326471E+00+
*       -2.184888592E+00               0
GRID*               3968               01.2946289461E+007.7330898376E+00+
*       -2.252636654E+00               0
GRID*               3969               01.2197010776E+007.8011467025E+00+
*       -2.259693739E+00               0
GRID*               3970               01.2089161115E+007.7118196323E+00+
*       -2.208793462E+00               0
GRID*               3971               01.4631093612E+008.2158676082E+00+
*       -2.039891022E+00               0
GRID*               3972               01.5474503866E+008.1647395731E+00+
*       -2.015680781E+00               0
GRID*               3973               01.3764810398E+008.1756642528E+00+
*       -2.020492751E+00               0
GRID*               3974               01.7833860623E+007.9749613742E+00+
*       -1.999388407E+00               0
GRID*               3975               01.7100757893E+008.0447180781E+00+
*       -1.994095978E+00               0
GRID*               3976               01.7057600000E+007.9564019644E+00+
*       -1.942592535E+00               0
GRID*               3977               01.8449667272E+007.8969609850E+00+
*       -2.020468594E+00               0
GRID*               3978               01.6300875913E+008.1075284378E+00+
*       -1.999910587E+00               0
GRID*               3979               01.5443857876E+008.0773856061E+00+
*       -1.963808409E+00               0
GRID*               3980               01.8765508207E+007.8098230701E+00+
*       -2.059092653E+00               0
GRID*               3981               01.8551003816E+007.7222965390E+00+
*       -2.105114682E+00               0
GRID*               3982               01.8390779753E+007.8079628308E+00+
*       -1.968713594E+00               0
GRID*               3983               01.5319887451E+007.4725735396E+00+
*       -2.130836512E+00               0
GRID*               3984               01.5233072826E+007.3798987688E+00+
*       -2.079128675E+00               0
GRID*               3985               01.7928166495E+007.6464807604E+00+
*       -2.133757764E+00               0
GRID*               3986               01.7125185154E+007.5815736421E+00+
*       -2.145430923E+00               0
GRID*               3987               01.8492756164E+007.6325344786E+00+
*       -2.052803090E+00               0
GRID*               3988               01.6242801272E+007.5244938012E+00+
*       -2.143799004E+00               0
GRID*               3989               01.7062901403E+007.4910111744E+00+
*       -2.094109852E+00               0
GRID*               3990               01.2069204081E+008.0800215290E+00+
*       -2.009143746E+00               0
GRID*               3991               01.1289988775E+008.0213361726E+00+
*       -2.021531374E+00               0
GRID*               3992               01.2013985705E+007.9953704689E+00+
*       -1.956775169E+00               0
GRID*               3993               01.2898966047E+008.1307063433E+00+
*       -2.009929824E+00               0
GRID*               3994               01.3728024203E+008.0901793500E+00+
*       -1.968485736E+00               0
GRID*               3995               01.0676086136E+007.9513713922E+00+
*       -2.049970245E+00               0
GRID*               3996               01.0438429853E+007.8669167808E+00+
*       -2.094623387E+00               0
GRID*               3997               01.0593163719E+007.8667231111E+00+
*       -1.997122070E+00               0
GRID*               3998               01.0708101361E+007.7803815019E+00+
*       -2.132767636E+00               0
GRID*               3999               01.3520727657E+007.4884878945E+00+
*       -2.134439777E+00               0
GRID*               4000               01.3433912569E+007.3958312300E+00+
*       -2.082699512E+00               0
GRID*               4001               01.1271670244E+007.6988710292E+00+
*       -2.152783782E+00               0
GRID*               4002               01.0590630015E+007.6937664791E+00+
*       -2.080595946E+00               0
GRID*               4003               01.1960540427E+007.6245781547E+00+
*       -2.157945126E+00               0
GRID*               4004               01.2723236861E+007.5543560210E+00+
*       -2.151222725E+00               0
GRID*               4005               01.1847480043E+007.5354630941E+00+
*       -2.106872547E+00               0
GRID*               4006               01.1160609449E+007.8522855323E+00+
*       -1.915962867E+00               0
GRID*               4007               01.0514328656E+007.7824051508E+00+
*       -1.943871810E+00               0
GRID*               4008               01.1964970435E+007.9100489879E+00+
*       -1.903712362E+00               0
GRID*               4009               01.2814153946E+007.9598775351E+00+
*       -1.904880930E+00               0
GRID*               4010               01.1898256422E+007.8249031285E+00+
*       -1.851627389E+00               0
GRID*               4011               01.1843565818E+007.7385531697E+00+
*       -1.798228240E+00               0
GRID*               4012               01.2714123088E+007.7875635460E+00+
*       -1.799426610E+00               0
GRID*               4013               01.1761117215E+007.6559048814E+00+
*       -1.748498934E+00               0
GRID*               4014               01.1672795869E+007.5640537126E+00+
*       -1.693081595E+00               0
GRID*               4015               01.2573076265E+007.6090162471E+00+
*       -1.691153198E+00               0
GRID*               4016               01.1007933066E+007.6848497868E+00+
*       -1.813611914E+00               0
GRID*               4017               01.0231791809E+007.6985306463E+00+
*       -1.988247949E+00               0
GRID*               4018               01.0466071782E+007.6093998931E+00+
*       -2.028171051E+00               0
GRID*               4019               01.0433067058E+007.6977914429E+00+
*       -1.890997019E+00               0
GRID*               4020               01.0346742994E+007.6153943816E+00+
*       -1.840917713E+00               0
GRID*               4021               01.0919520691E+007.4234976703E+00+
*       -1.642868743E+00               0
GRID*               4022               01.0173858177E+007.3976452271E+00+
*       -1.699622058E+00               0
GRID*               4023               01.1829684179E+007.4498931885E+00+
*       -1.613283223E+00               0
GRID*               4024               01.2778514113E+007.4542241421E+00+
*       -1.590592290E+00               0
GRID*               4025               01.1533440023E+007.4968144766E+00+
*       -1.655954400E+00               0
GRID*               4026               01.0793550473E+007.5341803662E+00+
*       -1.727930233E+00               0
GRID*               4027               01.1702648707E+007.4473923283E+00+
*       -2.054718289E+00               0
GRID*               4028               01.1007698878E+007.5243082977E+00+
*       -2.048271720E+00               0
GRID*               4029               01.3314823003E+007.3101219503E+00+
*       -2.034195728E+00               0
GRID*               4030               01.2490822866E+007.3795811494E+00+
*       -2.051562580E+00               0
GRID*               4031               01.3227870377E+007.2173180731E+00+
*       -1.982373852E+00               0
GRID*               4032               01.2276875582E+007.2343379444E+00+
*       -1.968002291E+00               0
GRID*               4033               01.1586287197E+007.3621201017E+00+
*       -2.005385284E+00               0
GRID*               4034               01.1369371981E+007.2584107629E+00+
*       -1.941304371E+00               0
GRID*               4035               01.0665208750E+007.3339384833E+00+
*       -1.929169399E+00               0
GRID*               4036               01.0338957523E+007.5222531748E+00+
*       -1.974040296E+00               0
GRID*               4037               09.8744465906E-017.3878219576E+00+
*       -1.771835535E+00               0
GRID*               4038               01.0165736947E+007.4647937905E+00+
*       -1.753670643E+00               0
GRID*               4039               01.0035752766E+007.3396076870E+00+
*       -1.853104525E+00               0
GRID*               4040               01.0209054087E+007.4413097428E+00+
*       -1.921578675E+00               0
GRID*               4041               01.0032800636E+007.5336369981E+00+
*       -1.881522328E+00               0
GRID*               4042               01.0280075062E+007.5338997502E+00+
*       -1.788127612E+00               0
GRID*               4043               01.3688597624E+008.0036304473E+00+
*       -1.915890183E+00               0
GRID*               4044               01.3642334443E+007.9177086887E+00+
*       -1.863779926E+00               0
GRID*               4045               01.4565762928E+008.0428321921E+00+
*       -1.935834261E+00               0
GRID*               4046               01.5404307527E+007.9903501666E+00+
*       -1.912022868E+00               0
GRID*               4047               01.6225694062E+007.9321975017E+00+
*       -1.896820938E+00               0
GRID*               4048               01.7012563782E+007.8685023613E+00+
*       -1.891253639E+00               0
GRID*               4049               01.5361526159E+007.9028719929E+00+
*       -1.859950020E+00               0
GRID*               4050               01.3611219052E+007.8307537489E+00+
*       -1.810911965E+00               0
GRID*               4051               01.3558774305E+007.7438886841E+00+
*       -1.758332111E+00               0
GRID*               4052               01.4495614444E+007.8687724807E+00+
*       -1.831287900E+00               0
GRID*               4053               01.5330135399E+007.8153343446E+00+
*       -1.808054133E+00               0
GRID*               4054               01.3554774594E+007.6546178897E+00+
*       -1.703902684E+00               0
GRID*               4055               01.3466768350E+007.5627104496E+00+
*       -1.648573609E+00               0
GRID*               4056               01.4460873651E+007.6917595523E+00+
*       -1.725292076E+00               0
GRID*               4057               01.5276483904E+007.6379814279E+00+
*       -1.703202322E+00               0
GRID*               4058               01.5281163945E+007.7281664890E+00+
*       -1.756102696E+00               0
GRID*               4059               01.7720469288E+007.7983609047E+00+
*       -1.895959094E+00               0
GRID*               4060               01.8323758038E+007.7199462573E+00+
*       -1.916296825E+00               0
GRID*               4061               01.6945551821E+007.7805060485E+00+
*       -1.838802740E+00               0
GRID*               4062               01.6132539477E+007.7571731709E+00+
*       -1.793446689E+00               0
GRID*               4063               01.6894768195E+007.6930075006E+00+
*       -1.787427854E+00               0
GRID*               4064               01.7033006457E+007.4004734267E+00+
*       -2.041208694E+00               0
GRID*               4065               01.7838695541E+007.4664672107E+00+
*       -2.028055699E+00               0
GRID*               4066               01.5183706694E+007.2938477153E+00+
*       -2.030777471E+00               0
GRID*               4067               01.6131348951E+007.3479347327E+00+
*       -2.044026364E+00               0
GRID*               4068               01.5096755205E+007.2010251515E+00+
*       -1.978989045E+00               0
GRID*               4069               01.6057101756E+007.2023422128E+00+
*       -1.961235190E+00               0
GRID*               4070               01.6981922911E+007.3147838876E+00+
*       -1.992237221E+00               0
GRID*               4071               01.6978387893E+007.2119161179E+00+
*       -1.930420629E+00               0
GRID*               4072               01.7787965108E+007.2745935835E+00+
*       -1.910855024E+00               0
GRID*               4073               01.8448815399E+007.5445348057E+00+
*       -1.998595213E+00               0
GRID*               4074               01.8187676919E+007.4609512710E+00+
*       -1.936347371E+00               0
GRID*               4075               01.8638686014E+007.6331105346E+00+
*       -1.952919431E+00               0
GRID*               4076               01.8244736026E+007.6320676307E+00+
*       -1.862291206E+00               0
GRID*               4077               01.8109544650E+007.3765005903E+00+
*       -1.878578929E+00               0
GRID*               4078               01.8494179807E+007.4609917362E+00+
*       -1.840635105E+00               0
GRID*               4079               01.8331483970E+007.2694553409E+00+
*       -1.821315221E+00               0
GRID*               4080               01.8344197925E+007.3169172268E+00+
*       -1.738240546E+00               0
GRID*               4081               01.8150314879E+007.5452701097E+00+
*       -1.806823732E+00               0
GRID*               4082               01.8041063335E+007.4601832016E+00+
*       -1.750512347E+00               0
GRID*               4083               01.7550241150E+007.6231070041E+00+
*       -1.788926723E+00               0
GRID*               4084               01.6788579996E+007.6054867821E+00+
*       -1.733326428E+00               0
GRID*               4085               01.7793071602E+007.3609233232E+00+
*       -1.671883463E+00               0
GRID*               4086               01.7162904995E+007.4344629792E+00+
*       -1.659754802E+00               0
GRID*               4087               01.3748649862E+007.4516796204E+00+
*       -1.579869170E+00               0
GRID*               4088               01.4737995481E+007.4885202564E+00+
*       -1.607049620E+00               0
GRID*               4089               01.6748812558E+007.5246905369E+00+
*       -1.686230427E+00               0
GRID*               4090               01.6448381875E+007.4217194096E+00+
*       -1.614510163E+00               0
GRID*               4091               01.5514210730E+007.4420318400E+00+
*       -1.594317154E+00               0
GRID*               4092               01.6044542276E+007.5892294550E+00+
*       -1.694354820E+00               0
GRID*               4093               01.5238830661E+007.5575566254E+00+
*       -1.655457570E+00               0
GRID*               2886               01.1814348717E+004.7595104043E+00+
*       -1.365958972E+00               0
GRID*               2887               01.2749051285E+004.9340670197E+00+
*       -1.373041960E+00               0
GRID*               2888               01.3633951753E+005.1107705225E+00+
*       -1.386671331E+00               0
GRID*               2889               01.4466421236E+005.2872216811E+00+
*       -1.406300232E+00               0
GRID*               2890               01.5242149647E+005.4575170493E+00+
*       -1.431797988E+00               0
GRID*               2891               01.6091604071E+005.6205474243E+00+
*       -1.472118186E+00               0
GRID*               2892               01.6905446738E+005.7992377834E+00+
*       -1.532375491E+00               0
GRID*               2893               01.7416415427E+005.9921586243E+00+
*       -1.596827078E+00               0
GRID*               2894               01.7628470624E+006.1785126115E+00+
*       -1.655493761E+00               0
GRID*               2895               01.7661601587E+006.3367621302E+00+
*       -1.693923255E+00               0
GRID*               2896               01.6915820792E+006.4690855072E+00+
*       -1.797705976E+00               0
GRID*               2897               01.6326153354E+006.6793912094E+00+
*       -1.838307322E+00               0
GRID*               2898               06.7570874521E-014.6465077977E+00+
*       -1.629989334E+00               0
GRID*               2899               07.5543048130E-014.7427225924E+00+
*       -1.789352882E+00               0
GRID*               2900               09.0293391342E-014.8380769105E+00+
*       -1.872767361E+00               0
GRID*               2901               01.0496726482E+004.9306698191E+00+
*       -1.909834741E+00               0
GRID*               2902               01.0514881780E+004.7575960966E+00+
*       -1.915568570E+00               0
GRID*               2903               09.7664495342E-016.7733820626E+00+
*       -1.521187760E+00               0
GRID*               2904               01.0471315475E+006.6135342758E+00+
*       -1.459869974E+00               0
GRID*               2905               01.1340296540E+006.4534148056E+00+
*       -1.419058318E+00               0
GRID*               2906               01.2307067984E+006.2904138870E+00+
*       -1.395703269E+00               0
GRID*               2907               01.3308792677E+006.1250744479E+00+
*       -1.389052679E+00               0
GRID*               2908               01.4306547264E+005.9588068297E+00+
*       -1.398922010E+00               0
GRID*               2909               01.5261468270E+005.7907749807E+00+
*       -1.426368108E+00               0
GRID*               2910               01.7827950114E+006.4881921446E+00+
*       -1.618031144E+00               0
GRID*               2911               01.6698550920E+006.4895250937E+00+
*       -1.477674918E+00               0
GRID*               2912               01.4973938877E+006.4802105777E+00+
*       -1.411511668E+00               0
GRID*               2913               01.3148886486E+006.4647350094E+00+
*       -1.394287470E+00               0
GRID*               2914               01.6819547768E+006.1515698840E+00+
*       -1.501191750E+00               0
GRID*               2915               01.5157837228E+006.1369382089E+00+
*       -1.418342593E+00               0
GRID*               2916               01.6098724748E+005.9710715700E+00+
*       -1.460234994E+00               0
GRID*               2917               01.4155986643E+006.3018595087E+00+
*       -1.397443618E+00               0
GRID*               2918               01.7386095127E+006.3242792355E+00+
*       -1.547737996E+00               0
GRID*               2919               01.5938574772E+006.3137430048E+00+
*       -1.443593792E+00               0
GRID*               2920               01.7863685642E+006.6662020039E+00+
*       -1.702229189E+00               0
GRID*               2921               01.7392709501E+006.6698364163E+00+
*       -1.522162855E+00               0
GRID*               2922               01.5732086340E+006.6710729763E+00+
*       -1.430217779E+00               0
GRID*               2923               01.3912138052E+006.6423018080E+00+
*       -1.398176223E+00               0
GRID*               2924               01.2172327283E+006.6175244710E+00+
*       -1.407147199E+00               0
GRID*               2925               01.2872837741E+006.7603069171E+00+
*       -1.402245534E+00               0
GRID*               2926               01.1377345453E+006.7651659819E+00+
*       -1.431935244E+00               0
GRID*               2927               01.4363092375E+005.6157192171E+00+
*       -1.400965157E+00               0
GRID*               2928               01.3477704464E+005.4429182094E+00+
*       -1.384550119E+00               0
GRID*               2929               01.2597802183E+005.2677659967E+00+
*       -1.375212772E+00               0
GRID*               2930               01.1692767032E+005.0917687706E+00+
*       -1.372167439E+00               0
GRID*               2931               01.0758176371E+004.9168763569E+00+
*       -1.376073770E+00               0
GRID*               2932               09.8365523897E-014.7456693025E+00+
*       -1.387521025E+00               0
GRID*               2933               09.2715408946E-016.7738915750E+00+
*       -1.700262734E+00               0
GRID*               2934               09.0873905080E-016.6134014706E+00+
*       -1.590742622E+00               0
GRID*               2935               09.6144404996E-016.4469039868E+00+
*       -1.500359550E+00               0
GRID*               2936               01.0454571791E+006.2793950447E+00+
*       -1.440354610E+00               0
GRID*               2937               01.1414033003E+006.1123027489E+00+
*       -1.403987072E+00               0
GRID*               2938               01.2409787262E+005.9458911243E+00+
*       -1.386654169E+00               0
GRID*               2939               01.3402679278E+005.7799797371E+00+
*       -1.385910286E+00               0
GRID*               2940               07.9588138883E-014.7126552879E+00+
*       -1.465632875E+00               0
GRID*               2941               07.1132670516E-014.8704930977E+00+
*       -1.586465946E+00               0
GRID*               2942               07.6196337934E-014.9501404703E+00+
*       -1.770323843E+00               0
GRID*               2943               08.9968187501E-015.0388878619E+00+
*       -1.859661944E+00               0
GRID*               2944               01.0589415346E+005.1311958667E+00+
*       -1.904794057E+00               0
GRID*               2945               01.0713435720E+006.7622284129E+00+
*       -1.833179323E+00               0
GRID*               2946               09.6232359870E-016.6004154834E+00+
*       -1.775550319E+00               0
GRID*               2947               08.8077508683E-016.4360787451E+00+
*       -1.674658703E+00               0
GRID*               2948               08.8761023146E-016.2673559086E+00+
*       -1.555913602E+00               0
GRID*               2949               09.6043766099E-016.0976719632E+00+
*       -1.471104778E+00               0
GRID*               2950               01.0531524649E+005.9305627528E+00+
*       -1.419516059E+00               0
GRID*               2951               01.1508173833E+005.7657027147E+00+
*       -1.390847847E+00               0
GRID*               2952               01.2493626616E+005.6028508272E+00+
*       -1.379870332E+00               0
GRID*               2953               01.0681704346E+005.2493068949E+00+
*       -1.387994220E+00               0
GRID*               2954               08.8567147331E-015.2304281379E+00+
*       -1.450439969E+00               0
GRID*               2955               07.5127100043E-015.2073699085E+00+
*       -1.582814548E+00               0
GRID*               2956               07.7210551495E-015.1434692914E+00+
*       -1.755213779E+00               0
GRID*               2957               08.0129028233E-015.0582990269E+00+
*       -1.493669938E+00               0
GRID*               2958               08.7987626418E-014.8979476915E+00+
*       -1.431188761E+00               0
GRID*               2959               09.7505765394E-015.0751257456E+00+
*       -1.404030633E+00               0
GRID*               2960               07.2119468187E-015.0521636114E+00+
*       -1.636831613E+00               0
GRID*               2961               09.6836872523E-015.7484810523E+00+
*       -1.442741547E+00               0
GRID*               2962               08.8701988553E-015.5692170104E+00+
*       -1.475785115E+00               0
GRID*               2963               08.0946975547E-015.3912863341E+00+
*       -1.524753577E+00               0
GRID*               2964               01.0611110255E+005.5873323913E+00+
*       -1.402125805E+00               0
GRID*               2965               09.7201322920E-015.4101364033E+00+
*       -1.421724108E+00               0
GRID*               2966               01.1585833299E+005.4271317023E+00+
*       -1.380553817E+00               0
GRID*               2967               08.8449579692E-015.9119652372E+00+
*       -1.511048431E+00               0
GRID*               2968               08.2223156670E-015.7282130176E+00+
*       -1.560694434E+00               0
GRID*               2969               07.7911460025E-015.5522311225E+00+
*       -1.624191919E+00               0
GRID*               2970               07.7765166223E-015.3640087493E+00+
*       -1.725166153E+00               0
GRID*               2971               08.1959459535E-015.6922448262E+00+
*       -1.732547000E+00               0
GRID*               2972               09.4031368931E-015.6259851477E+00+
*       -1.841939345E+00               0
GRID*               2973               01.0899896940E+005.5350771686E+00+
*       -1.896805925E+00               0
GRID*               2974               01.0740799663E+005.3346586003E+00+
*       -1.900683032E+00               0
GRID*               2975               09.0806579382E-015.2430592508E+00+
*       -1.850843354E+00               0
GRID*               2976               09.2784621436E-015.4417734772E+00+
*       -1.847772001E+00               0
GRID*               2977               08.3026638324E-015.5397306881E+00+
*       -1.769489024E+00               0
GRID*               2978               08.3876203896E-016.0759830532E+00+
*       -1.622367060E+00               0
GRID*               2979               08.1998803511E-015.8801769138E+00+
*       -1.684511412E+00               0
GRID*               2980               09.3579668336E-015.8182016072E+00+
*       -1.825990968E+00               0
GRID*               2981               01.1011190142E+005.7360115542E+00+
*       -1.891906867E+00               0
GRID*               2982               01.1046574778E+005.9456515747E+00+
*       -1.884819842E+00               0
GRID*               2983               09.2218374769E-016.0269285935E+00+
*       -1.799586422E+00               0
GRID*               2984               08.9624275423E-016.2396674779E+00+
*       -1.750841931E+00               0
GRID*               2985               01.1018206537E+006.1911092317E+00+
*       -1.874049614E+00               0
GRID*               2986               01.0163131849E+006.4087961136E+00+
*       -1.828765431E+00               0
GRID*               2987               01.1914623397E+006.3863120868E+00+
*       -1.886798351E+00               0
GRID*               2988               01.1659182220E+006.5838859472E+00+
*       -1.874509209E+00               0
GRID*               2989               01.2349170939E+006.7665045921E+00+
*       -1.881859388E+00               0
GRID*               2990               01.4721077637E+004.6789058425E+00+
*       -1.864123259E+00               0
GRID*               2991               01.5788916684E+004.8271156975E+00+
*       -1.803996473E+00               0
GRID*               2992               01.6627333080E+004.9867020256E+00+
*       -1.712842104E+00               0
GRID*               2993               01.6802267702E+005.1553789095E+00+
*       -1.591204135E+00               0
GRID*               2994               01.6113008898E+005.3090121936E+00+
*       -1.487534624E+00               0
GRID*               2995               01.4680608426E+004.9500886578E+00+
*       -1.418658713E+00               0
GRID*               2996               01.6305148011E+004.9652056674E+00+
*       -1.528347875E+00               0
GRID*               2997               01.5456209198E+005.1288897336E+00+
*       -1.451091528E+00               0
GRID*               2998               01.3844840869E+004.7720026212E+00+
*       -1.393108099E+00               0
GRID*               2999               01.5669390821E+004.7838582865E+00+
*       -1.478861190E+00               0
GRID*               3000               01.6637233402E+004.7954760582E+00+
*       -1.641053393E+00               0
GRID*               3001               01.6134660644E+004.6277206669E+00+
*       -1.753983800E+00               0
GRID*               3002               01.5028595597E+004.6194435115E+00+
*       -1.443404978E+00               0
GRID*               3003               01.6346781363E+004.6030947340E+00+
*       -1.575569227E+00               0
GRID*               3004               01.4290814723E+005.3283865462E+00+
*       -1.889520990E+00               0
GRID*               3005               01.6105436141E+005.1963453711E+00+
*       -1.797577879E+00               0
GRID*               3006               01.4061107218E+005.1074979243E+00+
*       -1.893953721E+00               0
GRID*               3007               01.3191593562E+004.7037594499E+00+
*       -1.911801898E+00               0
GRID*               3008               01.5416321147E+004.9965051620E+00+
*       -1.837234491E+00               0
GRID*               3009               01.3932299089E+004.8767883030E+00+
*       -1.895635297E+00               0
GRID*               3010               01.7042319647E+005.3581837907E+00+
*       -1.643797578E+00               0
GRID*               3011               01.6551743836E+005.4655169392E+00+
*       -1.518061589E+00               0
GRID*               3012               01.6100880846E+005.4503982187E+00+
*       -1.810620817E+00               0
GRID*               3013               01.7212876372E+005.5963482870E+00+
*       -1.649448760E+00               0
GRID*               3014               01.4347486680E+005.7578410770E+00+
*       -1.890527551E+00               0
GRID*               3015               01.6007916442E+005.6787244231E+00+
*       -1.825905920E+00               0
GRID*               3016               01.4365586592E+005.5487162806E+00+
*       -1.889173106E+00               0
GRID*               3017               01.5732168988E+005.8897311017E+00+
*       -1.846728081E+00               0
GRID*               3018               01.6939065600E+006.0394058743E+00+
*       -1.772116043E+00               0
GRID*               3019               01.7175801538E+005.8306324950E+00+
*       -1.722368930E+00               0
GRID*               3020               01.5093171560E+006.1111971569E+00+
*       -1.873998815E+00               0
GRID*               3021               01.4235174105E+005.9310910637E+00+
*       -1.893023847E+00               0
GRID*               3022               01.6759979530E+006.2457197482E+00+
*       -1.798871136E+00               0
GRID*               3023               01.5163230553E+006.3496762673E+00+
*       -1.874064508E+00               0
GRID*               3024               01.5157793659E+006.5292638827E+00+
*       -1.875310034E+00               0
GRID*               3025               01.1194274975E+004.8700195765E+00+
*       -1.920127908E+00               0
GRID*               3026               01.1294102918E+004.9740827931E+00+
*       -1.918456625E+00               0
GRID*               3027               06.6446934982E-014.5530147087E+00+
*       -1.639711542E+00               0
GRID*               3028               06.9396735788E-014.5863949131E+00+
*       -1.554764850E+00               0
GRID*               3029               06.9451894777E-014.5941145114E+00+
*       -1.734896936E+00               0
GRID*               3030               01.1204266985E+004.7834610991E+00+
*       -1.922198945E+00               0
GRID*               3031               01.0505746530E+004.8441340229E+00+
*       -1.912734081E+00               0
GRID*               3032               01.1104435732E+004.6793979448E+00+
*       -1.923872895E+00               0
GRID*               3033               01.0019528012E+004.6764864254E+00+
*       -1.909499590E+00               0
GRID*               3034               09.7597650507E-014.7980286173E+00+
*       -1.898773717E+00               0
GRID*               3035               09.7528618569E-014.8845309351E+00+
*       -1.894948484E+00               0
GRID*               3036               07.5803703286E-014.6394721294E+00+
*       -1.802762383E+00               0
GRID*               3037               08.4744226580E-014.6698741455E+00+
*       -1.857972109E+00               0
GRID*               3038               07.1556961326E-014.6946151950E+00+
*       -1.709671108E+00               0
GRID*               3039               09.2754327290E-014.7167387563E+00+
*       -1.888040916E+00               0
GRID*               3040               08.2523550296E-014.7908904233E+00+
*       -1.837369055E+00               0
GRID*               3041               01.6150511359E+005.7946019823E+00+
*       -1.469216689E+00               0
GRID*               3042               01.5689850433E+005.7055901872E+00+
*       -1.446571977E+00               0
GRID*               3043               01.6519202571E+005.7097604396E+00+
*       -1.499829758E+00               0
GRID*               3044               01.5686387152E+005.8808897770E+00+
*       -1.442002239E+00               0
GRID*               3045               01.5227024113E+005.9648394871E+00+
*       -1.422557055E+00               0
GRID*               3046               01.4790867253E+005.8747697805E+00+
*       -1.410225473E+00               0
GRID*               3047               01.6535346930E+005.8849467929E+00+
*       -1.492103292E+00               0
GRID*               3048               01.7190436292E+005.8954927501E+00+
*       -1.562861168E+00               0
GRID*               3049               01.6883543855E+005.9807731669E+00+
*       -1.516912282E+00               0
GRID*               3050               01.4734256372E+006.0478686537E+00+
*       -1.407733723E+00               0
GRID*               3051               01.4242217590E+006.1310202807E+00+
*       -1.397990349E+00               0
GRID*               3052               01.3809982109E+006.0419546947E+00+
*       -1.391873268E+00               0
GRID*               3053               01.7185278436E+006.0714019840E+00+
*       -1.544113396E+00               0
GRID*               3054               01.6468135145E+006.0612650342E+00+
*       -1.479384727E+00               0
GRID*               3055               01.7522443025E+006.0853356179E+00+
*       -1.626160419E+00               0
GRID*               3056               01.7413571773E+006.1637120091E+00+
*       -1.569059583E+00               0
GRID*               3057               01.5640154871E+006.0539478304E+00+
*       -1.436404675E+00               0
GRID*               3058               01.6029885689E+006.1440295451E+00+
*       -1.451712761E+00               0
GRID*               3059               01.3231990902E+006.2962183427E+00+
*       -1.391352404E+00               0
GRID*               3060               01.2807166363E+006.2077852762E+00+
*       -1.390316805E+00               0
GRID*               3061               01.3732966125E+006.2134738594E+00+
*       -1.392520036E+00               0
GRID*               3062               01.2727442445E+006.3775914208E+00+
*       -1.394277463E+00               0
GRID*               3063               01.2237174504E+006.4592342327E+00+
*       -1.401273797E+00               0
GRID*               3064               01.1819803226E+006.3719873302E+00+
*       -1.405182633E+00               0
GRID*               3065               01.3653527493E+006.3833215600E+00+
*       -1.393787484E+00               0
GRID*               3066               01.4566237281E+006.3910357736E+00+
*       -1.403734154E+00               0
GRID*               3067               01.4066390853E+006.4725149530E+00+
*       -1.397627261E+00               0
GRID*               3068               01.7606091272E+006.2506933411E+00+
*       -1.598516143E+00               0
GRID*               3069               01.7116449485E+006.2378334255E+00+
*       -1.523168415E+00               0
GRID*               3070               01.7658000071E+006.2575444681E+00+
*       -1.675000000E+00               0
GRID*               3071               01.7713173232E+006.3291696996E+00+
*       -1.617545713E+00               0
GRID*               3072               01.7744775851E+006.4124771374E+00+
*       -1.655977200E+00               0
GRID*               3073               01.7288711190E+006.4029238187E+00+
*       -1.745814615E+00               0
GRID*               3074               01.7371885453E+006.4786388259E+00+
*       -1.707868560E+00               0
GRID*               3075               01.7646129591E+006.4059596381E+00+
*       -1.581085426E+00               0
GRID*               3076               01.4661561179E+006.2193953624E+00+
*       -1.405562373E+00               0
GRID*               3077               01.5551190428E+006.2253286676E+00+
*       -1.430091551E+00               0
GRID*               3078               01.5063275082E+006.3077596616E+00+
*       -1.414391739E+00               0
GRID*               3079               01.6400322936E+006.2325322619E+00+
*       -1.468820146E+00               0
GRID*               3080               01.6729928756E+006.3185901408E+00+
*       -1.486507600E+00               0
GRID*               3081               01.5464619732E+006.3969458533E+00+
*       -1.424935182E+00               0
GRID*               3082               01.6324556534E+006.4016010925E+00+
*       -1.459488085E+00               0
GRID*               3083               01.5864082076E+006.4847412151E+00+
*       -1.437431801E+00               0
GRID*               3084               01.7075704070E+006.4066858726E+00+
*       -1.508942361E+00               0
GRID*               3085               01.7407880473E+006.4878738110E+00+
*       -1.536608974E+00               0
GRID*               3086               01.7452555861E+006.5672165304E+00+
*       -1.755236823E+00               0
GRID*               3087               01.7845817878E+006.5771970743E+00+
*       -1.660130167E+00               0
GRID*               3088               01.6632274544E+006.5741731493E+00+
*       -1.819979077E+00               0
GRID*               3089               01.7220894847E+006.6719731837E+00+
*       -1.784081188E+00               0
GRID*               3090               01.7610329807E+006.5790142804E+00+
*       -1.570097000E+00               0
GRID*               3091               01.7056933578E+006.5796095369E+00+
*       -1.498448845E+00               0
GRID*               3092               01.7628197572E+006.6680192101E+00+
*       -1.612196022E+00               0
GRID*               3093               01.1754735382E+006.5354981011E+00+
*       -1.412287380E+00               0
GRID*               3094               01.1302478102E+006.6158187007E+00+
*       -1.427311333E+00               0
GRID*               3095               01.0896746270E+006.5336038484E+00+
*       -1.436966173E+00               0
GRID*               3096               01.6230750029E+006.5802205926E+00+
*       -1.450529887E+00               0
GRID*               3097               01.5354907654E+006.5756363587E+00+
*       -1.420168289E+00               0
GRID*               3098               01.6614802017E+006.6701563555E+00+
*       -1.466899706E+00               0
GRID*               3099               01.2658709533E+006.5411811140E+00+
*       -1.398706332E+00               0
GRID*               3100               01.3530592836E+006.5535266098E+00+
*       -1.395678796E+00               0
GRID*               3101               01.3039612820E+006.6300147698E+00+
*       -1.398001072E+00               0
GRID*               3102               01.4446255658E+006.5612671146E+00+
*       -1.402428320E+00               0
GRID*               3103               01.4831951323E+006.6566919077E+00+
*       -1.408558959E+00               0
GRID*               3104               01.6982425162E+006.7677289496E+00+
*       -1.805749289E+00               0
GRID*               3105               01.6092431736E+006.7758732591E+00+
*       -1.849728201E+00               0
GRID*               3106               01.7717994664E+006.7613308326E+00+
*       -1.732726069E+00               0
GRID*               3107               01.7912834795E+006.7595298441E+00+
*       -1.641800349E+00               0
GRID*               3108               01.7702239601E+006.7611822128E+00+
*       -1.549911256E+00               0
GRID*               3109               01.6963740929E+006.7680484161E+00+
*       -1.483919382E+00               0
GRID*               3110               01.0207281013E+006.8469837045E+00+
*       -1.492785933E+00               0
GRID*               3111               09.5091427221E-016.8535354432E+00+
*       -1.562907213E+00               0
GRID*               3112               01.6106035898E+006.7688370024E+00+
*       -1.441777177E+00               0
GRID*               3113               01.5151246106E+006.7776992427E+00+
*       -1.414516736E+00               0
GRID*               3114               01.3715157139E+006.8223819715E+00+
*       -1.400046156E+00               0
GRID*               3115               01.2722752555E+006.8314989079E+00+
*       -1.405699549E+00               0
GRID*               3116               01.4234680958E+006.7633219771E+00+
*       -1.401586233E+00               0
GRID*               3117               01.3392146405E+006.7013413103E+00+
*       -1.398152990E+00               0
GRID*               3118               01.2521902045E+006.6889308540E+00+
*       -1.404168138E+00               0
GRID*               3119               01.1022821713E+006.8427615759E+00+
*       -1.448832501E+00               0
GRID*               3120               01.0522288644E+006.7699113199E+00+
*       -1.467751475E+00               0
GRID*               3121               01.1970659191E+006.8339998746E+00+
*       -1.418732607E+00               0
GRID*               3122               01.2117267946E+006.7628778018E+00+
*       -1.413031304E+00               0
GRID*               3123               01.0918666933E+006.6894287731E+00+
*       -1.444483017E+00               0
GRID*               3124               01.0097205534E+006.6937275655E+00+
*       -1.487332679E+00               0
GRID*               3125               01.1770909080E+006.6914105245E+00+
*       -1.417861375E+00               0
GRID*               3126               01.1752646657E+004.9255756054E+00+
*       -1.368791087E+00               0
GRID*               3127               01.1284975604E+004.8382415335E+00+
*       -1.368869464E+00               0
GRID*               3128               01.2282198750E+004.8467991767E+00+
*       -1.368597098E+00               0
GRID*               3129               01.2221579291E+005.0129463369E+00+
*       -1.370473378E+00               0
GRID*               3130               01.1224805850E+005.0043438036E+00+
*       -1.373247713E+00               0
GRID*               3131               01.0361555351E+004.6751348262E+00+
*       -1.374579548E+00               0
GRID*               3132               09.4136172484E-014.6652861289E+00+
*       -1.395532455E+00               0
GRID*               3133               01.0818749658E+004.7527520119E+00+
*       -1.370729800E+00               0
GRID*               3134               01.0295723114E+004.8313043864E+00+
*       -1.380868135E+00               0
GRID*               3135               01.1353799949E+004.6820008778E+00+
*       -1.365220491E+00               0
GRID*               3136               01.2667566804E+005.1013239875E+00+
*       -1.373780188E+00               0
GRID*               3137               01.3118570198E+005.1892798844E+00+
*       -1.378727229E+00               0
GRID*               3138               01.2145298800E+005.1797802285E+00+
*       -1.372874467E+00               0
GRID*               3139               01.3192901452E+005.0224196986E+00+
*       -1.378973530E+00               0
GRID*               3140               01.5257759896E+005.6179870447E+00+
*       -1.429252093E+00               0
GRID*               3141               01.4815740683E+005.7032356487E+00+
*       -1.412536489E+00               0
GRID*               3142               01.4809467560E+005.5365937297E+00+
*       -1.414235427E+00               0
GRID*               3143               01.3921864810E+005.5293209268E+00+
*       -1.391883480E+00               0
GRID*               3144               01.4375927863E+005.4501726193E+00+
*       -1.402257723E+00               0
GRID*               3145               01.5674166853E+005.5389994139E+00+
*       -1.450489212E+00               0
GRID*               3146               01.3977019390E+005.3650609864E+00+
*       -1.393178277E+00               0
GRID*               3147               01.4857402352E+005.3723558042E+00+
*       -1.418152004E+00               0
GRID*               3148               01.3541617509E+005.2775017144E+00+
*       -1.385047011E+00               0
GRID*               3149               01.4052694984E+005.1989861268E+00+
*       -1.395593700E+00               0
GRID*               3150               01.3038365490E+005.3553497909E+00+
*       -1.379107857E+00               0
GRID*               3151               01.0436217938E+006.4507046321E+00+
*       -1.451220302E+00               0
GRID*               3152               01.0014693572E+006.3634031716E+00+
*       -1.466882918E+00               0
GRID*               3153               01.0893937691E+006.3664567675E+00+
*       -1.428616142E+00               0
GRID*               3154               01.0032061707E+006.5303555271E+00+
*       -1.478360294E+00               0
GRID*               3155               09.6625148305E-016.6148634893E+00+
*       -1.513316842E+00               0
GRID*               3156               09.2938884243E-016.5308206520E+00+
*       -1.541040392E+00               0
GRID*               3157               09.4269200211E-016.6933917666E+00+
*       -1.555965191E+00               0
GRID*               3158               09.3256199989E-016.8530406130E+00+
*       -1.656417776E+00               0
GRID*               3159               09.7014543762E-016.8495665593E+00+
*       -1.742838686E+00               0
GRID*               3160               09.5189952144E-016.7736368188E+00+
*       -1.610725247E+00               0
GRID*               3161               09.1794657013E-016.6936465228E+00+
*       -1.645502678E+00               0
GRID*               3162               01.4345651147E+005.7853579231E+00+
*       -1.399937769E+00               0
GRID*               3163               01.3886100785E+005.6978539814E+00+
*       -1.391398711E+00               0
GRID*               3164               01.3855897383E+005.8693968091E+00+
*       -1.391487717E+00               0
GRID*               3165               01.3361838341E+005.9524065400E+00+
*       -1.387268521E+00               0
GRID*               3166               01.2906656575E+005.8629639718E+00+
*       -1.384290066E+00               0
GRID*               3167               01.1365190637E+006.2851607950E+00+
*       -1.411568971E+00               0
GRID*               3168               01.0926281912E+006.1959697837E+00+
*       -1.419535372E+00               0
GRID*               3169               01.1859198628E+006.2013853269E+00+
*       -1.398972629E+00               0
GRID*               3170               01.2859273919E+006.0354961460E+00+
*       -1.387040007E+00               0
GRID*               3171               01.2356802315E+006.1188245882E+00+
*       -1.390925958E+00               0
GRID*               3172               01.1909162540E+006.0291588791E+00+
*       -1.393138678E+00               0
GRID*               3173               07.6618358566E-014.6180615931E+00+
*       -1.478833447E+00               0
GRID*               3174               08.4584305367E-014.6489802101E+00+
*       -1.431775743E+00               0
GRID*               3175               07.1762599879E-014.6816999989E+00+
*       -1.535837581E+00               0
GRID*               3176               07.4451860702E-014.7926318912E+00+
*       -1.518523800E+00               0
GRID*               3177               06.9351772519E-014.7585004477E+00+
*       -1.608227640E+00               0
GRID*               3178               07.3337859323E-014.8066078451E+00+
*       -1.687909414E+00               0
GRID*               3179               07.1003930944E-014.9133387123E+00+
*       -1.684109576E+00               0
GRID*               3180               07.5842674489E-014.8464551644E+00+
*       -1.780044886E+00               0
GRID*               3181               08.2666990558E-014.8948187412E+00+
*       -1.830057989E+00               0
GRID*               3182               09.0126540527E-014.9384926544E+00+
*       -1.866370429E+00               0
GRID*               3183               08.2606847375E-014.9950927663E+00+
*       -1.821610377E+00               0
GRID*               3184               01.1339785686E+005.0743599505E+00+
*       -1.916432850E+00               0
GRID*               3185               01.1439612030E+005.1784231885E+00+
*       -1.914762187E+00               0
GRID*               3186               01.0543041195E+005.0309334034E+00+
*       -1.907331385E+00               0
GRID*               3187               09.7314103456E-014.9850153518E+00+
*       -1.889924561E+00               0
GRID*               3188               09.7791344947E-015.0852556714E+00+
*       -1.886821846E+00               0
GRID*               3189               01.3434492100E+005.6093206177E+00+
*       -1.384921118E+00               0
GRID*               3190               01.2986907889E+005.5229053431E+00+
*       -1.380279700E+00               0
GRID*               3191               01.2453856492E+005.7729450443E+00+
*       -1.382974574E+00               0
GRID*               3192               01.1958217725E+005.8558181179E+00+
*       -1.387918626E+00               0
GRID*               3193               01.2948601398E+005.6914251992E+00+
*       -1.382038616E+00               0
GRID*               3194               01.1999441150E+005.6843237995E+00+
*       -1.383368274E+00               0
GRID*               3195               01.0480478716E+006.1053923509E+00+
*       -1.429970431E+00               0
GRID*               3196               01.0022951391E+006.1886190196E+00+
*       -1.454458595E+00               0
GRID*               3197               01.0052885266E+006.0143185323E+00+
*       -1.442072981E+00               0
GRID*               3198               01.0969927831E+006.0214763976E+00+
*       -1.410752376E+00               0
GRID*               3199               01.1460089927E+005.9384259867E+00+
*       -1.397090995E+00               0
GRID*               3200               01.1014420556E+005.8482235600E+00+
*       -1.402801481E+00               0
GRID*               3201               09.5811930337E-016.2744070703E+00+
*       -1.487039355E+00               0
GRID*               3202               09.1958162582E-016.1830461472E+00+
*       -1.508694298E+00               0
GRID*               3203               09.2452714071E-016.3571299477E+00+
*       -1.528136576E+00               0
GRID*               3204               09.2110956839E-016.4414913660E+00+
*       -1.587509126E+00               0
GRID*               3205               08.8419265914E-016.3517173269E+00+
*       -1.615286152E+00               0
GRID*               3206               08.9475706882E-016.5247401079E+00+
*       -1.632700662E+00               0
GRID*               3207               01.0409487282E+006.8439020316E+00+
*       -1.811412344E+00               0
GRID*               3208               01.1309643169E+006.8355829906E+00+
*       -1.853270832E+00               0
GRID*               3209               09.3553132475E-016.6069084770E+00+
*       -1.683146471E+00               0
GRID*               3210               09.2154934277E-016.5182471143E+00+
*       -1.725104511E+00               0
GRID*               3211               09.4067757516E-016.6876264233E+00+
*       -1.740852964E+00               0
GRID*               3212               09.8718257507E-016.7695042846E+00+
*       -1.779557737E+00               0
GRID*               3213               01.0146288512E+006.6815964994E+00+
*       -1.807740427E+00               0
GRID*               3214               01.1184710449E+005.1705964788E+00+
*       -1.377931492E+00               0
GRID*               3215               01.1635864501E+005.2586636522E+00+
*       -1.376092513E+00               0
GRID*               3216               01.0213088579E+005.1622619113E+00+
*       -1.394910112E+00               0
GRID*               3217               09.7441043872E-015.2402283955E+00+
*       -1.412084449E+00               0
GRID*               3218               09.2917214967E-015.1529367922E+00+
*       -1.424493855E+00               0
GRID*               3219               01.0711482217E+005.0836455270E+00+
*       -1.381946375E+00               0
GRID*               3220               01.0249089029E+004.9960899265E+00+
*       -1.387656270E+00               0
GRID*               3221               09.7576959809E-014.9077364213E+00+
*       -1.396327360E+00               0
GRID*               3222               09.3070217213E-014.8219623414E+00+
*       -1.406296886E+00               0
GRID*               3223               09.2692400572E-014.9866099008E+00+
*       -1.416262446E+00               0
GRID*               3224               08.4236693248E-015.1445070925E+00+
*       -1.470394577E+00               0
GRID*               3225               08.0740839129E-015.2202213000E+00+
*       -1.505894943E+00               0
GRID*               3226               07.7147054989E-015.1334275692E+00+
*       -1.534531516E+00               0
GRID*               3227               08.8370492504E-015.0672982935E+00+
*       -1.440364888E+00               0
GRID*               3228               08.3856230008E-014.9783761433E+00+
*       -1.459234592E+00               0
GRID*               3229               07.6708254095E-015.0468160823E+00+
*       -1.762814551E+00               0
GRID*               3230               08.2969843212E-015.0919399706E+00+
*       -1.815664087E+00               0
GRID*               3231               08.8616585028E-014.7296430081E+00+
*       -1.418350118E+00               0
GRID*               3232               08.3706586651E-014.8053951805E+00+
*       -1.447072010E+00               0
GRID*               3233               07.8074371767E-014.8859933709E+00+
*       -1.493598992E+00               0
GRID*               3234               07.3390637473E-015.1300306350E+00+
*       -1.609350547E+00               0
GRID*               3235               07.4676123808E-015.0569228715E+00+
*       -1.557375526E+00               0
GRID*               3236               07.3580692078E-015.0990522548E+00+
*       -1.699686588E+00               0
GRID*               3237               07.2824744667E-015.0026813440E+00+
*       -1.708719968E+00               0
GRID*               3238               07.3766849955E-015.1781377955E+00+
*       -1.672704364E+00               0
GRID*               3239               07.1438117577E-014.9615430298E+00+
*       -1.611272723E+00               0
GRID*               3240               07.5072179712E-014.9650749859E+00+
*       -1.535919364E+00               0
GRID*               3241               01.0576747253E+005.7573851490E+00+
*       -1.410223046E+00               0
GRID*               3242               01.0103441707E+005.8395795051E+00+
*       -1.430071762E+00               0
GRID*               3243               01.1058175405E+005.6765463850E+00+
*       -1.395617388E+00               0
GRID*               3244               01.1545705676E+005.5952470664E+00+
*       -1.385399051E+00               0
GRID*               3245               01.0138521722E+005.6680363918E+00+
*       -1.419825160E+00               0
GRID*               3246               09.2700007258E-015.6589383650E+00+
*       -1.458000695E+00               0
GRID*               3247               09.7078994709E-015.5787192974E+00+
*       -1.431469774E+00               0
GRID*               3248               09.2801668003E-015.4898739636E+00+
*       -1.445814703E+00               0
GRID*               3249               01.0162631303E+005.4987821918E+00+
*       -1.410898206E+00               0
GRID*               3250               08.4670179333E-015.4804375399E+00+
*       -1.498492396E+00               0
GRID*               3251               08.8459240263E-015.4014821958E+00+
*       -1.463823108E+00               0
GRID*               3252               08.4465955938E-015.3112347649E+00+
*       -1.483730049E+00               0
GRID*               3253               07.8037037795E-015.2993281213E+00+
*       -1.553784062E+00               0
GRID*               3254               09.2827317338E-015.3203597855E+00+
*       -1.434858851E+00               0
GRID*               3255               01.0194140379E+005.3298286661E+00+
*       -1.402415146E+00               0
GRID*               3256               01.2039237346E+005.5150096790E+00+
*       -1.379378320E+00               0
GRID*               3257               01.2532820358E+005.4351023691E+00+
*       -1.377255350E+00               0
GRID*               3258               01.1095079842E+005.5072988876E+00+
*       -1.389225354E+00               0
GRID*               3259               01.0639044068E+005.4188694665E+00+
*       -1.394933907E+00               0
GRID*               3260               01.2091225998E+005.3474873235E+00+
*       -1.375864462E+00               0
GRID*               3261               01.1132395590E+005.3382461592E+00+
*       -1.383371514E+00               0
GRID*               3262               09.6385584258E-015.9219040259E+00+
*       -1.456404816E+00               0
GRID*               3263               09.2139637704E-016.0049499330E+00+
*       -1.489668895E+00               0
GRID*               3264               09.2386760724E-015.8305435792E+00+
*       -1.472972679E+00               0
GRID*               3265               08.5336368181E-015.8200891274E+00+
*       -1.535871433E+00               0
GRID*               3266               08.8671759086E-015.7393916165E+00+
*       -1.491477256E+00               0
GRID*               3267               08.5023100182E-015.6492390653E+00+
*       -1.513946268E+00               0
GRID*               3268               08.0067308348E-015.6402220700E+00+
*       -1.592443176E+00               0
GRID*               3269               08.1770933916E-015.5625279284E+00+
*       -1.539337762E+00               0
GRID*               3270               07.6446133133E-015.2856893289E+00+
*       -1.653990351E+00               0
GRID*               3271               07.7409180305E-015.2538032931E+00+
*       -1.740580914E+00               0
GRID*               3272               07.9356070885E-015.3776475417E+00+
*       -1.624959865E+00               0
GRID*               3273               07.8707810186E-015.4725964849E+00+
*       -1.570903482E+00               0
GRID*               3274               07.7021430508E-015.4590356577E+00+
*       -1.676208932E+00               0
GRID*               3275               01.1515001180E+005.2801612619E+00+
*       -1.912940189E+00               0
GRID*               3276               01.0665103462E+005.2329273440E+00+
*       -1.902741905E+00               0
GRID*               3277               01.1614826403E+005.3842245158E+00+
*       -1.911269997E+00               0
GRID*               3278               01.0820345148E+005.4348679545E+00+
*       -1.898746580E+00               0
GRID*               3279               01.1694140876E+005.4844391122E+00+
*       -1.909515422E+00               0
GRID*               3280               09.0384911783E-015.1409760133E+00+
*       -1.855294607E+00               0
GRID*               3281               08.3464478900E-015.1939386342E+00+
*       -1.810062629E+00               0
GRID*               3282               09.8176187448E-015.1873891086E+00+
*       -1.883287806E+00               0
GRID*               3283               09.8939973812E-015.2891084924E+00+
*       -1.880939297E+00               0
GRID*               3284               08.3340392751E-015.3046645254E+00+
*       -1.798650303E+00               0
GRID*               3285               09.9927903640E-015.3884665238E+00+
*       -1.879421450E+00               0
GRID*               3286               09.1795482490E-015.3424164797E+00+
*       -1.849309436E+00               0
GRID*               3287               01.0072878855E+005.4886663699E+00+
*       -1.877255482E+00               0
GRID*               3288               09.3407484903E-015.5338799599E+00+
*       -1.844865456E+00               0
GRID*               3289               01.0133144977E+005.5807992025E+00+
*       -1.874814791E+00               0
GRID*               3290               08.0255214419E-015.4520219790E+00+
*       -1.748328380E+00               0
GRID*               3291               07.8810522756E-015.5478808331E+00+
*       -1.702654790E+00               0
GRID*               3292               08.4336615947E-015.4040102544E+00+
*       -1.796983242E+00               0
GRID*               3293               08.7559071969E-015.4911772753E+00+
*       -1.813477433E+00               0
GRID*               3294               08.8210499143E-015.5832468137E+00+
*       -1.810093958E+00               0
GRID*               3295               08.2429136152E-015.6160754195E+00+
*       -1.751624841E+00               0
GRID*               3296               08.7273937021E-015.6599906030E+00+
*       -1.795687477E+00               0
GRID*               3297               07.9935459780E-015.6222379743E+00+
*       -1.678369459E+00               0
GRID*               3298               08.2091308103E-015.7102289219E+00+
*       -1.646620717E+00               0
GRID*               3299               08.2110980091E-015.8041949657E+00+
*       -1.622602923E+00               0
GRID*               3300               08.1813368694E-015.7864006651E+00+
*       -1.709274154E+00               0
GRID*               3301               08.5224191602E-015.8960710755E+00+
*       -1.597779922E+00               0
GRID*               3302               08.8318586549E-016.0887480492E+00+
*       -1.534291990E+00               0
GRID*               3303               08.5955053971E-016.1720851176E+00+
*       -1.587652111E+00               0
GRID*               3304               08.5255265471E-015.9950258122E+00+
*       -1.561484012E+00               0
GRID*               3305               08.2937503704E-015.9780799835E+00+
*       -1.653439236E+00               0
GRID*               3306               08.7207640267E-015.7558955193E+00+
*       -1.785303699E+00               0
GRID*               3307               09.3799164829E-015.7221030283E+00+
*       -1.834125183E+00               0
GRID*               3308               08.6425247988E-015.8507918788E+00+
*       -1.766610474E+00               0
GRID*               3309               01.0190138595E+005.6812440808E+00+
*       -1.871837632E+00               0
GRID*               3310               01.0158546626E+005.7774721983E+00+
*       -1.865890834E+00               0
GRID*               3311               01.1793966716E+005.5885023551E+00+
*       -1.907844785E+00               0
GRID*               3312               01.0955528333E+005.6355447360E+00+
*       -1.894367093E+00               0
GRID*               3313               01.1848968934E+005.6889834618E+00+
*       -1.905863140E+00               0
GRID*               3314               01.1948797025E+005.7930466670E+00+
*       -1.904191145E+00               0
GRID*               3315               01.1964846960E+005.8978996365E+00+
*       -1.901703537E+00               0
GRID*               3316               01.2064678376E+006.0019627927E+00+
*       -1.900029793E+00               0
GRID*               3317               01.1028742867E+005.8408336733E+00+
*       -1.888420358E+00               0
GRID*               3318               01.0179703972E+005.8822399372E+00+
*       -1.861179514E+00               0
GRID*               3319               08.7108589140E-015.9535527537E+00+
*       -1.742048917E+00               0
GRID*               3320               08.8047289332E-016.0514558233E+00+
*       -1.710976741E+00               0
GRID*               3321               09.2860049248E-015.9226123709E+00+
*       -1.813303252E+00               0
GRID*               3322               01.0091444172E+005.9868645181E+00+
*       -1.851798110E+00               0
GRID*               3323               08.5358509824E-016.1594114756E+00+
*       -1.690664760E+00               0
GRID*               3324               09.0776386545E-016.1334702786E+00+
*       -1.776695052E+00               0
GRID*               3325               08.9192649284E-016.2535116933E+00+
*       -1.653377767E+00               0
GRID*               3326               08.8850892053E-016.3378731115E+00+
*       -1.712750317E+00               0
GRID*               3327               01.1032014950E+006.0683862817E+00+
*       -1.879574808E+00               0
GRID*               3328               01.2047009855E+006.1247559200E+00+
*       -1.896559605E+00               0
GRID*               3329               01.0084998538E+006.1094822387E+00+
*       -1.844212177E+00               0
GRID*               3330               09.8988437065E-016.2165486304E+00+
*       -1.827852678E+00               0
GRID*               3331               09.5229410320E-016.3247165151E+00+
*       -1.794862641E+00               0
GRID*               3332               01.0579715967E+006.3001045399E+00+
*       -1.854197316E+00               0
GRID*               3333               09.3160153442E-016.4244328991E+00+
*       -1.766215715E+00               0
GRID*               3334               09.8768852952E-016.5048067873E+00+
*       -1.804496542E+00               0
GRID*               3335               01.1464554306E+006.2887429728E+00+
*       -1.881319403E+00               0
GRID*               3336               01.1016170606E+006.3978856865E+00+
*       -1.864660603E+00               0
GRID*               3337               01.2146842422E+006.2288190830E+00+
*       -1.894887455E+00               0
GRID*               3338               01.2602298867E+006.3262789059E+00+
*       -1.896791097E+00               0
GRID*               3339               01.0580653854E+006.5929478437E+00+
*       -1.837443166E+00               0
GRID*               3340               01.1176303228E+006.6732007578E+00+
*       -1.856709677E+00               0
GRID*               3341               01.0896041665E+006.4965542278E+00+
*       -1.855719585E+00               0
GRID*               3342               01.1786214379E+006.4851114491E+00+
*       -1.881005443E+00               0
GRID*               3343               01.2702130350E+006.4303420532E+00+
*       -1.895116852E+00               0
GRID*               3344               01.2570624224E+006.5292069838E+00+
*       -1.891557386E+00               0
GRID*               3345               01.2670452193E+006.6332702243E+00+
*       -1.889886850E+00               0
GRID*               3346               01.2003175146E+006.6752125196E+00+
*       -1.878652159E+00               0
GRID*               3347               01.3019603592E+006.7244925001E+00+
*       -1.890632821E+00               0
GRID*               3348               01.1514270515E+006.7646223005E+00+
*       -1.863143918E+00               0
GRID*               3349               01.2135560013E+006.8376098018E+00+
*       -1.875574952E+00               0
GRID*               3350               01.3119434750E+006.8285556613E+00+
*       -1.888959263E+00               0
GRID*               3351               01.4165054168E+005.0304092119E+00+
*       -1.399904225E+00               0
GRID*               3352               01.3730751628E+004.9420455085E+00+
*       -1.389162521E+00               0
GRID*               3353               01.5072649433E+005.0394737507E+00+
*       -1.433902619E+00               0
GRID*               3354               01.5560675116E+004.9572413596E+00+
*       -1.463666932E+00               0
GRID*               3355               01.5917475323E+005.0468132763E+00+
*       -1.485222934E+00               0
GRID*               3356               01.4570799949E+005.1197222679E+00+
*       -1.411695470E+00               0
GRID*               3357               01.4974569826E+005.2079882747E+00+
*       -1.425640998E+00               0
GRID*               3358               01.5326780603E+005.2979195459E+00+
*       -1.439527512E+00               0
GRID*               3359               01.5696260010E+005.3831562478E+00+
*       -1.456452838E+00               0
GRID*               3360               01.6553707856E+005.0602922884E+00+
*       -1.559776005E+00               0
GRID*               3361               01.6466240545E+004.9759538465E+00+
*       -1.620594990E+00               0
GRID*               3362               01.6714800391E+005.0710404675E+00+
*       -1.652023119E+00               0
GRID*               3363               01.5791231828E+005.2189118253E+00+
*       -1.468349537E+00               0
GRID*               3364               01.6253834478E+005.1413089941E+00+
*       -1.509642043E+00               0
GRID*               3365               01.6530915798E+005.2316930321E+00+
*       -1.533838126E+00               0
GRID*               3366               01.3301547876E+004.8530354747E+00+
*       -1.380530863E+00               0
GRID*               3367               01.2838408014E+004.7657829229E+00+
*       -1.373028919E+00               0
GRID*               3368               01.4266029038E+004.8610310654E+00+
*       -1.404911336E+00               0
GRID*               3369               01.5195878404E+004.8668603331E+00+
*       -1.444963515E+00               0
GRID*               3370               01.4797970854E+004.7777177885E+00+
*       -1.427410693E+00               0
GRID*               3371               01.6672738595E+004.8907934459E+00+
*       -1.677729157E+00               0
GRID*               3372               01.6404163848E+004.8099450297E+00+
*       -1.732302570E+00               0
GRID*               3373               01.6260596532E+004.9065391458E+00+
*       -1.762512796E+00               0
GRID*               3374               01.6565617874E+004.8796907858E+00+
*       -1.580904837E+00               0
GRID*               3375               01.6000747208E+004.8744502211E+00+
*       -1.502164565E+00               0
GRID*               3376               01.6337358877E+004.7883900685E+00+
*       -1.549443349E+00               0
GRID*               3377               01.2322123496E+004.6703931186E+00+
*       -1.367018935E+00               0
GRID*               3378               01.4973003728E+004.5796342719E+00+
*       -1.848674647E+00               0
GRID*               3379               01.4161381728E+004.6192078233E+00+
*       -1.885589804E+00               0
GRID*               3380               01.5977340731E+004.7273292902E+00+
*       -1.780553468E+00               0
GRID*               3381               01.6385947023E+004.7115983626E+00+
*       -1.697518596E+00               0
GRID*               3382               01.5496949978E+004.6528910110E+00+
*       -1.818077347E+00               0
GRID*               3383               01.5706229074E+004.5538604461E+00+
*       -1.795910761E+00               0
GRID*               3384               01.5273878138E+004.7528893129E+00+
*       -1.837064261E+00               0
GRID*               3385               01.3338491173E+004.6766143225E+00+
*       -1.381407467E+00               0
GRID*               3386               01.4452793441E+004.6956451557E+00+
*       -1.414302191E+00               0
GRID*               3387               01.5353969327E+004.7016342251E+00+
*       -1.460278302E+00               0
GRID*               3388               01.3959407011E+004.6002168962E+00+
*       -1.398184120E+00               0
GRID*               3389               01.4810586779E+004.5681443288E+00+
*       -1.433367877E+00               0
GRID*               3390               01.6492007383E+004.6992853961E+00+
*       -1.608311310E+00               0
GRID*               3391               01.6240721004E+004.6154077005E+00+
*       -1.664776514E+00               0
GRID*               3392               01.6069023626E+004.6930542367E+00+
*       -1.522288837E+00               0
GRID*               3393               01.5794444760E+004.6105548664E+00+
*       -1.499064516E+00               0
GRID*               3394               01.6212488265E+004.5053862613E+00+
*       -1.728260188E+00               0
GRID*               3395               01.6297375520E+004.4931626341E+00+
*       -1.637931036E+00               0
GRID*               3396               01.6135910121E+004.5120399170E+00+
*       -1.551376340E+00               0
GRID*               3397               01.5519233575E+004.5199557399E+00+
*       -1.480178077E+00               0
GRID*               3398               01.4175961953E+005.2179422911E+00+
*       -1.891739509E+00               0
GRID*               3399               01.5249002426E+005.2620905839E+00+
*       -1.853795776E+00               0
GRID*               3400               01.5135535052E+005.1516398683E+00+
*       -1.856383417E+00               0
GRID*               3401               01.3301597958E+005.2769445095E+00+
*       -1.908972012E+00               0
GRID*               3402               01.3401390607E+005.3810066079E+00+
*       -1.907211385E+00               0
GRID*               3403               01.3186378460E+005.1664992008E+00+
*       -1.910962018E+00               0
GRID*               3404               01.3086582091E+005.0624370919E+00+
*       -1.912719949E+00               0
GRID*               3405               01.3389590946E+004.6316677899E+00+
*       -1.907627603E+00               0
GRID*               3406               01.3971482409E+004.6912753412E+00+
*       -1.892762722E+00               0
GRID*               3407               01.2447519175E+004.6524420828E+00+
*       -1.922346854E+00               0
GRID*               3408               01.2547329612E+004.7565043755E+00+
*       -1.920607777E+00               0
GRID*               3409               01.6366384611E+005.0915236984E+00+
*       -1.755209992E+00               0
GRID*               3410               01.6453851922E+005.1758621403E+00+
*       -1.694391007E+00               0
GRID*               3411               01.5769119415E+005.0963703400E+00+
*       -1.818556667E+00               0
GRID*               3412               01.4758858040E+005.0519051826E+00+
*       -1.870560640E+00               0
GRID*               3413               01.6117090111E+004.9909842576E+00+
*       -1.784234628E+00               0
GRID*               3414               01.3023136938E+004.9470812375E+00+
*       -1.914036771E+00               0
GRID*               3415               01.2923333770E+004.8430193221E+00+
*       -1.915795970E+00               0
GRID*               3416               01.3996671138E+004.9921440581E+00+
*       -1.894801944E+00               0
GRID*               3417               01.4693003175E+004.9365551506E+00+
*       -1.870954677E+00               0
GRID*               3418               01.5610176484E+004.9117557620E+00+
*       -1.821653623E+00               0
GRID*               3419               01.4909195023E+004.8516833075E+00+
*       -1.859579180E+00               0
GRID*               3420               01.4333986530E+004.7778140716E+00+
*       -1.881878097E+00               0
GRID*               3421               01.3563497380E+004.7902689197E+00+
*       -1.904341715E+00               0
GRID*               3422               01.5940009225E+005.4612547993E+00+
*       -1.468495435E+00               0
GRID*               3423               01.6335352432E+005.5429454918E+00+
*       -1.493416882E+00               0
GRID*               3424               01.6337544160E+005.3872294998E+00+
*       -1.502242077E+00               0
GRID*               3425               01.6755570924E+005.3323599505E+00+
*       -1.555833785E+00               0
GRID*               3426               01.6917683646E+005.4110100028E+00+
*       -1.575602666E+00               0
GRID*               3427               01.6943599772E+005.2566304707E+00+
*       -1.617153123E+00               0
GRID*               3428               01.6746378090E+005.2760506267E+00+
*       -1.729570498E+00               0
GRID*               3429               01.6103218399E+005.3233901026E+00+
*       -1.804230626E+00               0
GRID*               3430               01.5230824992E+005.3892109196E+00+
*       -1.857689782E+00               0
GRID*               3431               01.6884373030E+005.6068407123E+00+
*       -1.546628813E+00               0
GRID*               3432               01.7059161555E+005.6977930352E+00+
*       -1.590912125E+00               0
GRID*               3433               01.6776741590E+005.4028601786E+00+
*       -1.739028098E+00               0
GRID*               3434               01.7013804792E+005.5300132226E+00+
*       -1.578203181E+00               0
GRID*               3435               01.7127930710E+005.4772634425E+00+
*       -1.646621118E+00               0
GRID*               3436               01.6844327179E+005.5220679000E+00+
*       -1.741278381E+00               0
GRID*               3437               01.3437094602E+005.4911746733E+00+
*       -1.906252632E+00               0
GRID*               3438               01.3536890898E+005.5952367952E+00+
*       -1.904495672E+00               0
GRID*               3439               01.4328392960E+005.4385491224E+00+
*       -1.889370801E+00               0
GRID*               3440               01.5270907360E+005.4993663596E+00+
*       -1.858353028E+00               0
GRID*               3441               01.6056030443E+005.5645523229E+00+
*       -1.818529520E+00               0
GRID*               3442               01.6836456435E+005.6359770273E+00+
*       -1.753007158E+00               0
GRID*               3443               01.5209207449E+005.6136153846E+00+
*       -1.863159320E+00               0
GRID*               3444               01.3526064911E+005.6997974248E+00+
*       -1.904054103E+00               0
GRID*               3445               01.3625869423E+005.8038595914E+00+
*       -1.902304570E+00               0
GRID*               3446               01.4356720908E+005.6532782809E+00+
*       -1.889925886E+00               0
GRID*               3447               01.5204395610E+005.7181616225E+00+
*       -1.865153291E+00               0
GRID*               3448               01.7177740513E+006.0157822493E+00+
*       -1.684471560E+00               0
GRID*               3449               01.7283768112E+006.1089592429E+00+
*       -1.713804902E+00               0
GRID*               3450               01.7431198919E+005.9104288799E+00+
*       -1.660848765E+00               0
GRID*               3451               01.7075643890E+005.9348942378E+00+
*       -1.748633613E+00               0
GRID*               3452               01.7040624138E+005.8149351392E+00+
*       -1.627372210E+00               0
GRID*               3453               01.7194338955E+005.7134903910E+00+
*       -1.685908845E+00               0
GRID*               3454               01.6658930663E+005.7542331039E+00+
*       -1.780918250E+00               0
GRID*               3455               01.5873011282E+005.7842114809E+00+
*       -1.836894211E+00               0
GRID*               3456               01.5051129212E+005.8237427419E+00+
*       -1.872068490E+00               0
GRID*               3457               01.6551877431E+005.8595535751E+00+
*       -1.795955596E+00               0
GRID*               3458               01.6366787976E+005.9643786329E+00+
*       -1.814079518E+00               0
GRID*               3459               01.4103277320E+006.0845987632E+00+
*       -1.894902973E+00               0
GRID*               3460               01.4203056604E+006.1886608497E+00+
*       -1.893134553E+00               0
GRID*               3461               01.4291584887E+005.8444657353E+00+
*       -1.891905501E+00               0
GRID*               3462               01.4998618227E+005.9103574384E+00+
*       -1.874709031E+00               0
GRID*               3463               01.3567889637E+005.8904809986E+00+
*       -1.902318409E+00               0
GRID*               3464               01.3667703120E+005.9945432644E+00+
*       -1.900579845E+00               0
GRID*               3465               01.4666138018E+006.0211406922E+00+
*       -1.884409416E+00               0
GRID*               3466               01.5418057884E+006.0004416822E+00+
*       -1.861895356E+00               0
GRID*               3467               01.6079533152E+006.0749426373E+00+
*       -1.834575879E+00               0
GRID*               3468               01.7351809364E+006.2110201555E+00+
*       -1.736903483E+00               0
GRID*               3469               01.7288418411E+006.2907093809E+00+
*       -1.752477977E+00               0
GRID*               3470               01.6854518807E+006.1425305853E+00+
*       -1.786096121E+00               0
GRID*               3471               01.5958951549E+006.1782874714E+00+
*       -1.843223427E+00               0
GRID*               3472               01.4236254551E+006.3079019725E+00+
*       -1.892237171E+00               0
GRID*               3473               01.4336042285E+006.4119640856E+00+
*       -1.890475144E+00               0
GRID*               3474               01.5128340983E+006.2304362423E+00+
*       -1.874075649E+00               0
GRID*               3475               01.5997584729E+006.2975114807E+00+
*       -1.844247081E+00               0
GRID*               3476               01.6837909443E+006.3574025697E+00+
*       -1.798289885E+00               0
GRID*               3477               01.6073887280E+006.4092037337E+00+
*       -1.843383275E+00               0
GRID*               3478               01.4783522200E+006.7773753367E+00+
*       -1.882883497E+00               0
GRID*               3479               01.5037148545E+006.6808302142E+00+
*       -1.878473911E+00               0
GRID*               3480               01.5750088503E+006.6042951494E+00+
*       -1.859208697E+00               0
GRID*               3481               01.4431388268E+006.6058201253E+00+
*       -1.888371001E+00               0
GRID*               3482               01.4331589986E+006.5017579789E+00+
*       -1.890125179E+00               0
GRID*               3483               01.5160628957E+006.4394697833E+00+
*       -1.874735112E+00               0
GRID*               3484               01.6075363722E+006.4989807183E+00+
*       -1.845242232E+00               0
GRID*               2581               01.2105499979E+004.2504508144E+00+
*       -2.076048851E+00               0
GRID*               2582               01.1002715113E+004.1092780727E+00+
*       -2.076048851E+00               0
GRID*               2583               01.4394578538E+003.0338826265E+00+
*       -2.076048851E+00               0
GRID*               2584               01.2807456108E+003.1335296240E+00+
*       -2.076048851E+00               0
GRID*               2585               01.7465814444E+003.4353609018E+00+
*       -2.076048851E+00               0
GRID*               2586               01.5749489876E+003.5505710430E+00+
*       -2.076048851E+00               0
GRID*               2587               01.7322582334E+003.6656879447E+00+
*       -2.076048851E+00               0
GRID*               2588               01.4168771431E+004.1742376574E+00+
*       -2.076048851E+00               0
GRID*               2589               01.3917256517E+003.9671129924E+00+
*       -2.076048851E+00               0
GRID*               2590               01.2621285258E+004.0858382329E+00+
*       -2.076048851E+00               0
GRID*               2591               01.5880535346E+003.9988931099E+00+
*       -2.076048851E+00               0
GRID*               2592               01.7119239217E+003.8538447184E+00+
*       -2.076048851E+00               0
GRID*               2593               01.5400826557E+003.7852959209E+00+
*       -2.076048851E+00               0
GRID*               2594               01.4342897985E+003.2260250795E+00+
*       -2.076048851E+00               0
GRID*               2595               01.5859408155E+003.3230795249E+00+
*       -2.076048851E+00               0
GRID*               2596               01.5752034856E+003.1303331039E+00+
*       -2.076048851E+00               0
GRID*               2597               05.8497967658E-013.6691418510E+00+
*       -2.076048851E+00               0
GRID*               2598               04.1693719343E-013.7555263498E+00+
*       -2.076048851E+00               0
GRID*               2599               01.0210550264E+004.2889358825E+00+
*       -2.076048851E+00               0
GRID*               2600               06.1636178836E-014.0866824831E+00+
*       -2.076048851E+00               0
GRID*               2601               06.2161444643E-013.8800435458E+00+
*       -2.076048851E+00               0
GRID*               2602               07.8174653301E-014.0208043691E+00+
*       -2.076048851E+00               0
GRID*               2603               09.0060416023E-014.1509397282E+00+
*       -2.076048851E+00               0
GRID*               2604               07.2180789719E-014.1769116300E+00+
*       -2.076048851E+00               0
GRID*               2605               01.2678293563E+002.9500286257E+00+
*       -2.076048851E+00               0
GRID*               2606               07.5646078206E-012.9549940932E+00+
*       -2.076048851E+00               0
GRID*               2607               07.7363785305E-013.1534145763E+00+
*       -2.076048851E+00               0
GRID*               2608               09.4556091246E-013.0115299243E+00+
*       -2.076048851E+00               0
GRID*               2609               01.1089776205E+002.9022340586E+00+
*       -2.076048851E+00               0
GRID*               2610               01.1143822173E+003.0716051172E+00+
*       -2.076048851E+00               0
GRID*               2611               06.1578824883E-013.2834933063E+00+
*       -2.076048851E+00               0
GRID*               2612               04.4854531174E-013.4736696636E+00+
*       -2.076048851E+00               0
GRID*               2613               06.0925982923E-013.0842641095E+00+
*       -2.076048851E+00               0
GRID*               2614               01.1481542585E+004.0184350121E+00+
*       -2.076048851E+00               0
GRID*               2615               01.0528818911E+004.0272731146E+00+
*       -2.076048851E+00               0
GRID*               2616               01.8288875082E+003.6170031295E+00+
*       -2.076048851E+00               0
GRID*               2617               01.8138872541E+003.7333512058E+00+
*       -2.076048851E+00               0
GRID*               2618               01.7394198389E+003.5505244233E+00+
*       -2.076048851E+00               0
GRID*               2619               01.6607652160E+003.4929659724E+00+
*       -2.076048851E+00               0
GRID*               2620               01.6536036105E+003.6081294939E+00+
*       -2.076048851E+00               0
GRID*               2621               01.8360491137E+003.5018396081E+00+
*       -2.076048851E+00               0
GRID*               2622               01.8177523227E+003.3859273376E+00+
*       -2.076048851E+00               0
GRID*               2623               01.2938813287E+003.9473524720E+00+
*       -2.076048851E+00               0
GRID*               2624               01.3718316551E+003.8921447538E+00+
*       -2.076048851E+00               0
GRID*               2625               01.1812000186E+004.0975581528E+00+
*       -2.076048851E+00               0
GRID*               2626               01.1554107546E+004.1798644436E+00+
*       -2.076048851E+00               0
GRID*               2627               01.2363392619E+004.1681445237E+00+
*       -2.076048851E+00               0
GRID*               2628               01.2290827657E+004.0067150922E+00+
*       -2.076048851E+00               0
GRID*               2629               01.3269270888E+004.0264756126E+00+
*       -2.076048851E+00               0
GRID*               2630               01.3395028345E+004.1300379452E+00+
*       -2.076048851E+00               0
GRID*               2631               01.4043013974E+004.0706753249E+00+
*       -2.076048851E+00               0
GRID*               2632               01.3676309548E+004.2860407476E+00+
*       -2.076048851E+00               0
GRID*               2633               01.4550710563E+004.2505557731E+00+
*       -2.076048851E+00               0
GRID*               2634               01.3137135705E+004.2123442359E+00+
*       -2.076048851E+00               0
GRID*               2635               01.2644673822E+004.3241473261E+00+
*       -2.076048851E+00               0
GRID*               2636               01.6243950425E+004.0994292762E+00+
*       -2.076048851E+00               0
GRID*               2637               01.6970884555E+004.0084267522E+00+
*       -2.076048851E+00               0
GRID*               2638               01.5024653388E+004.0865653837E+00+
*       -2.076048851E+00               0
GRID*               2639               01.4898895932E+003.9830030511E+00+
*       -2.076048851E+00               0
GRID*               2640               01.5388068468E+004.1871015500E+00+
*       -2.076048851E+00               0
GRID*               2641               01.8037200982E+003.8274295926E+00+
*       -2.076048851E+00               0
GRID*               2642               01.7220910776E+003.7597663315E+00+
*       -2.076048851E+00               0
GRID*               2643               01.7590236491E+003.9359025564E+00+
*       -2.076048851E+00               0
GRID*               2644               01.6499887282E+003.9263689142E+00+
*       -2.076048851E+00               0
GRID*               2645               01.5640680951E+003.8920945154E+00+
*       -2.076048851E+00               0
GRID*               2646               01.6260032887E+003.8195703197E+00+
*       -2.076048851E+00               0
GRID*               2647               01.4659041537E+003.8762044566E+00+
*       -2.076048851E+00               0
GRID*               2648               01.4460101571E+003.8012362181E+00+
*       -2.076048851E+00               0
GRID*               2649               01.4859446697E+003.7144630902E+00+
*       -2.076048851E+00               0
GRID*               2650               01.5575158216E+003.6679334820E+00+
*       -2.076048851E+00               0
GRID*               2651               01.5033778357E+003.5971006513E+00+
*       -2.076048851E+00               0
GRID*               2652               01.6361704446E+003.7254919328E+00+
*       -2.076048851E+00               0
GRID*               2653               01.4368738262E+003.1299538530E+00+
*       -2.076048851E+00               0
GRID*               2654               01.3601017323E+003.0837061252E+00+
*       -2.076048851E+00               0
GRID*               2655               01.3575177047E+003.1797773518E+00+
*       -2.076048851E+00               0
GRID*               2656               01.5073306697E+003.0821078652E+00+
*       -2.076048851E+00               0
GRID*               2657               01.6082723568E+003.0365015724E+00+
*       -2.076048851E+00               0
GRID*               2658               01.5403995409E+002.9882763337E+00+
*       -2.076048851E+00               0
GRID*               2659               01.5047466421E+003.1781790917E+00+
*       -2.076048851E+00               0
GRID*               2660               01.5101153070E+003.2745523022E+00+
*       -2.076048851E+00               0
GRID*               2661               01.5805721506E+003.2267063144E+00+
*       -2.076048851E+00               0
GRID*               2662               01.6835430587E+003.1266432002E+00+
*       -2.076048851E+00               0
GRID*               2663               01.7692320381E+003.2791570991E+00+
*       -2.076048851E+00               0
GRID*               2664               01.6889117236E+003.2230164107E+00+
*       -2.076048851E+00               0
GRID*               2665               01.6662611300E+003.3792202134E+00+
*       -2.076048851E+00               0
GRID*               2666               01.5804449016E+003.4368252840E+00+
*       -2.076048851E+00               0
GRID*               2667               01.2922303387E+003.2153572114E+00+
*       -2.076048851E+00               0
GRID*               2668               01.3690024325E+003.2616049391E+00+
*       -2.076048851E+00               0
GRID*               2669               01.2054572032E+003.1754226489E+00+
*       -2.076048851E+00               0
GRID*               2670               01.4945397218E+003.5018282865E+00+
*       -2.076048851E+00               0
GRID*               2671               01.5000356358E+003.3880825274E+00+
*       -2.076048851E+00               0
GRID*               2672               01.4242101273E+003.3395553047E+00+
*       -2.076048851E+00               0
GRID*               2673               01.1780605167E+004.3433401844E+00+
*       -2.076048851E+00               0
GRID*               2674               01.1158025122E+004.2696933484E+00+
*       -2.076048851E+00               0
GRID*               2675               01.0606632689E+004.1991069776E+00+
*       -2.076048851E+00               0
GRID*               2676               01.0833130310E+004.3625827184E+00+
*       -2.076048851E+00               0
GRID*               2677               09.9485283274E-014.3592945251E+00+
*       -2.076048851E+00               0
GRID*               2678               06.5325512629E-013.6893201530E+00+
*       -2.076048851E+00               0
GRID*               2679               06.4441697657E-013.5940477910E+00+
*       -2.076048851E+00               0
GRID*               2680               04.9370050548E-014.0836370419E+00+
*       -2.076048851E+00               0
GRID*               2681               05.8313881345E-014.1753562393E+00+
*       -2.076048851E+00               0
GRID*               2682               06.0329706150E-013.7745926984E+00+
*       -2.076048851E+00               0
GRID*               2683               06.7157251121E-013.7947710004E+00+
*       -2.076048851E+00               0
GRID*               2684               05.0095843501E-013.7123341004E+00+
*       -2.076048851E+00               0
GRID*               2685               05.1927581993E-013.8177849478E+00+
*       -2.076048851E+00               0
GRID*               2686               03.9398820802E-013.9180589752E+00+
*       -2.076048851E+00               0
GRID*               2687               03.3556472027E-013.8040033050E+00+
*       -2.076048851E+00               0
GRID*               2688               04.9632683451E-013.9803175732E+00+
*       -2.076048851E+00               0
GRID*               2689               06.1898811739E-013.9833630144E+00+
*       -2.076048851E+00               0
GRID*               2690               01.0004378358E+004.1301089005E+00+
*       -2.076048851E+00               0
GRID*               2691               09.6082959333E-014.2199378053E+00+
*       -2.076048851E+00               0
GRID*               2692               07.2678022340E-013.8727213301E+00+
*       -2.076048851E+00               0
GRID*               2693               07.0168048972E-013.9504239574E+00+
*       -2.076048851E+00               0
GRID*               2694               08.0684626669E-013.9431017417E+00+
*       -2.076048851E+00               0
GRID*               2695               09.5304821558E-014.0481039423E+00+
*       -2.076048851E+00               0
GRID*               2696               08.9361940197E-013.9830362628E+00+
*       -2.076048851E+00               0
GRID*               2697               08.4117534662E-014.0858720486E+00+
*       -2.076048851E+00               0
GRID*               2698               06.9905416068E-014.0537434261E+00+
*       -2.076048851E+00               0
GRID*               2699               06.6908484277E-014.1317970566E+00+
*       -2.076048851E+00               0
GRID*               2700               06.3586186786E-014.2204708127E+00+
*       -2.076048851E+00               0
GRID*               2701               07.5177721510E-014.0988579995E+00+
*       -2.076048851E+00               0
GRID*               2702               08.1120602871E-014.1639256791E+00+
*       -2.076048851E+00               0
GRID*               2703               07.4050195268E-014.2793290140E+00+
*       -2.076048851E+00               0
GRID*               2704               08.9012551729E-014.3353411402E+00+
*       -2.076048851E+00               0
GRID*               2705               08.2990008420E-014.2663430631E+00+
*       -2.076048851E+00               0
GRID*               2706               01.4428461061E+002.9230202807E+00+
*       -2.076048851E+00               0
GRID*               2707               01.3536436051E+002.9919556261E+00+
*       -2.076048851E+00               0
GRID*               2708               01.2742874836E+003.0417791249E+00+
*       -2.076048851E+00               0
GRID*               2709               01.3570318574E+002.8810932803E+00+
*       -2.076048851E+00               0
GRID*               2710               01.2456855947E+002.8436875431E+00+
*       -2.076048851E+00               0
GRID*               2711               08.5663095337E-013.1942033468E+00+
*       -2.076048851E+00               0
GRID*               2712               07.7868059705E-013.2494110262E+00+
*       -2.076048851E+00               0
GRID*               2713               08.5101084726E-012.9832620087E+00+
*       -2.076048851E+00               0
GRID*               2714               07.6504931756E-013.0542043347E+00+
*       -2.076048851E+00               0
GRID*               2715               08.5959938276E-013.0824722503E+00+
*       -2.076048851E+00               0
GRID*               2716               01.0488926195E+002.8143207933E+00+
*       -2.076048851E+00               0
GRID*               2717               01.1662597268E+002.8197902595E+00+
*       -2.076048851E+00               0
GRID*               2718               08.7263420034E-012.8407008105E+00+
*       -2.076048851E+00               0
GRID*               2719               07.4820358677E-012.8717704017E+00+
*       -2.076048851E+00               0
GRID*               2720               09.6718426554E-012.8689687261E+00+
*       -2.076048851E+00               0
GRID*               2721               01.0272692665E+002.9568819914E+00+
*       -2.076048851E+00               0
GRID*               2722               01.1884034884E+002.9261313421E+00+
*       -2.076048851E+00               0
GRID*               2723               09.4259248307E-013.1232610208E+00+
*       -2.076048851E+00               0
GRID*               2724               01.1911057868E+003.0108168715E+00+
*       -2.076048851E+00               0
GRID*               2725               01.1116799189E+002.9869195879E+00+
*       -2.076048851E+00               0
GRID*               2726               01.1975639141E+003.1025673706E+00+
*       -2.076048851E+00               0
GRID*               2727               01.1222755065E+003.1444603955E+00+
*       -2.076048851E+00               0
GRID*               2728               01.0299715649E+003.0415675208E+00+
*       -2.076048851E+00               0
GRID*               2729               01.0270031355E+003.1532986173E+00+
*       -2.076048851E+00               0
GRID*               2730               03.1445290045E-013.6776943099E+00+
*       -2.076048851E+00               0
GRID*               2731               04.3274125259E-013.6145980067E+00+
*       -2.076048851E+00               0
GRID*               2732               03.3025695961E-013.5367659669E+00+
*       -2.076048851E+00               0
GRID*               2733               06.9975579493E-013.3144503912E+00+
*       -2.076048851E+00               0
GRID*               2734               06.9471305094E-013.2184539413E+00+
*       -2.076048851E+00               0
GRID*               2735               06.5982126270E-013.4012235186E+00+
*       -2.076048851E+00               0
GRID*               2736               05.7619979415E-013.4963116973E+00+
*       -2.076048851E+00               0
GRID*               2737               05.3216678029E-013.3785814850E+00+
*       -2.076048851E+00               0
GRID*               2738               05.1676249416E-013.5714057573E+00+
*       -2.076048851E+00               0
GRID*               2739               06.9144884114E-013.1188393429E+00+
*       -2.076048851E+00               0
GRID*               2740               06.1252403903E-013.1838787079E+00+
*       -2.076048851E+00               0
GRID*               2741               06.8286030564E-013.0196291013E+00+
*       -2.076048851E+00               0
GRID*               2742               06.3816472168E-012.9377489126E+00+
*       -2.076048851E+00               0
GRID*               2743               05.6456424527E-013.0023839207E+00+
*       -2.076048851E+00               0
GRID*               2744               03.4563783100E-013.4095764187E+00+
*       -2.076048851E+00               0
GRID*               2745               04.8001643444E-013.0986368632E+00+
*       -2.076048851E+00               0
GRID*               2746               03.9965917569E-013.2933396402E+00+
*       -2.076048851E+00               0
GRID*               2747               04.8328064423E-013.1982514616E+00+
*       -2.076048851E+00               0
GRID*               2748               01.2401488398E+004.2736798412E+00+
*       -1.216048837E+00               0
GRID*               2749               01.1176206742E+004.1163816672E+00+
*       -1.216048837E+00               0
GRID*               2750               08.2214395136E-012.9821361303E+00+
*       -1.216048837E+00               0
GRID*               2751               01.0713295530E+003.0383502922E+00+
*       -1.216048837E+00               0
GRID*               2752               05.0150495770E-013.6883195978E+00+
*       -1.216048837E+00               0
GRID*               2753               01.0257943422E+004.2928057294E+00+
*       -1.216048837E+00               0
GRID*               2754               06.5172611236E-013.8715058255E+00+
*       -1.216048837E+00               0
GRID*               2755               05.8659072061E-014.0422398265E+00+
*       -1.216048837E+00               0
GRID*               2756               04.7371955999E-013.9041712991E+00+
*       -1.216048837E+00               0
GRID*               2757               07.7794050030E-014.0069539117E+00+
*       -1.216048837E+00               0
GRID*               2758               08.9925440851E-014.1467591249E+00+
*       -1.216048837E+00               0
GRID*               2759               07.0879990897E-014.1611019993E+00+
*       -1.216048837E+00               0
GRID*               2760               04.9687549996E-013.3918245114E+00+
*       -1.216048837E+00               0
GRID*               2761               06.5422363380E-013.1617187409E+00+
*       -1.216048837E+00               0
GRID*               2762               01.5666316673E+003.7761703631E+00+
*       -1.216048837E+00               0
GRID*               2763               01.6129025585E+003.9830196046E+00+
*       -1.216048837E+00               0
GRID*               2764               01.3377188091E+004.1098083696E+00+
*       -1.216048837E+00               0
GRID*               2765               01.4339099474E+003.9547104545E+00+
*       -1.216048837E+00               0
GRID*               2766               01.5251275478E+004.0950354855E+00+
*       -1.216048837E+00               0
GRID*               2767               01.2545561920E+002.9197743484E+00+
*       -1.216048837E+00               0
GRID*               2768               01.2777125475E+003.1234395476E+00+
*       -1.216048837E+00               0
GRID*               2769               01.5591255366E+003.5129113488E+00+
*       -1.216048837E+00               0
GRID*               2770               01.7486920127E+003.6063248660E+00+
*       -1.216048837E+00               0
GRID*               2771               01.7014393333E+003.3364789841E+00+
*       -1.216048837E+00               0
GRID*               2772               01.4799602052E+003.2506703244E+00+
*       -1.216048837E+00               0
GRID*               2773               01.4307463034E+003.0196157300E+00+
*       -1.216048837E+00               0
GRID*               2774               01.1936743863E+004.3549031457E+00+
*       -1.216048837E+00               0
GRID*               2775               01.2846136379E+004.3341379705E+00+
*       -1.216048837E+00               0
GRID*               2776               01.1329715910E+004.2832427853E+00+
*       -1.216048837E+00               0
GRID*               2777               01.0717075082E+004.2045936983E+00+
*       -1.216048837E+00               0
GRID*               2778               01.1788847570E+004.1950307542E+00+
*       -1.216048837E+00               0
GRID*               2779               01.0864971375E+004.3644660897E+00+
*       -1.216048837E+00               0
GRID*               2780               09.9329219016E-014.3607933810E+00+
*       -1.216048837E+00               0
GRID*               2781               04.7396655747E-014.0544161615E+00+
*       -1.216048837E+00               0
GRID*               2782               05.6075362486E-014.1469335642E+00+
*       -1.216048837E+00               0
GRID*               2783               06.1151776685E-013.6989090264E+00+
*       -1.216048837E+00               0
GRID*               2784               06.0267961713E-013.6036366644E+00+
*       -1.216048837E+00               0
GRID*               2785               06.8662834418E-013.7905021402E+00+
*       -1.216048837E+00               0
GRID*               2786               05.7661553503E-013.7799127116E+00+
*       -1.216048837E+00               0
GRID*               2787               03.7575997578E-013.7634072402E+00+
*       -1.216048837E+00               0
GRID*               2788               04.8761225885E-013.7962454484E+00+
*       -1.216048837E+00               0
GRID*               2789               03.6186727693E-013.8713330908E+00+
*       -1.216048837E+00               0
GRID*               2790               05.6272283618E-013.8878385623E+00+
*       -1.216048837E+00               0
GRID*               2791               04.1753097716E-013.9853818978E+00+
*       -1.216048837E+00               0
GRID*               2792               05.3015514030E-013.9732055628E+00+
*       -1.216048837E+00               0
GRID*               2793               06.1915841648E-013.9568728260E+00+
*       -1.216048837E+00               0
GRID*               2794               06.8226561046E-014.0245968691E+00+
*       -1.216048837E+00               0
GRID*               2795               07.1483330633E-013.9392298686E+00+
*       -1.216048837E+00               0
GRID*               2796               06.4769531479E-014.1016709129E+00+
*       -1.216048837E+00               0
GRID*               2797               06.2185821903E-014.2063646506E+00+
*       -1.216048837E+00               0
GRID*               2798               07.4337020464E-014.0840279555E+00+
*       -1.216048837E+00               0
GRID*               2799               08.3859745440E-014.0768565183E+00+
*       -1.216048837E+00               0
GRID*               2800               08.0402715874E-014.1539305621E+00+
*       -1.216048837E+00               0
GRID*               2801               07.2757597649E-014.2688935506E+00+
*       -1.216048837E+00               0
GRID*               2802               08.8607319311E-014.3347454156E+00+
*       -1.216048837E+00               0
GRID*               2803               08.2280322626E-014.2617221134E+00+
*       -1.216048837E+00               0
GRID*               2804               09.6252437536E-014.2197824271E+00+
*       -1.216048837E+00               0
GRID*               2805               01.0084375414E+004.1315703961E+00+
*       -1.216048837E+00               0
GRID*               2806               07.4183605637E-013.8684524700E+00+
*       -1.216048837E+00               0
GRID*               2807               08.0494325034E-013.9361765130E+00+
*       -1.216048837E+00               0
GRID*               2808               09.5237333972E-014.0460136407E+00+
*       -1.216048837E+00               0
GRID*               2809               01.0615564726E+004.0308249119E+00+
*       -1.216048837E+00               0
GRID*               2810               08.9171638562E-013.9761110341E+00+
*       -1.216048837E+00               0
GRID*               2811               01.0054768033E+003.1366712048E+00+
*       -1.216048837E+00               0
GRID*               2812               01.1007491743E+003.1278329830E+00+
*       -1.216048837E+00               0
GRID*               2813               03.5663845063E-013.6380098419E+00+
*       -1.216048837E+00               0
GRID*               2814               06.0036488826E-013.4553891212E+00+
*       -1.216048837E+00               0
GRID*               2815               06.4029942050E-013.3686159937E+00+
*       -1.216048837E+00               0
GRID*               2816               04.9919022883E-013.5400720546E+00+
*       -1.216048837E+00               0
GRID*               2817               03.5432372176E-013.4897622987E+00+
*       -1.216048837E+00               0
GRID*               2818               03.7123792292E-013.3640045518E+00+
*       -1.216048837E+00               0
GRID*               2819               04.2571161073E-013.2492934448E+00+
*       -1.216048837E+00               0
GRID*               2820               07.3818379258E-013.0719274356E+00+
*       -1.216048837E+00               0
GRID*               2821               05.8893506530E-013.0395781087E+00+
*       -1.216048837E+00               0
GRID*               2822               06.7289522408E-012.9497868034E+00+
*       -1.216048837E+00               0
GRID*               2823               07.8214662426E-012.8848260259E+00+
*       -1.216048837E+00               0
GRID*               2824               09.4673675216E-013.0102432112E+00+
*       -1.216048837E+00               0
GRID*               2825               08.8088400253E-013.1085641238E+00+
*       -1.216048837E+00               0
GRID*               2826               07.9692384374E-013.1983554291E+00+
*       -1.216048837E+00               0
GRID*               2827               07.1897348742E-013.2535631085E+00+
*       -1.216048837E+00               0
GRID*               2828               05.7554956688E-013.2767716262E+00+
*       -1.216048837E+00               0
GRID*               2829               05.0438567765E-013.1342405595E+00+
*       -1.216048837E+00               0
GRID*               2830               01.5234062529E+003.9688650295E+00+
*       -1.216048837E+00               0
GRID*               2831               01.5002708073E+003.8654404088E+00+
*       -1.216048837E+00               0
GRID*               2832               01.5897671129E+003.8795949839E+00+
*       -1.216048837E+00               0
GRID*               2833               01.5690150531E+004.0390275450E+00+
*       -1.216048837E+00               0
GRID*               2834               01.6637007550E+004.0628564547E+00+
*       -1.216048837E+00               0
GRID*               2835               01.6198132497E+004.1188643952E+00+
*       -1.216048837E+00               0
GRID*               2836               01.4795187476E+004.0248729700E+00+
*       -1.216048837E+00               0
GRID*               2837               01.4314231784E+004.1024219275E+00+
*       -1.216048837E+00               0
GRID*               2838               01.3858143782E+004.0322594120E+00+
*       -1.216048837E+00               0
GRID*               2839               01.5276279323E+004.1995110575E+00+
*       -1.216048837E+00               0
GRID*               2840               01.3851385783E+004.2888332354E+00+
*       -1.216048837E+00               0
GRID*               2841               01.4339235630E+004.2068974996E+00+
*       -1.216048837E+00               0
GRID*               2842               01.2889338244E+004.1917441054E+00+
*       -1.216048837E+00               0
GRID*               2843               01.2276697416E+004.1130950184E+00+
*       -1.216048837E+00               0
GRID*               2844               01.1568288399E+004.0219868094E+00+
*       -1.216048837E+00               0
GRID*               2845               01.4592846629E+003.7966734392E+00+
*       -1.216048837E+00               0
GRID*               2846               01.4992191756E+003.7099003113E+00+
*       -1.216048837E+00               0
GRID*               2847               01.3929238029E+003.8859434848E+00+
*       -1.216048837E+00               0
GRID*               2848               01.2668779073E+004.0187001606E+00+
*       -1.216048837E+00               0
GRID*               2849               01.3149734765E+003.9411512030E+00+
*       -1.216048837E+00               0
GRID*               2850               01.2039406715E+003.1703776107E+00+
*       -1.216048837E+00               0
GRID*               2851               01.2907138070E+003.2103121732E+00+
*       -1.216048837E+00               0
GRID*               2852               09.0547578499E-012.8542718291E+00+
*       -1.216048837E+00               0
GRID*               2853               01.1745210502E+003.0808949199E+00+
*       -1.216048837E+00               0
GRID*               2854               01.1629428725E+002.9790623203E+00+
*       -1.216048837E+00               0
GRID*               2855               01.2661343697E+003.0216069480E+00+
*       -1.216048837E+00               0
GRID*               2856               01.1216819053E+002.8230909382E+00+
*       -1.216048837E+00               0
GRID*               2857               01.2485661540E+002.8305316683E+00+
*       -1.216048837E+00               0
GRID*               2858               01.0300685858E+002.8823789101E+00+
*       -1.216048837E+00               0
GRID*               2859               01.4954661102E+003.5782708041E+00+
*       -1.216048837E+00               0
GRID*               2860               01.4866279963E+003.4829984393E+00+
*       -1.216048837E+00               0
GRID*               2861               01.7319809883E+003.9562181626E+00+
*       -1.216048837E+00               0
GRID*               2862               01.5628786019E+003.6445408559E+00+
*       -1.216048837E+00               0
GRID*               2863               01.6539087746E+003.5596181074E+00+
*       -1.216048837E+00               0
GRID*               2864               01.6576618400E+003.6912476146E+00+
*       -1.216048837E+00               0
GRID*               2865               01.7998757154E+003.7678707933E+00+
*       -1.216048837E+00               0
GRID*               2866               01.8337864406E+003.6455336647E+00+
*       -1.216048837E+00               0
GRID*               2867               01.7088455427E+003.8527935418E+00+
*       -1.216048837E+00               0
GRID*               2868               01.3542294254E+003.0715276388E+00+
*       -1.216048837E+00               0
GRID*               2869               01.4553532543E+003.1351430272E+00+
*       -1.216048837E+00               0
GRID*               2870               01.3788363763E+003.1870549360E+00+
*       -1.216048837E+00               0
GRID*               2871               01.3426512477E+002.9696950392E+00+
*       -1.216048837E+00               0
GRID*               2872               01.3679098024E+002.8743968764E+00+
*       -1.216048837E+00               0
GRID*               2873               01.4560048581E+002.9243175672E+00+
*       -1.216048837E+00               0
GRID*               2874               01.7664000054E+003.2632023229E+00+
*       -1.216048837E+00               0
GRID*               2875               01.8060354987E+003.3837902572E+00+
*       -1.216048837E+00               0
GRID*               2876               01.5564824727E+003.0019332390E+00+
*       -1.216048837E+00               0
GRID*               2877               01.6918289877E+003.1603648660E+00+
*       -1.216048837E+00               0
GRID*               2878               01.5810894236E+003.1174605362E+00+
*       -1.216048837E+00               0
GRID*               2879               01.5906997692E+003.2935746542E+00+
*       -1.216048837E+00               0
GRID*               2880               01.8296618383E+003.5187131981E+00+
*       -1.216048837E+00               0
GRID*               2881               01.7250656730E+003.4714019251E+00+
*       -1.216048837E+00               0
GRID*               2882               01.6302824349E+003.4246951664E+00+
*       -1.216048837E+00               0
GRID*               2883               01.5195428709E+003.3817908366E+00+
*       -1.216048837E+00               0
GRID*               2884               01.3918376358E+003.2739275615E+00+
*       -1.216048837E+00               0
GRID*               2885               01.4470453306E+003.3518779271E+00+
*       -1.216048837E+00               0
GRID*               4683               01.2732777528E+001.0566127386E+01+
*       -3.227834263E+00               0
GRID*               4684               02.1099960257E+001.0451289748E+01+
*       -2.937805693E+00               0
GRID*               4685               01.7902056380E+001.1396212590E+01+
*       -3.186617121E+00               0
GRID*               4686               01.8864151164E+001.1378536941E+01+
*       -3.007956960E+00               0
GRID*               4687               02.0626799610E+001.1293270668E+01+
*       -3.007050072E+00               0
GRID*               4688               02.1420490359E+001.1222779888E+01+
*       -3.186240951E+00               0
GRID*               4689               01.9822798866E+001.1341991241E+01+
*       -3.186322680E+00               0
GRID*               4690               02.1975591993E+001.1151839411E+01+
*       -3.007245255E+00               0
GRID*               4691               02.2488368160E+001.1053710743E+01+
*       -3.187172601E+00               0
GRID*               4692               02.1455660476E+001.0484126634E+01+
*       -3.221194719E+00               0
GRID*               4693               02.2075531114E+001.0563757716E+01+
*       -3.017706997E+00               0
GRID*               4694               02.2511048627E+001.0653703570E+01+
*       -3.196057504E+00               0
GRID*               4695               02.2821144413E+001.0769585311E+01+
*       -3.010944157E+00               0
GRID*               4696               02.2746839398E+001.0970365053E+01+
*       -3.008491163E+00               0
GRID*               4697               02.2878522863E+001.0855676487E+01+
*       -3.189409876E+00               0
GRID*               4698               01.5914510354E+001.1378116629E+01+
*       -3.186175474E+00               0
GRID*               4699               01.6922019937E+001.1396424670E+01+
*       -3.007282343E+00               0
GRID*               4700               01.4127580144E+001.1290366380E+01+
*       -3.186155032E+00               0
GRID*               4701               01.5038385467E+001.1345125592E+01+
*       -3.007183727E+00               0
GRID*               4702               01.2770816288E+001.1144362713E+01+
*       -3.187181978E+00               0
GRID*               4703               01.3455709652E+001.1231280349E+01+
*       -3.007612546E+00               0
GRID*               4704               01.2023239152E+001.0957795031E+01+
*       -3.190561969E+00               0
GRID*               4705               01.2366245068E+001.1068164543E+01+
*       -3.009439229E+00               0
GRID*               4706               01.2267562086E+001.0655403493E+01+
*       -3.023311707E+00               0
GRID*               4707               01.2999197139E+001.0528879379E+01+
*       -2.944112054E+00               0
GRID*               4708               01.2008906407E+001.0752309100E+01+
*       -3.199159505E+00               0
GRID*               4709               01.1917912338E+001.0872519762E+01+
*       -3.013093073E+00               0
GRID*               4710               02.0227105881E+001.0390861515E+01+
*       -2.881305464E+00               0
GRID*               4711               02.0762586832E+001.0428254462E+01+
*       -2.883310028E+00               0
GRID*               4712               02.1442829317E+001.0492920900E+01+
*       -2.883378499E+00               0
GRID*               4713               02.0593775821E+001.0409911775E+01+
*       -2.935460399E+00               0
GRID*               4714               02.1009281026E+001.0437414514E+01+
*       -3.017175205E+00               0
GRID*               4715               02.0293693130E+001.0394976227E+01+
*       -3.313148796E+00               0
GRID*               4716               01.3731559117E+001.0453943560E+01+
*       -2.884640358E+00               0
GRID*               4717               01.9783559087E+001.1343847296E+01+
*       -3.007416102E+00               0
GRID*               4718               01.9290835514E+001.1359061199E+01+
*       -2.918320371E+00               0
GRID*               4719               02.0170118776E+001.1316963190E+01+
*       -2.917835032E+00               0
GRID*               4720               02.0244847536E+001.1320864734E+01+
*       -3.096861895E+00               0
GRID*               4721               02.1052504408E+001.1261292689E+01+
*       -3.096618807E+00               0
GRID*               4722               02.0676275924E+001.1289707710E+01+
*       -3.186306840E+00               0
GRID*               4723               01.9358272325E+001.1364165730E+01+
*       -3.097122177E+00               0
GRID*               4724               01.8887376218E+001.1377932791E+01+
*       -3.186018667E+00               0
GRID*               4725               01.8390481118E+001.1391264842E+01+
*       -3.096491622E+00               0
GRID*               4726               02.1054256719E+001.1251567091E+01+
*       -3.276325090E+00               0
GRID*               4727               02.1732568000E+001.1177107375E+01+
*       -3.276307188E+00               0
GRID*               4728               02.0256261853E+001.1311812828E+01+
*       -3.276404994E+00               0
GRID*               4729               01.8413719878E+001.1383580354E+01+
*       -3.276510278E+00               0
GRID*               4730               01.7388100761E+001.1393171755E+01+
*       -3.276539060E+00               0
GRID*               4731               01.9361059361E+001.1356429281E+01+
*       -3.276351178E+00               0
GRID*               4732               02.0937537443E+001.1261801517E+01+
*       -2.917827459E+00               0
GRID*               4733               02.1619152890E+001.1191515191E+01+
*       -2.917910903E+00               0
GRID*               4734               02.1364594881E+001.1228627132E+01+
*       -3.007116599E+00               0
GRID*               4735               02.2255612887E+001.1092532958E+01+
*       -3.276752728E+00               0
GRID*               4736               02.2619010612E+001.0998751885E+01+
*       -3.276863885E+00               0
GRID*               4737               02.2032169809E+001.1143153655E+01+
*       -3.186715375E+00               0
GRID*               4738               02.1726693136E+001.1189543929E+01+
*       -3.096787508E+00               0
GRID*               4739               02.2272696534E+001.1104918106E+01+
*       -3.097177966E+00               0
GRID*               4740               02.0800741610E+001.0424122119E+01+
*       -3.241522906E+00               0
GRID*               4741               02.1190138322E+001.0453134981E+01+
*       -3.158947902E+00               0
GRID*               4742               02.1012621711E+001.0447284459E+01+
*       -3.294142318E+00               0
GRID*               4743               02.1693217046E+001.0520706337E+01+
*       -3.293595951E+00               0
GRID*               4744               02.1923628266E+001.0549884485E+01+
*       -2.923276410E+00               0
GRID*               4745               02.2374812924E+001.0632657942E+01+
*       -2.923205687E+00               0
GRID*               4746               02.1630571476E+001.0504161314E+01+
*       -2.977735294E+00               0
GRID*               4747               02.1542113792E+001.0489293094E+01+
*       -3.057213078E+00               0
GRID*               4748               02.1803210544E+001.0521237973E+01+
*       -3.119448266E+00               0
GRID*               4749               02.2233127444E+001.0604372354E+01+
*       -3.281088470E+00               0
GRID*               4750               02.2605327201E+001.0698335577E+01+
*       -3.281168877E+00               0
GRID*               4751               02.2062365563E+001.0564153818E+01+
*       -3.208633872E+00               0
GRID*               4752               02.2329776428E+001.0606973072E+01+
*       -3.106870644E+00               0
GRID*               4753               02.2706766478E+001.0736579394E+01+
*       -2.919809572E+00               0
GRID*               4754               02.2823330015E+001.0830634217E+01+
*       -2.919409348E+00               0
GRID*               4755               02.2552140800E+001.0662924104E+01+
*       -3.014319386E+00               0
GRID*               4756               02.2716303066E+001.0710304401E+01+
*       -3.103459226E+00               0
GRID*               4757               02.2145627356E+001.1113389873E+01+
*       -2.917984706E+00               0
GRID*               4758               02.2542461003E+001.1023541380E+01+
*       -2.918588406E+00               0
GRID*               4759               02.2443446560E+001.1064605750E+01+
*       -3.007859061E+00               0
GRID*               4760               02.2766475690E+001.0930810695E+01+
*       -2.918947525E+00               0
GRID*               4761               02.2876744945E+001.0870324162E+01+
*       -3.009713361E+00               0
GRID*               4762               02.2651133967E+001.1013085525E+01+
*       -3.097825200E+00               0
GRID*               4763               02.2884464531E+001.0812414711E+01+
*       -3.100152211E+00               0
GRID*               4764               02.2861011800E+001.0913587122E+01+
*       -3.098910030E+00               0
GRID*               4765               02.2790110704E+001.0752884074E+01+
*       -3.192732893E+00               0
GRID*               4766               02.2800080792E+001.0798179446E+01+
*       -3.277853746E+00               0
GRID*               4767               02.2802838384E+001.0899544897E+01+
*       -3.277848289E+00               0
GRID*               4768               02.2775410161E+001.0956490018E+01+
*       -3.188292107E+00               0
GRID*               4769               01.8383626528E+001.1384119420E+01+
*       -2.918291400E+00               0
GRID*               4770               01.7897246780E+001.1396218157E+01+
*       -3.007514103E+00               0
GRID*               4771               01.7405674888E+001.1393122852E+01+
*       -2.917954026E+00               0
GRID*               4772               01.6399341257E+001.1383931016E+01+
*       -3.276280488E+00               0
GRID*               4773               01.6899993416E+001.1396285175E+01+
*       -3.186396086E+00               0
GRID*               4774               01.5438379884E+001.1356605060E+01+
*       -3.276264298E+00               0
GRID*               4775               01.7412109583E+001.1400299943E+01+
*       -3.096948946E+00               0
GRID*               4776               01.6410878628E+001.1391379026E+01+
*       -3.096725390E+00               0
GRID*               4777               01.6468488399E+001.1385111031E+01+
*       -2.917991464E+00               0
GRID*               4778               01.5957185100E+001.1379227450E+01+
*       -3.007232881E+00               0
GRID*               4779               01.5531162104E+001.1360024284E+01+
*       -2.917917650E+00               0
GRID*               4780               01.4545486882E+001.1312231126E+01+
*       -3.276324937E+00               0
GRID*               4781               01.4980882319E+001.1342420290E+01+
*       -3.186165354E+00               0
GRID*               4782               01.3738994808E+001.1251398432E+01+
*       -3.276265129E+00               0
GRID*               4783               01.5463186436E+001.1365163103E+01+
*       -3.096676132E+00               0
GRID*               4784               01.4560610599E+001.1321489389E+01+
*       -3.096663567E+00               0
GRID*               4785               01.4657700609E+001.1318901758E+01+
*       -2.917981445E+00               0
GRID*               4786               01.4195990064E+001.1295292544E+01+
*       -3.007398071E+00               0
GRID*               4787               01.3876567921E+001.1263451765E+01+
*       -2.918147646E+00               0
GRID*               4788               01.3071208063E+001.1178189130E+01+
*       -3.276760428E+00               0
GRID*               4789               01.3382278081E+001.1223580667E+01+
*       -3.186668638E+00               0
GRID*               4790               01.2540498688E+001.1092745612E+01+
*       -3.276687707E+00               0
GRID*               4791               01.3767938144E+001.1263531879E+01+
*       -3.096879247E+00               0
GRID*               4792               01.3077268772E+001.1190671283E+01+
*       -3.097390816E+00               0
GRID*               4793               01.3217295767E+001.1196609126E+01+
*       -2.918171319E+00               0
GRID*               4794               01.2837452233E+001.1154637797E+01+
*       -3.008525811E+00               0
GRID*               4795               01.2663625642E+001.1116109162E+01+
*       -2.919066016E+00               0
GRID*               4796               01.2177018219E+001.0998652891E+01+
*       -3.278397572E+00               0
GRID*               4797               01.2310763203E+001.1054530600E+01+
*       -3.188871549E+00               0
GRID*               4798               01.1992841996E+001.0899598266E+01+
*       -3.278428404E+00               0
GRID*               4799               01.2538052466E+001.1107890781E+01+
*       -3.098304485E+00               0
GRID*               4800               01.2148170402E+001.1014428937E+01+
*       -3.099992688E+00               0
GRID*               4801               01.3294942001E+001.0499068781E+01+
*       -2.886451806E+00               0
GRID*               4802               01.2740593028E+001.0576819871E+01+
*       -2.886330484E+00               0
GRID*               4803               01.3400096753E+001.0480435975E+01+
*       -2.941905593E+00               0
GRID*               4804               01.3077438225E+001.0511561122E+01+
*       -3.029839722E+00               0
GRID*               4805               01.2390645213E+001.0639002903E+01+
*       -2.926074768E+00               0
GRID*               4806               01.2098585011E+001.0729708231E+01+
*       -2.926010461E+00               0
GRID*               4807               01.2587175140E+001.0589640134E+01+
*       -2.983779297E+00               0
GRID*               4808               01.2656921013E+001.0571788296E+01+
*       -3.069418560E+00               0
GRID*               4809               01.2459312117E+001.0608548971E+01+
*       -3.125616564E+00               0
GRID*               4810               01.2941908689E+001.0529946075E+01+
*       -3.171722662E+00               0
GRID*               4811               01.2191320616E+001.0698297089E+01+
*       -3.282830774E+00               0
GRID*               4812               01.1998725759E+001.0798451061E+01+
*       -3.282676444E+00               0
GRID*               4813               01.2283937389E+001.0656062865E+01+
*       -3.213449039E+00               0
GRID*               4814               01.2099479603E+001.0702799543E+01+
*       -3.111267272E+00               0
GRID*               4815               01.2561928236E+001.0607383929E+01+
*       -3.296933816E+00               0
GRID*               4816               01.1968329315E+001.0838338451E+01+
*       -2.920854770E+00               0
GRID*               4817               01.2029516607E+001.0932418681E+01+
*       -2.920845968E+00               0
GRID*               4818               01.1982745668E+001.0762208127E+01+
*       -3.018195826E+00               0
GRID*               4819               01.1911082702E+001.0811997048E+01+
*       -3.106127615E+00               0
GRID*               4820               01.1918838673E+001.0855186548E+01+
*       -3.194863663E+00               0
GRID*               4821               01.1936482430E+001.0915583536E+01+
*       -3.101830289E+00               0
GRID*               4822               01.2268420855E+001.1028283552E+01+
*       -2.919208115E+00               0
GRID*               4823               01.2051801108E+001.0972415615E+01+
*       -3.011269330E+00               0
GRID*               4824               01.3737273081E+001.0454169052E+01+
*       -3.316186038E+00               0
GRID*               4825               01.3289226169E+001.0492217977E+01+
*       -3.247636903E+00               0
GRID*               4826               01.3100396087E+001.0521437062E+01+
*       -3.297308610E+00               0
GRID*               2376               01.1211368039E+003.9466980153E+00+
*       -1.387908432E+00               0
GRID*               2377               01.2314578298E+003.9123354440E+00+
*       -1.559526576E+00               0
GRID*               2378               01.3256357947E+003.8456795651E+00+
*       -1.730970451E+00               0
GRID*               2379               01.3948467832E+003.7528293309E+00+
*       -1.903348843E+00               0
GRID*               2380               01.4235796130E+003.6803186268E+00+
*       -1.729126720E+00               0
GRID*               2381               01.4364675155E+003.6029214882E+00+
*       -1.555215242E+00               0
GRID*               2382               01.4326702668E+003.5242426572E+00+
*       -1.386295184E+00               0
GRID*               2383               01.4113202599E+003.7168597212E+00+
*       -1.386594418E+00               0
GRID*               2384               01.3754341167E+003.7856064322E+00+
*       -1.558139205E+00               0
GRID*               2385               01.2970062376E+003.8708488745E+00+
*       -1.387402816E+00               0
GRID*               2386               01.3780832815E+003.3810239376E+00+
*       -1.910437003E+00               0
GRID*               2387               01.4234679294E+003.4818764403E+00+
*       -1.732370780E+00               0
GRID*               2388               01.4367028327E+003.5640684398E+00+
*       -1.904934965E+00               0
GRID*               2389               01.3946295912E+003.4093454497E+00+
*       -1.558878954E+00               0
GRID*               2390               01.3506387683E+003.3438384543E+00+
*       -1.393044928E+00               0
GRID*               2391               01.3046946789E+003.2979897564E+00+
*       -1.742575124E+00               0
GRID*               2392               01.2604170965E+003.2662124240E+00+
*       -1.934074244E+00               0
GRID*               2393               01.2769390988E+003.2769271077E+00+
*       -1.554282753E+00               0
GRID*               2394               01.0438793416E+003.9497854018E+00+
*       -1.559968526E+00               0
GRID*               2395               09.6770780854E-013.9367340472E+00+
*       -1.732089751E+00               0
GRID*               2396               08.9606220911E-013.9081868931E+00+
*       -1.904242487E+00               0
GRID*               2397               01.0825768969E+003.9502712296E+00+
*       -1.904092892E+00               0
GRID*               2398               01.1589510421E+003.9391441141E+00+
*       -1.731725012E+00               0
GRID*               2399               01.2651818646E+003.8934079310E+00+
*       -1.903674308E+00               0
GRID*               2400               07.0238207335E-013.6343071724E+00+
*       -1.388602421E+00               0
GRID*               2401               07.3679056313E-013.7449263164E+00+
*       -1.561087821E+00               0
GRID*               2402               08.0353306788E-013.8391896697E+00+
*       -1.732838749E+00               0
GRID*               2403               07.7802593470E-013.8101543740E+00+
*       -1.388349941E+00               0
GRID*               2404               08.6288220732E-013.8884735413E+00+
*       -1.560444430E+00               0
GRID*               2405               09.3118520590E-013.9243544866E+00+
*       -1.388139179E+00               0
GRID*               2406               06.9940963366E-013.5562489971E+00+
*       -1.562969872E+00               0
GRID*               2407               07.1300476184E-013.4790069710E+00+
*       -1.736921934E+00               0
GRID*               2408               07.4270031572E-013.4062061388E+00+
*       -1.905821482E+00               0
GRID*               2409               06.9880700343E-013.5948813798E+00+
*       -1.905532491E+00               0
GRID*               2410               07.0980009339E-013.6717094020E+00+
*       -1.734015901E+00               0
GRID*               2411               07.5552909573E-013.7783495692E+00+
*       -1.904768987E+00               0
GRID*               2412               08.4163974182E-013.2893974711E+00+
*       -1.381683713E+00               0
GRID*               2413               07.6543898602E-013.3693398409E+00+
*       -1.559754859E+00               0
GRID*               2414               07.2569259260E-013.4423471414E+00+
*       -1.387142179E+00               0
GRID*               2415               08.1665697366E-013.3105959427E+00+
*       -1.733241608E+00               0
GRID*               2416               08.7988074538E-013.2634268163E+00+
*       -1.899063313E+00               0
GRID*               2417               09.3846355917E-013.2354178720E+00+
*       -1.549535928E+00               0
GRID*               2418               09.9084746830E-013.2201342906E+00+
*       -1.358029045E+00               0
GRID*               2419               09.7171001568E-013.2247502440E+00+
*       -1.737827849E+00               0
GRID*               2420               01.4234583063E+003.6807556763E+00+
*       -1.301321454E+00               0
GRID*               2421               01.3856172850E+003.7693780345E+00+
*       -1.301321773E+00               0
GRID*               2422               01.4370929235E+003.5839671276E+00+
*       -1.301171584E+00               0
GRID*               2423               01.4251751493E+003.4881967535E+00+
*       -1.301171582E+00               0
GRID*               2424               01.4348497024E+003.6220316658E+00+
*       -1.386444710E+00               0
GRID*               2425               01.4284205630E+003.6609133703E+00+
*       -1.470906548E+00               0
GRID*               2426               01.4366755143E+003.5635105803E+00+
*       -1.470758584E+00               0
GRID*               2427               01.3855495912E+003.7694923615E+00+
*       -1.730048347E+00               0
GRID*               2428               01.4036480846E+003.7348866913E+00+
*       -1.643632451E+00               0
GRID*               2429               01.3521266332E+003.8169622668E+00+
*       -1.644554819E+00               0
GRID*               2430               01.3639048556E+003.8019828347E+00+
*       -1.817159900E+00               0
GRID*               2431               01.4111313300E+003.7173372053E+00+
*       -1.816236890E+00               0
GRID*               2432               01.4180600034E+003.6983506171E+00+
*       -1.556677651E+00               0
GRID*               2433               01.3951844917E+003.7521839881E+00+
*       -1.472366746E+00               0
GRID*               2434               01.4320805802E+003.6420091276E+00+
*       -1.642172166E+00               0
GRID*               2435               01.1590933631E+003.9391088094E+00+
*       -1.301978141E+00               0
GRID*               2436               01.0632632213E+003.9505356513E+00+
*       -1.301978143E+00               0
GRID*               2437               01.2487599480E+003.9032049584E+00+
*       -1.301725614E+00               0
GRID*               2438               01.3258702861E+003.8454508193E+00+
*       -1.301725809E+00               0
GRID*               2439               01.2141065167E+003.9203614876E+00+
*       -1.387655869E+00               0
GRID*               2440               01.1776643610E+003.9338527142E+00+
*       -1.473719763E+00               0
GRID*               2441               01.2653262148E+003.8933164152E+00+
*       -1.473465678E+00               0
GRID*               2442               01.3643331192E+003.8014069168E+00+
*       -1.386998642E+00               0
GRID*               2443               01.3395817085E+003.8313234998E+00+
*       -1.472770791E+00               0
GRID*               2444               01.3118255826E+003.8584763690E+00+
*       -1.558833150E+00               0
GRID*               2445               01.2811894772E+003.8826933077E+00+
*       -1.645249042E+00               0
GRID*               2446               01.4371016109E+003.5811360886E+00+
*       -1.730749991E+00               0
GRID*               2447               01.4347706118E+003.6227323291E+00+
*       -1.817028682E+00               0
GRID*               2448               01.4324051291E+003.5225755392E+00+
*       -1.818650270E+00               0
GRID*               2449               01.4349947633E+003.5418603140E+00+
*       -1.643793114E+00               0
GRID*               2450               01.4283407273E+003.6612740734E+00+
*       -1.904141712E+00               0
GRID*               2451               01.4176131043E+003.6996791571E+00+
*       -1.989699059E+00               0
GRID*               2452               01.4364042406E+003.6039867019E+00+
*       -1.990492430E+00               0
GRID*               2453               01.3980888199E+003.4160847654E+00+
*       -1.993243151E+00               0
GRID*               2454               01.3441037982E+003.3362659120E+00+
*       -1.993242825E+00               0
GRID*               2455               01.4296972160E+003.5077110679E+00+
*       -1.990492429E+00               0
GRID*               2456               01.4194928102E+003.4686103140E+00+
*       -1.907686035E+00               0
GRID*               2457               01.4045690851E+003.4297282192E+00+
*       -1.821402305E+00               0
GRID*               2458               01.4287564313E+003.5032299647E+00+
*       -1.557046233E+00               0
GRID*               2459               01.4183828674E+003.4652042597E+00+
*       -1.472589145E+00               0
GRID*               2460               01.4109657924E+003.4448261725E+00+
*       -1.645624212E+00               0
GRID*               2461               01.3870891703E+003.3957189220E+00+
*       -1.304546590E+00               0
GRID*               2462               01.3282273656E+003.3194565344E+00+
*       -1.304546820E+00               0
GRID*               2463               01.4039673271E+003.4283980334E+00+
*       -1.389670307E+00               0
GRID*               2464               01.3743839806E+003.3754055942E+00+
*       -1.475962972E+00               0
GRID*               2465               01.3445242656E+003.3367408003E+00+
*       -1.826505968E+00               0
GRID*               2466               01.3779928392E+003.3808843703E+00+
*       -1.737472233E+00               0
GRID*               2467               01.2228041375E+003.2461084959E+00+
*       -1.801811985E+00               0
GRID*               2468               01.2228041406E+003.2461084976E+00+
*       -1.694311983E+00               0
GRID*               2469               01.2831468144E+003.2812865231E+00+
*       -1.838325026E+00               0
GRID*               2470               01.1976355730E+003.2355832848E+00+
*       -1.897562339E+00               0
GRID*               2471               01.3257253539E+003.3169918310E+00+
*       -1.922255736E+00               0
GRID*               2472               01.2826277618E+003.2809147283E+00+
*       -2.005061603E+00               0
GRID*               2473               01.1976295117E+003.2355812382E+00+
*       -2.005061775E+00               0
GRID*               2474               01.3551046170E+003.3492613203E+00+
*       -1.650727731E+00               0
GRID*               2475               01.2910618704E+003.2871285479E+00+
*       -1.648428651E+00               0
GRID*               2476               01.3438435660E+003.3359728025E+00+
*       -1.556581529E+00               0
GRID*               2477               01.2067993094E+003.2391641648E+00+
*       -1.600165126E+00               0
GRID*               2478               01.2068021933E+003.2391651385E+00+
*       -1.492665393E+00               0
GRID*               2479               01.3160571901E+003.3078912234E+00+
*       -1.473663994E+00               0
GRID*               2480               01.2222285961E+003.2458429902E+00+
*       -1.323548838E+00               0
GRID*               2481               01.2516477308E+003.2610171478E+00+
*       -1.412046878E+00               0
GRID*               2482               01.0438987652E+003.9497875706E+00+
*       -1.990071366E+00               0
GRID*               2483               01.1401964001E+003.9434037562E+00+
*       -1.990071365E+00               0
GRID*               2484               09.4931967458E-013.9310326421E+00+
*       -1.990145880E+00               0
GRID*               2485               08.6288699288E-013.8884768374E+00+
*       -1.990145685E+00               0
GRID*               2486               09.8651505010E-013.9415037962E+00+
*       -1.904167448E+00               0
GRID*               2487               01.0245935840E+003.9480249096E+00+
*       -1.818089063E+00               0
GRID*               2488               09.3113578612E-013.9243346287E+00+
*       -1.818165156E+00               0
GRID*               2489               01.1401803462E+003.9434060491E+00+
*       -1.559746387E+00               0
GRID*               2490               01.1018344976E+003.9489990505E+00+
*       -1.645846769E+00               0
GRID*               2491               01.1959519879E+003.9276295022E+00+
*       -1.645624632E+00               0
GRID*               2492               01.0825585535E+003.9502710949E+00+
*       -1.473941902E+00               0
GRID*               2493               01.0631246811E+003.9505329844E+00+
*       -1.731908546E+00               0
GRID*               2494               01.1210858194E+003.9467045923E+00+
*       -1.817905529E+00               0
GRID*               2495               01.0054054133E+003.9452532777E+00+
*       -1.646030300E+00               0
GRID*               2496               01.3750878512E+003.7861269528E+00+
*       -1.989698863E+00               0
GRID*               2497               01.3115605428E+003.8587094503E+00+
*       -1.989861447E+00               0
GRID*               2498               01.2314886814E+003.9123209243E+00+
*       -1.989861774E+00               0
GRID*               2499               01.3392743872E+003.8316569459E+00+
*       -1.903511556E+00               0
GRID*               2500               01.2966614092E+003.8711214670E+00+
*       -1.817322451E+00               0
GRID*               2501               01.1776779911E+003.9338493780E+00+
*       -1.903883683E+00               0
GRID*               2502               01.2138865470E+003.9204562994E+00+
*       -1.817697967E+00               0
GRID*               2503               01.2484768724E+003.9033638891E+00+
*       -1.731347407E+00               0
GRID*               2504               07.0997740818E-013.6724123466E+00+
*       -1.302325128E+00               0
GRID*               2505               06.9858867017E-013.5765776738E+00+
*       -1.302325130E+00               0
GRID*               2506               07.4581964385E-013.7620470457E+00+
*       -1.302199176E+00               0
GRID*               2507               08.0353208474E-013.8391887820E+00+
*       -1.302199372E+00               0
GRID*               2508               07.2862378365E-013.7272494153E+00+
*       -1.388476422E+00               0
GRID*               2509               07.1522725001E-013.6909890372E+00+
*       -1.474847389E+00               0
GRID*               2510               07.5570132692E-013.7786219820E+00+
*       -1.474719862E+00               0
GRID*               2511               07.9039716909E-013.8250039470E+00+
*       -1.560766397E+00               0
GRID*               2512               08.1737231640E-013.8526499509E+00+
*       -1.474396944E+00               0
GRID*               2513               07.6646880205E-013.7947068053E+00+
*       -1.646963811E+00               0
GRID*               2514               08.3191684135E-013.8653861368E+00+
*       -1.646641585E+00               0
GRID*               2515               08.7919719971E-013.8987541081E+00+
*       -1.732463977E+00               0
GRID*               2516               08.4708683060E-013.8773268934E+00+
*       -1.818540866E+00               0
GRID*               2517               09.1337246152E-013.9167132387E+00+
*       -1.646266563E+00               0
GRID*               2518               09.4931067440E-013.9310295992E+00+
*       -1.560206802E+00               0
GRID*               2519               08.7924675649E-013.8987835490E+00+
*       -1.302094142E+00               0
GRID*               2520               09.6780900586E-013.9367632378E+00+
*       -1.302093817E+00               0
GRID*               2521               08.4709065998E-013.8773296096E+00+
*       -1.388244580E+00               0
GRID*               2522               08.9608871464E-013.9082008167E+00+
*       -1.474291736E+00               0
GRID*               2523               09.8651264995E-013.9415032544E+00+
*       -1.474055547E+00               0
GRID*               2524               01.0246337685E+003.9480305041E+00+
*       -1.388023722E+00               0
GRID*               2525               06.9937278073E-013.5567827531E+00+
*       -1.990791142E+00               0
GRID*               2526               07.0560571989E-013.6530902847E+00+
*       -1.990791141E+00               0
GRID*               2527               07.1869814324E-013.4610006598E+00+
*       -1.990935387E+00               0
GRID*               2528               07.6169298165E-013.3747872700E+00+
*       -1.990935186E+00               0
GRID*               2529               07.0816827613E-013.4975791497E+00+
*       -1.905676728E+00               0
GRID*               2530               07.0130073068E-013.5363631563E+00+
*       -1.821224943E+00               0
GRID*               2531               07.2591090772E-013.4418114760E+00+
*       -1.821370569E+00               0
GRID*               2532               07.0561042085E-013.6531090812E+00+
*       -1.562027681E+00               0
GRID*               2533               07.0004079206E-013.6143900864E+00+
*       -1.648492874E+00               0
GRID*               2534               07.2136885448E-013.7090772730E+00+
*       -1.647550697E+00               0
GRID*               2535               06.9882442422E-013.5953263589E+00+
*       -1.475789570E+00               0
GRID*               2536               06.9861141266E-013.5750987588E+00+
*       -1.735470039E+00               0
GRID*               2537               07.0228316415E-013.6336153555E+00+
*       -1.819770777E+00               0
GRID*               2538               07.0415470091E-013.5172243385E+00+
*       -1.649946996E+00               0
GRID*               2539               07.4561321884E-013.7616788240E+00+
*       -1.733426980E+00               0
GRID*               2540               07.9029855230E-013.8248916392E+00+
*       -1.990408784E+00               0
GRID*               2541               07.3672467209E-013.7447944641E+00+
*       -1.990409107E+00               0
GRID*               2542               08.1724211506E-013.8525295736E+00+
*       -1.904505717E+00               0
GRID*               2543               07.7793361946E-013.8100374227E+00+
*       -1.818803932E+00               0
GRID*               2544               07.2845489587E-013.7268562910E+00+
*       -1.819390743E+00               0
GRID*               2545               07.1505005415E-013.6904204479E+00+
*       -1.905150824E+00               0
GRID*               2546               07.1966127150E-013.4582412618E+00+
*       -1.561362776E+00               0
GRID*               2547               07.0801664766E-013.4982333335E+00+
*       -1.475057702E+00               0
GRID*               2548               07.4350714142E-013.4047161289E+00+
*       -1.473448722E+00               0
GRID*               2549               07.3468949781E-013.4219753416E+00+
*       -1.648338122E+00               0
GRID*               2550               07.0125662928E-013.5367173249E+00+
*       -1.387872238E+00               0
GRID*               2551               07.1269686816E-013.4800784753E+00+
*       -1.301595286E+00               0
GRID*               2552               08.1115094059E-013.3158112186E+00+
*       -1.298866261E+00               0
GRID*               2553               08.8855850594E-013.2584531707E+00+
*       -1.298866086E+00               0
GRID*               2554               07.5097289486E-013.3916449116E+00+
*       -1.301595619E+00               0
GRID*               2555               07.7355672495E-013.3582059480E+00+
*       -1.384412967E+00               0
GRID*               2556               08.0053671509E-013.3265010717E+00+
*       -1.470719112E+00               0
GRID*               2557               07.5335154582E-013.3877263413E+00+
*       -1.735081479E+00               0
GRID*               2558               07.7573628234E-013.3553596476E+00+
*       -1.819531424E+00               0
GRID*               2559               07.8949782018E-013.3386080956E+00+
*       -1.646498652E+00               0
GRID*               2560               08.2826008189E-013.3002746371E+00+
*       -1.987555799E+00               0
GRID*               2561               09.0912772979E-013.2478586045E+00+
*       -1.987556075E+00               0
GRID*               2562               08.0153818853E-013.3254546957E+00+
*       -1.902442305E+00               0
GRID*               2563               08.4698902298E-013.2853296053E+00+
*       -1.816152249E+00               0
GRID*               2564               08.8800845849E-013.2587592502E+00+
*       -1.465608711E+00               0
GRID*               2565               08.4178553277E-013.2892845667E+00+
*       -1.554645466E+00               0
GRID*               2566               01.0331135250E+003.2136516530E+00+
*       -1.490292382E+00               0
GRID*               2567               01.0331135126E+003.2136516558E+00+
*       -1.597792383E+00               0
GRID*               2568               09.6437857845E-013.2268061654E+00+
*       -1.453783379E+00               0
GRID*               2569               01.0603662373E+003.2120936969E+00+
*       -1.394538161E+00               0
GRID*               2570               09.1232189763E-013.2463569984E+00+
*       -1.369856912E+00               0
GRID*               2571               09.6496560160E-013.2266349539E+00+
*       -1.287038930E+00               0
GRID*               2572               01.0603732771E+003.2120939653E+00+
*       -1.287038931E+00               0
GRID*               2573               08.7388319887E-013.2670503525E+00+
*       -1.641390042E+00               0
GRID*               2574               09.5495812392E-013.2296917775E+00+
*       -1.643681833E+00               0
GRID*               2575               08.8892948065E-013.2582473710E+00+
*       -1.735534404E+00               0
GRID*               2576               01.0505336464E+003.2124238643E+00+
*       -1.691938197E+00               0
GRID*               2577               01.0505292273E+003.2124236959E+00+
*       -1.799437714E+00               0
GRID*               2578               09.2446411810E-013.2409821340E+00+
*       -1.818443895E+00               0
GRID*               2579               01.0337305299E+003.2135939045E+00+
*       -1.968548849E+00               0
GRID*               2580               01.0008921779E+003.2181367363E+00+
*       -1.880057792E+00               0
GRID*               4827               01.2495726074E+004.4627873691E+00+
*       -1.978890287E+00               0
GRID*               4828               01.1041676444E+004.4880076099E+00+
*       -1.975510345E+00               0
GRID*               4829               09.8287725355E-014.4789427858E+00+
*       -1.323621269E+00               0
GRID*               4830               01.3314816274E+004.4419595199E+00+
*       -1.325650347E+00               0
GRID*               4831               07.1993753560E-014.4385691666E+00+
*       -1.820284033E+00               0
GRID*               4832               07.9657129590E-014.4589733906E+00+
*       -1.882629024E+00               0
GRID*               4833               06.5705202377E-014.4055408797E+00+
*       -1.746051999E+00               0
GRID*               4834               01.5955463392E+004.3335500058E+00+
*       -1.790897804E+00               0
GRID*               4835               01.6325333793E+004.3078271546E+00+
*       -1.716675374E+00               0
GRID*               4836               01.5550006523E+004.3894392410E+00+
*       -1.861830195E+00               0
GRID*               4837               01.4869300398E+004.4223984437E+00+
*       -1.913297274E+00               0
GRID*               4838               08.7874206787E-014.5055064598E+00+
*       -1.941740946E+00               0
GRID*               4839               01.2995457835E+004.5064194561E+00+
*       -1.930567033E+00               0
GRID*               4840               01.2097861729E+004.5261590723E+00+
*       -1.941140983E+00               0
GRID*               4841               01.4057089368E+004.4622047249E+00+
*       -1.949150710E+00               0
GRID*               4842               01.3493458894E+004.4152955504E+00+
*       -1.991663406E+00               0
GRID*               4843               01.2818488519E+004.4249503067E+00+
*       -2.024575606E+00               0
GRID*               4844               01.1986049807E+004.4440958085E+00+
*       -2.025783844E+00               0
GRID*               4845               01.0322285805E+004.5399636026E+00+
*       -1.932097781E+00               0
GRID*               4846               01.1362197994E+004.5391630203E+00+
*       -1.940637098E+00               0
GRID*               4847               09.6074874865E-014.5126257728E+00+
*       -1.988553448E+00               0
GRID*               4848               01.0387721784E+004.4529814059E+00+
*       -2.023124180E+00               0
GRID*               4849               01.1772028172E+004.4782356229E+00+
*       -1.980269214E+00               0
GRID*               4850               01.1242971954E+004.4545565297E+00+
*       -2.021714943E+00               0
GRID*               4851               07.0425229732E-014.4303920175E+00+
*       -1.483816338E+00               0
GRID*               4852               07.6649932977E-014.4682078623E+00+
*       -1.403186656E+00               0
GRID*               4853               06.5326236662E-014.4041068060E+00+
*       -1.552840929E+00               0
GRID*               4854               01.0633335073E+004.4549192581E+00+
*       -1.269187643E+00               0
GRID*               4855               09.7268610564E-014.4470279649E+00+
*       -1.273165798E+00               0
GRID*               4856               01.1182960962E+004.5206095391E+00+
*       -1.291144395E+00               0
GRID*               4857               01.2149907212E+004.5088904268E+00+
*       -1.294123995E+00               0
GRID*               4858               01.0357248258E+004.5364324002E+00+
*       -1.356097241E+00               0
GRID*               4859               08.4753641222E-014.4989910304E+00+
*       -1.359198972E+00               0
GRID*               4860               09.4567334344E-014.5265234963E+00+
*       -1.373455520E+00               0
GRID*               4861               08.9035650749E-014.4460794463E+00+
*       -1.316205273E+00               0
GRID*               4862               01.6399245747E+004.3091638099E+00+
*       -1.630701793E+00               0
GRID*               4863               01.6188154250E+004.3254299018E+00+
*       -1.548586236E+00               0
GRID*               4864               01.3043035978E+004.5053228831E+00+
*       -1.360818155E+00               0
GRID*               4865               01.3952880477E+004.4795473470E+00+
*       -1.374836250E+00               0
GRID*               4866               01.2411138581E+004.4373999010E+00+
*       -1.269684437E+00               0
GRID*               4867               01.3283255672E+004.4125192443E+00+
*       -1.273802131E+00               0
GRID*               4868               01.3964130755E+004.4012712550E+00+
*       -1.312334895E+00               0
GRID*               4869               01.5759371952E+004.3478177158E+00+
*       -1.476340796E+00               0
GRID*               4870               01.5125391887E+004.3950462876E+00+
*       -1.428370324E+00               0
GRID*               4871               01.4602194958E+004.4388590821E+00+
*       -1.361520799E+00               0
GRID*               3485               01.1151969771E+007.0633392992E+00+
*       -1.853430742E+00               0
GRID*               3486               01.5435101003E+007.0503472617E+00+
*       -1.434655364E+00               0
GRID*               3487               01.4237460657E+007.2283719901E+00+
*       -1.465839246E+00               0
GRID*               3488               01.3385812510E+007.0683669437E+00+
*       -1.420065991E+00               0
GRID*               3489               01.2200342107E+007.2354748986E+00+
*       -1.485128797E+00               0
GRID*               3490               01.1446265997E+007.0712269578E+00+
*       -1.457279564E+00               0
GRID*               3491               01.0421205374E+007.2100782093E+00+
*       -1.556595977E+00               0
GRID*               3492               09.6175200477E-017.1096969961E+00+
*       -1.712617650E+00               0
GRID*               3493               01.0029942968E+007.0551482734E+00+
*       -1.537332749E+00               0
GRID*               3494               01.6153037258E+007.2074832576E+00+
*       -1.497047685E+00               0
GRID*               3495               01.7237324385E+007.0387931871E+00+
*       -1.508231684E+00               0
GRID*               3496               01.6824127652E+007.0140180554E+00+
*       -1.842059450E+00               0
GRID*               3497               01.5108420239E+007.0150560352E+00+
*       -1.894152771E+00               0
GRID*               3498               01.8247250454E+007.0491370159E+00+
*       -1.688162633E+00               0
GRID*               3499               01.7583396517E+007.1852129643E+00+
*       -1.571241678E+00               0
GRID*               3500               01.2799657956E+007.0357540427E+00+
*       -1.897196559E+00               0
GRID*               3501               01.0655602546E+006.9944477531E+00+
*       -1.818898322E+00               0
GRID*               3502               01.1540949534E+006.9866799632E+00+
*       -1.858306716E+00               0
GRID*               3503               01.4993258228E+006.9673796346E+00+
*       -1.415194067E+00               0
GRID*               3504               01.5992474071E+006.9585776766E+00+
*       -1.438751432E+00               0
GRID*               3505               01.3987169712E+006.9768807903E+00+
*       -1.406268367E+00               0
GRID*               3506               01.2969905100E+006.9857536597E+00+
*       -1.410530739E+00               0
GRID*               3507               01.4418153137E+007.0611675941E+00+
*       -1.420702861E+00               0
GRID*               3508               01.4845580818E+007.1410822030E+00+
*       -1.443868590E+00               0
GRID*               3509               01.3812940929E+007.1496006641E+00+
*       -1.438547168E+00               0
GRID*               3510               01.2634687332E+007.3152825561E+00+
*       -1.511923213E+00               0
GRID*               3511               01.1665581217E+007.3103522623E+00+
*       -1.535236306E+00               0
GRID*               3512               01.3213695969E+007.2338035845E+00+
*       -1.468729208E+00               0
GRID*               3513               01.2784677139E+007.1537709837E+00+
*       -1.446221881E+00               0
GRID*               3514               01.3645685145E+007.3123241474E+00+
*       -1.500675570E+00               0
GRID*               3515               01.2005445946E+006.9877276730E+00+
*       -1.426857587E+00               0
GRID*               3516               01.1039188498E+006.9957754876E+00+
*       -1.460035251E+00               0
GRID*               3517               01.2403354051E+007.0717899210E+00+
*       -1.431958784E+00               0
GRID*               3518               01.1810691853E+007.1545600305E+00+
*       -1.467090999E+00               0
GRID*               3519               01.0790623913E+007.2972190620E+00+
*       -1.572049683E+00               0
GRID*               3520               01.0125164638E+007.2662564649E+00+
*       -1.636212459E+00               0
GRID*               3521               01.1271764543E+007.2257698528E+00+
*       -1.512134884E+00               0
GRID*               3522               01.0899519440E+007.1430704084E+00+
*       -1.500188789E+00               0
GRID*               3523               09.8268844732E-017.0173077318E+00+
*       -1.751057394E+00               0
GRID*               3524               09.4986095755E-017.0209433236E+00+
*       -1.662595234E+00               0
GRID*               3525               01.0237195969E+007.0842746994E+00+
*       -1.798416192E+00               0
GRID*               3526               01.0040780505E+007.1705010530E+00+
*       -1.787747755E+00               0
GRID*               3527               01.0820789524E+007.1471363177E+00+
*       -1.857520068E+00               0
GRID*               3528               09.7233219750E-017.2160658583E+00+
*       -1.714223295E+00               0
GRID*               3529               01.0692842602E+007.0653672285E+00+
*       -1.490311149E+00               0
GRID*               3530               01.0208811904E+007.1333670800E+00+
*       -1.544455995E+00               0
GRID*               3531               01.0332160503E+006.9887551386E+00+
*       -1.498433214E+00               0
GRID*               3532               09.7048210358E-016.9936689622E+00+
*       -1.574952784E+00               0
GRID*               3533               09.8237315080E-017.0824226347E+00+
*       -1.624975200E+00               0
GRID*               3534               01.0019362711E+007.1598876027E+00+
*       -1.634606814E+00               0
GRID*               3535               01.4635988492E+007.3034422149E+00+
*       -1.501202518E+00               0
GRID*               3536               01.5589652943E+007.2934238656E+00+
*       -1.514683665E+00               0
GRID*               3537               01.6534428116E+007.2715369549E+00+
*       -1.538478353E+00               0
GRID*               3538               01.5207548996E+007.2196618677E+00+
*       -1.475144875E+00               0
GRID*               3539               01.5806871981E+007.1299677855E+00+
*       -1.461693362E+00               0
GRID*               3540               01.6873653546E+006.9528414201E+00+
*       -1.476335889E+00               0
GRID*               3541               01.7599654167E+006.9458254357E+00+
*       -1.544801597E+00               0
GRID*               3542               01.6370453261E+007.0465485384E+00+
*       -1.463297372E+00               0
GRID*               3543               01.6725520977E+007.1246840491E+00+
*       -1.496051860E+00               0
GRID*               3544               01.6426855782E+007.0788645436E+00+
*       -1.882420750E+00               0
GRID*               3545               01.7287686665E+007.0930901706E+00+
*       -1.844495716E+00               0
GRID*               3546               01.5467512425E+006.9440963817E+00+
*       -1.873960016E+00               0
GRID*               3547               01.5988167673E+007.0128059803E+00+
*       -1.874338981E+00               0
GRID*               3548               01.6334567638E+006.9438629478E+00+
*       -1.848124860E+00               0
GRID*               3549               01.4502142917E+006.9534056727E+00+
*       -1.889448969E+00               0
GRID*               3550               01.4483073333E+007.0185769916E+00+
*       -1.901537960E+00               0
GRID*               3551               01.5558652689E+007.0800866253E+00+
*       -1.907944028E+00               0
GRID*               3552               01.4605163846E+007.0810270007E+00+
*       -1.920773454E+00               0
GRID*               3553               01.8104617201E+006.9509973501E+00+
*       -1.634767071E+00               0
GRID*               3554               01.7742287420E+007.0439651015E+00+
*       -1.598197158E+00               0
GRID*               3555               01.7971031408E+006.9513675755E+00+
*       -1.727402878E+00               0
GRID*               3556               01.7190984998E+006.9356952707E+00+
*       -1.803094074E+00               0
GRID*               3557               01.7724754560E+007.0258927718E+00+
*       -1.781455984E+00               0
GRID*               3558               01.8009315193E+007.1109742290E+00+
*       -1.767713340E+00               0
GRID*               3559               01.7245835194E+007.2605336835E+00+
*       -1.574098767E+00               0
GRID*               3560               01.7987792195E+007.2225160949E+00+
*       -1.629239478E+00               0
GRID*               3561               01.6905122784E+007.1980132904E+00+
*       -1.527914580E+00               0
GRID*               3562               01.7427323168E+007.1128232421E+00+
*       -1.537119466E+00               0
GRID*               3563               01.8257349020E+007.1531807122E+00+
*       -1.690965503E+00               0
GRID*               3564               01.8126719935E+007.1171937134E+00+
*       -1.620512415E+00               0
GRID*               3565               01.1668351420E+007.1194865455E+00+
*       -1.891029235E+00               0
GRID*               3566               01.2374116650E+006.9726133375E+00+
*       -1.879474238E+00               0
GRID*               3567               01.1956250809E+007.0483791966E+00+
*       -1.880801585E+00               0
GRID*               3568               01.3348060354E+006.9638615226E+00+
*       -1.891430256E+00               0
GRID*               3569               01.3321555084E+007.0291769730E+00+
*       -1.902304212E+00               0
GRID*               3570               01.2502703463E+007.1061163192E+00+
*       -1.912265695E+00               0
GRID*               3571               01.3450826695E+007.0911515261E+00+
*       -1.922470558E+00               0
GRID*               4305               01.4270671424E+001.1013133779E+01+
*       -2.816048861E+00               0
GRID*               4306               02.0511209656E+001.0684220238E+01+
*       -2.816048861E+00               0
GRID*               4307               01.4407057467E+001.0658909608E+01+
*       -2.816048861E+00               0
GRID*               4308               01.3471936479E+001.0827941679E+01+
*       -2.816048861E+00               0
GRID*               4309               01.7529977004E+001.0496692996E+01+
*       -2.816048861E+00               0
GRID*               4310               01.9534569832E+001.0518772628E+01+
*       -2.816048861E+00               0
GRID*               4311               01.5626453985E+001.0497841718E+01+
*       -2.816048861E+00               0
GRID*               4312               02.0386111884E+001.1039153663E+01+
*       -2.816048861E+00               0
GRID*               4313               02.1335251574E+001.0869794102E+01+
*       -2.816048861E+00               0
GRID*               4314               01.7251750629E+001.1204507645E+01+
*       -2.816048861E+00               0
GRID*               4315               01.5245790932E+001.1179507899E+01+
*       -2.816048861E+00               0
GRID*               4316               01.9178310889E+001.1201544766E+01+
*       -2.816048861E+00               0
GRID*               4317               01.3237044218E+001.1001248499E+01+
*       -2.816048861E+00               0
GRID*               4318               01.3628846072E+001.1087286458E+01+
*       -2.816048861E+00               0
GRID*               4319               01.4841769721E+001.0764254678E+01+
*       -2.816048861E+00               0
GRID*               4320               01.5280366416E+001.0667205585E+01+
*       -2.816048861E+00               0
GRID*               4321               01.3858642141E+001.0920738211E+01+
*       -2.816048861E+00               0
GRID*               4322               01.4358001655E+001.0849075859E+01+
*       -2.816048861E+00               0
GRID*               4323               01.4760179579E+001.0941042452E+01+
*       -2.816048861E+00               0
GRID*               4324               01.2822773216E+001.0909603292E+01+
*       -2.816048861E+00               0
GRID*               4325               01.2749780351E+001.0816210403E+01+
*       -2.816048861E+00               0
GRID*               4326               01.3010456799E+001.0725168120E+01+
*       -2.816048861E+00               0
GRID*               4327               01.3956653559E+001.0743036983E+01+
*       -2.816048861E+00               0
GRID*               4328               01.3460205333E+001.0640403214E+01+
*       -2.816048861E+00               0
GRID*               4329               01.3993439200E+001.0564005973E+01+
*       -2.816048861E+00               0
GRID*               4330               01.8122390559E+001.0411460838E+01+
*       -2.816048861E+00               0
GRID*               4331               01.7209920804E+001.0404416457E+01+
*       -2.816048861E+00               0
GRID*               4332               02.0671069814E+001.0524212288E+01+
*       -2.816048861E+00               0
GRID*               4333               01.9980845603E+001.0462186041E+01+
*       -2.816048861E+00               0
GRID*               4334               02.0032613833E+001.0600039660E+01+
*       -2.816048861E+00               0
GRID*               4335               01.9419657690E+001.0667240999E+01+
*       -2.816048861E+00               0
GRID*               4336               01.8921642760E+001.0586519769E+01+
*       -2.816048861E+00               0
GRID*               4337               02.1143893737E+001.0609241893E+01+
*       -2.816048861E+00               0
GRID*               4338               01.8520947169E+001.0509360977E+01+
*       -2.816048861E+00               0
GRID*               4339               01.7904333277E+001.0575625599E+01+
*       -2.816048861E+00               0
GRID*               4340               01.9115066407E+001.0423235163E+01+
*       -2.816048861E+00               0
GRID*               4341               01.6842023467E+001.0584848682E+01+
*       -2.816048861E+00               0
GRID*               4342               01.5018932803E+001.0578996809E+01+
*       -2.816048861E+00               0
GRID*               4343               01.5888978581E+001.0585634957E+01+
*       -2.816048861E+00               0
GRID*               4344               01.4600383012E+001.0483336248E+01+
*       -2.816048861E+00               0
GRID*               4345               01.5375238144E+001.0429122132E+01+
*       -2.816048861E+00               0
GRID*               4346               01.6258581399E+001.0404880984E+01+
*       -2.816048861E+00               0
GRID*               4347               01.6578128586E+001.0497093590E+01+
*       -2.816048861E+00               0
GRID*               4348               02.0028254388E+001.0757955700E+01+
*       -2.816048861E+00               0
GRID*               4349               01.5372838234E+001.1030570834E+01+
*       -2.816048861E+00               0
GRID*               4350               02.1541756972E+001.0695505179E+01+
*       -2.816048861E+00               0
GRID*               4351               01.9963161966E+001.0934524051E+01+
*       -2.816048861E+00               0
GRID*               4352               01.9514544185E+001.1032466308E+01+
*       -2.816048861E+00               0
GRID*               4353               02.0937308780E+001.0776837129E+01+
*       -2.816048861E+00               0
GRID*               4354               02.0442547547E+001.0850074891E+01+
*       -2.816048861E+00               0
GRID*               4355               02.1970742452E+001.0787275925E+01+
*       -2.816048861E+00               0
GRID*               4356               02.2055057974E+001.0880474577E+01+
*       -2.816048861E+00               0
GRID*               4357               02.1807648685E+001.0972463593E+01+
*       -2.816048861E+00               0
GRID*               4358               02.0851212281E+001.0954654015E+01+
*       -2.816048861E+00               0
GRID*               4359               02.1345440087E+001.1056511935E+01+
*       -2.816048861E+00               0
GRID*               4360               02.0813784709E+001.1134064120E+01+
*       -2.816048861E+00               0
GRID*               4361               01.6640150526E+001.1288966212E+01+
*       -2.816048861E+00               0
GRID*               4362               01.7573491704E+001.1296685350E+01+
*       -2.816048861E+00               0
GRID*               4363               01.4109997859E+001.1171306770E+01+
*       -2.816048861E+00               0
GRID*               4364               01.4780207969E+001.1236262115E+01+
*       -2.816048861E+00               0
GRID*               4365               01.4751085071E+001.1096974305E+01+
*       -2.816048861E+00               0
GRID*               4366               01.5870054126E+001.1113009302E+01+
*       -2.816048861E+00               0
GRID*               4367               01.6248899286E+001.1191302344E+01+
*       -2.816048861E+00               0
GRID*               4368               01.6871737990E+001.1125699284E+01+
*       -2.816048861E+00               0
GRID*               4369               01.5644192300E+001.1275391061E+01+
*       -2.816048861E+00               0
GRID*               4370               01.7947391988E+001.1115794097E+01+
*       -2.816048861E+00               0
GRID*               4371               01.9780740515E+001.1120672109E+01+
*       -2.816048861E+00               0
GRID*               4372               01.8912378462E+001.1114363894E+01+
*       -2.816048861E+00               0
GRID*               4373               02.0215871142E+001.1215490334E+01+
*       -2.816048861E+00               0
GRID*               4374               01.9444503142E+001.1270115478E+01+
*       -2.816048861E+00               0
GRID*               4375               01.8538079364E+001.1295285345E+01+
*       -2.816048861E+00               0
GRID*               4376               01.8215609134E+001.1203105765E+01+
*       -2.816048861E+00               0
GRID*               4377               01.9796892787E+001.1157564970E+01+
*       -3.379048824E+00               0
GRID*               4378               01.4182665965E+001.1044601764E+01+
*       -3.379048824E+00               0
GRID*               4379               01.7715084519E+001.1195988539E+01+
*       -3.379048824E+00               0
GRID*               4380               01.5604105384E+001.1200231746E+01+
*       -3.379048824E+00               0
GRID*               4381               01.4160958520E+001.0664329073E+01+
*       -3.379048824E+00               0
GRID*               4382               02.0131314514E+001.0607325333E+01+
*       -3.379048824E+00               0
GRID*               4383               02.0892413140E+001.0976774429E+01+
*       -3.379048824E+00               0
GRID*               4384               01.5725494993E+001.0514148807E+01+
*       -3.379048824E+00               0
GRID*               4385               01.8093128327E+001.0510171381E+01+
*       -3.379048824E+00               0
GRID*               4386               01.8306169670E+001.1282398459E+01+
*       -3.379048824E+00               0
GRID*               4387               01.7307761643E+001.1292446876E+01+
*       -3.379048824E+00               0
GRID*               4388               01.8752858828E+001.1176020860E+01+
*       -3.379048824E+00               0
GRID*               4389               01.9220689554E+001.1092114623E+01+
*       -3.379048824E+00               0
GRID*               4390               01.8169825056E+001.1112653245E+01+
*       -3.379048824E+00               0
GRID*               4391               01.9344064904E+001.1262823868E+01+
*       -3.379048824E+00               0
GRID*               4392               02.0245780091E+001.1218543469E+01+
*       -3.379048824E+00               0
GRID*               4393               01.7110056035E+001.1119252471E+01+
*       -3.379048824E+00               0
GRID*               4394               01.3782121564E+001.1126103338E+01+
*       -3.379048824E+00               0
GRID*               4395               01.3258355268E+001.1041017416E+01+
*       -3.379048824E+00               0
GRID*               4396               01.6654677305E+001.1197077999E+01+
*       -3.379048824E+00               0
GRID*               4397               01.6049211349E+001.1123371228E+01+
*       -3.379048824E+00               0
GRID*               4398               01.6255163509E+001.1293130620E+01+
*       -3.379048824E+00               0
GRID*               4399               01.5288445208E+001.1265607892E+01+
*       -3.379048824E+00               0
GRID*               4400               01.4885957860E+001.1121708385E+01+
*       -3.379048824E+00               0
GRID*               4401               01.5331369773E+001.1048207794E+01+
*       -3.379048824E+00               0
GRID*               4402               01.4495978176E+001.1206211139E+01+
*       -3.379048824E+00               0
GRID*               4403               01.9797079768E+001.1003416337E+01+
*       -3.379048824E+00               0
GRID*               4404               02.0217496965E+001.0900576541E+01+
*       -3.379048824E+00               0
GRID*               4405               02.0907418033E+001.1144785875E+01+
*       -3.379048824E+00               0
GRID*               4406               02.0359684105E+001.1068372348E+01+
*       -3.379048824E+00               0
GRID*               4407               02.1450266092E+001.1053126252E+01+
*       -3.379048824E+00               0
GRID*               4408               02.1808735479E+001.0960264621E+01+
*       -3.379048824E+00               0
GRID*               4409               02.1810739168E+001.0860645969E+01+
*       -3.379048824E+00               0
GRID*               4410               02.1115449542E+001.0787209957E+01+
*       -3.379048824E+00               0
GRID*               4411               01.9799816475E+001.0716222141E+01+
*       -3.379048824E+00               0
GRID*               4412               01.9166099905E+001.0627721202E+01+
*       -3.379048824E+00               0
GRID*               4413               02.1343171568E+001.0671940647E+01+
*       -3.379048824E+00               0
GRID*               4414               02.1023901904E+001.0582226023E+01+
*       -3.379048824E+00               0
GRID*               4415               01.3825936228E+001.0571999388E+01+
*       -3.379048824E+00               0
GRID*               4416               01.3277394379E+001.0654490360E+01+
*       -3.379048824E+00               0
GRID*               4417               02.0360587225E+001.0510253197E+01+
*       -3.379048824E+00               0
GRID*               4418               01.4946794744E+001.0590225445E+01+
*       -3.379048824E+00               0
GRID*               4419               01.5145689329E+001.0670261319E+01+
*       -3.379048824E+00               0
GRID*               4420               01.5948194585E+001.0593635745E+01+
*       -3.379048824E+00               0
GRID*               4421               01.4613934858E+001.0498505105E+01+
*       -3.379048824E+00               0
GRID*               4422               01.5415343459E+001.0437101647E+01+
*       -3.379048824E+00               0
GRID*               4423               01.8196959557E+001.0582133039E+01+
*       -3.379048824E+00               0
GRID*               4424               01.7121873484E+001.0592050398E+01+
*       -3.379048824E+00               0
GRID*               4425               01.9296533259E+001.0458848495E+01+
*       -3.379048824E+00               0
GRID*               4426               01.8419880291E+001.0419009220E+01+
*       -3.379048824E+00               0
GRID*               4427               01.9062968666E+001.0555121537E+01+
*       -3.379048824E+00               0
GRID*               4428               01.7481441459E+001.0411838601E+01+
*       -3.379048824E+00               0
GRID*               4429               01.6884608831E+001.0528442625E+01+
*       -3.379048824E+00               0
GRID*               4430               01.6324365576E+001.0412432049E+01+
*       -3.379048824E+00               0
GRID*               4431               01.4697061155E+001.0953780600E+01+
*       -3.379048824E+00               0
GRID*               4432               01.4677433823E+001.0778365273E+01+
*       -3.379048824E+00               0
GRID*               4433               01.3064144907E+001.0945559789E+01+
*       -3.379048824E+00               0
GRID*               4434               01.3626429522E+001.0856630784E+01+
*       -3.379048824E+00               0
GRID*               4435               01.3084161378E+001.0751167888E+01+
*       -3.379048824E+00               0
GRID*               4170               01.5074698326E+001.0012965744E+01+
*       -3.267982362E+00               0
GRID*               4171               01.3295538414E+001.0201903429E+01+
*       -3.041772674E+00               0
GRID*               4172               01.4880568613E+001.0174851049E+01+
*       -2.939277610E+00               0
GRID*               4173               01.3861430560E+001.0011974118E+01+
*       -2.972235210E+00               0
GRID*               4174               01.3042251475E+001.0020936825E+01+
*       -3.145943540E+00               0
GRID*               4175               01.3868523237E+001.0198518145E+01+
*       -3.209287268E+00               0
GRID*               4176               01.7334034370E+001.0072535998E+01+
*       -3.280646680E+00               0
GRID*               4177               01.6750661691E+009.9207398225E+00+
*       -3.285847700E+00               0
GRID*               4178               01.8385658720E+009.9296660585E+00+
*       -3.260974644E+00               0
GRID*               4179               01.9688794471E+009.9488266946E+00+
*       -2.997142941E+00               0
GRID*               4180               02.0388376561E+001.0120233273E+01+
*       -3.100505022E+00               0
GRID*               4181               01.9231818850E+001.0131306943E+01+
*       -2.962704455E+00               0
GRID*               4182               01.7984185055E+009.9776566588E+00+
*       -2.924172109E+00               0
GRID*               4183               02.0005151141E+009.9345379316E+00+
*       -3.165530817E+00               0
GRID*               4184               01.9180150440E+001.0096321081E+01+
*       -3.234296553E+00               0
GRID*               4185               01.3339840764E+001.0315448327E+01+
*       -3.074379837E+00               0
GRID*               4186               01.3626333176E+001.0313755685E+01+
*       -3.158137134E+00               0
GRID*               4187               01.3582030826E+001.0200210787E+01+
*       -3.125529971E+00               0
GRID*               4188               01.3619417912E+001.0274537692E+01+
*       -3.013158312E+00               0
GRID*               4189               01.5868520220E+001.0201141511E+01+
*       -2.919529237E+00               0
GRID*               4190               01.5753509671E+001.0093393529E+01+
*       -2.917946912E+00               0
GRID*               4191               01.5085771101E+001.0220062956E+01+
*       -2.935422449E+00               0
GRID*               4192               01.4419899685E+001.0260950610E+01+
*       -2.960636986E+00               0
GRID*               4193               01.3999817583E+001.0189477532E+01+
*       -2.977228468E+00               0
GRID*               4194               01.4139719613E+009.9132791395E+00+
*       -2.952419617E+00               0
GRID*               4195               01.3342629978E+009.9206090498E+00+
*       -3.010676359E+00               0
GRID*               4196               01.5529166287E+009.9131740982E+00+
*       -2.915748070E+00               0
GRID*               4197               01.5214557166E+001.0012399943E+01+
*       -2.924358925E+00               0
GRID*               4198               01.4361410882E+001.0093542305E+01+
*       -2.953476862E+00               0
GRID*               4199               01.2933040436E+009.9250904034E+00+
*       -3.097530525E+00               0
GRID*               4200               01.3451841018E+001.0016455472E+01+
*       -3.059089375E+00               0
GRID*               4201               01.3237405628E+009.9224065223E+00+
*       -3.185943703E+00               0
GRID*               4202               01.3933449172E+001.0018510408E+01+
*       -3.226628940E+00               0
GRID*               4203               01.4276762837E+009.9181902814E+00+
*       -3.248156881E+00               0
GRID*               4204               01.4446956624E+001.0106079725E+01+
*       -3.244679223E+00               0
GRID*               4205               01.3415050725E+001.0110202471E+01+
*       -3.181454858E+00               0
GRID*               4206               01.4985435212E+001.0218655651E+01+
*       -3.257328100E+00               0
GRID*               4207               01.4126843363E+001.0256588983E+01+
*       -3.220603079E+00               0
GRID*               4208               01.5628510889E+001.0125300741E+01+
*       -3.274749173E+00               0
GRID*               4209               01.3537260913E+001.0107436582E+01+
*       -3.002405095E+00               0
GRID*               4210               01.3022473178E+001.0113080698E+01+
*       -3.093210476E+00               0
GRID*               4211               01.6760621102E+001.0155085734E+01+
*       -3.282396453E+00               0
GRID*               4212               01.7766134376E+001.0152749938E+01+
*       -3.275064446E+00               0
GRID*               4213               01.5243532283E+009.9091613304E+00+
*       -3.275148530E+00               0
GRID*               4214               01.5907476177E+009.9669879459E+00+
*       -3.282521187E+00               0
GRID*               4215               01.6081365236E+009.8630815314E+00+
*       -3.286130678E+00               0
GRID*               4216               01.6199024143E+001.0042935748E+01+
*       -3.282938552E+00               0
GRID*               4217               01.7042531942E+009.9966418416E+00+
*       -3.283580179E+00               0
GRID*               4218               01.7904591952E+009.8582243138E+00+
*       -3.272536943E+00               0
GRID*               4219               01.8863725502E+009.8494009345E+00+
*       -3.242722004E+00               0
GRID*               4220               01.7575648859E+009.9252137514E+00+
*       -3.278476539E+00               0
GRID*               4221               01.7864730897E+001.0001098870E+01+
*       -3.273601132E+00               0
GRID*               4222               01.7085176955E+009.8537747513E+00+
*       -3.284609998E+00               0
GRID*               4223               02.0375871040E+001.0228837914E+01+
*       -3.070805036E+00               0
GRID*               4224               02.0165704073E+001.0210567945E+01+
*       -3.148259149E+00               0
GRID*               4225               01.9810097706E+001.0125770108E+01+
*       -3.031604738E+00               0
GRID*               4226               01.9797592185E+001.0234374749E+01+
*       -3.001904753E+00               0
GRID*               4227               01.9044472062E+001.0189890076E+01+
*       -2.953308638E+00               0
GRID*               4228               01.9470999679E+001.0040003489E+01+
*       -2.978165095E+00               0
GRID*               4229               02.0159916621E+001.0033681937E+01+
*       -3.042350068E+00               0
GRID*               4230               01.8192704653E+009.8776879112E+00+
*       -2.929538986E+00               0
GRID*               4231               01.9068768309E+009.8631340494E+00+
*       -2.961720975E+00               0
GRID*               4232               01.8878484069E+009.9630299971E+00+
*       -2.950960897E+00               0
GRID*               4233               01.7203930437E+009.8868690725E+00+
*       -2.912101947E+00               0
GRID*               4234               01.7318860121E+009.9946112191E+00+
*       -2.914031293E+00               0
GRID*               4235               01.8618729605E+001.0054441718E+01+
*       -2.940179826E+00               0
GRID*               4236               01.7433556471E+001.0102357553E+01+
*       -2.915985387E+00               0
GRID*               4237               01.8080763371E+001.0179120419E+01+
*       -2.925731825E+00               0
GRID*               4238               01.9679407205E+009.8517751851E+00+
*       -3.193810739E+00               0
GRID*               4239               01.9268991724E+009.9316626108E+00+
*       -3.225249478E+00               0
GRID*               4240               01.9848745488E+009.8558279780E+00+
*       -3.023161516E+00               0
GRID*               4241               02.0006923823E+009.8486835965E+00+
*       -3.107355455E+00               0
GRID*               4242               01.9846972806E+009.9416823131E+00+
*       -3.081336879E+00               0
GRID*               4243               02.0247401156E+001.0027025447E+01+
*       -3.134932211E+00               0
GRID*               4244               01.8697775118E+001.0164599367E+01+
*       -3.254052540E+00               0
GRID*               4245               01.8276590937E+001.0084371055E+01+
*       -3.265094499E+00               0
GRID*               4246               01.9571526702E+001.0198557331E+01+
*       -3.216830379E+00               0
GRID*               4247               01.9969721393E+001.0107017063E+01+
*       -3.182643425E+00               0
GRID*               4248               01.8787377605E+001.0012974124E+01+
*       -3.248845888E+00               0
GRID*               4249               01.9634801530E+001.0015162145E+01+
*       -3.205511888E+00               0
GRID*               4094               01.7193562343E+009.4685686363E+00+
*       -3.228464147E+00               0
GRID*               4095               01.6304749834E+009.6321286667E+00+
*       -3.275931611E+00               0
GRID*               4096               01.8223157834E+009.6221657861E+00+
*       -3.248544672E+00               0
GRID*               4097               01.8948927190E+009.4785303035E+00+
*       -3.177632959E+00               0
GRID*               4098               01.8935662096E+009.6093667318E+00+
*       -2.939283875E+00               0
GRID*               4099               01.7391252229E+009.6400496947E+00+
*       -2.893212647E+00               0
GRID*               4100               01.9968504211E+009.5371704782E+00+
*       -3.055324677E+00               0
GRID*               4101               01.9602666933E+009.6252538698E+00+
*       -3.174944737E+00               0
GRID*               4102               01.5292776479E+009.4818146282E+00+
*       -3.230473368E+00               0
GRID*               4103               01.4373920155E+009.6399285214E+00+
*       -3.247709645E+00               0
GRID*               4104               01.3490302644E+009.6627439799E+00+
*       -2.946360215E+00               0
GRID*               4105               01.5143497672E+009.6614665010E+00+
*       -2.893872017E+00               0
GRID*               4106               01.3716949642E+009.4929978448E+00+
*       -3.186932645E+00               0
GRID*               4107               01.2581530563E+009.6239437390E+00+
*       -3.117211810E+00               0
GRID*               4108               01.6878387521E+009.7090631975E+00+
*       -3.283674206E+00               0
GRID*               4109               01.5844965833E+009.7184591934E+00+
*       -3.283973901E+00               0
GRID*               4110               01.7272226744E+009.6253889713E+00+
*       -3.269126649E+00               0
GRID*               4111               01.7718461101E+009.5440358842E+00+
*       -3.243446560E+00               0
GRID*               4112               01.6751458892E+009.5490386078E+00+
*       -3.257391132E+00               0
GRID*               4113               01.7823494307E+009.7041437967E+00+
*       -3.270187799E+00               0
GRID*               4114               01.8805641468E+009.6952359094E+00+
*       -3.238147881E+00               0
GRID*               4115               01.8093854480E+009.4713578674E+00+
*       -3.210662452E+00               0
GRID*               4116               01.8604073306E+009.5489012866E+00+
*       -3.217888893E+00               0
GRID*               4117               01.8459641175E+009.3968990721E+00+
*       -3.165987553E+00               0
GRID*               4118               01.9241936546E+009.4154641485E+00+
*       -3.120435779E+00               0
GRID*               4119               01.7589960412E+009.3921957093E+00+
*       -3.190249439E+00               0
GRID*               4120               01.8442049743E+009.5504806265E+00+
*       -2.895369251E+00               0
GRID*               4121               01.9210934883E+009.5228533770E+00+
*       -2.930441515E+00               0
GRID*               4122               01.7879337713E+009.7084183590E+00+
*       -2.917646802E+00               0
GRID*               4123               01.8186992042E+009.6261850676E+00+
*       -2.910408508E+00               0
GRID*               4124               01.8657248335E+009.6924154572E+00+
*       -2.941116635E+00               0
GRID*               4125               01.6901180928E+009.7170423337E+00+
*       -2.902642513E+00               0
GRID*               4126               01.6842304676E+009.6471573658E+00+
*       -2.887036177E+00               0
GRID*               4127               01.7656557159E+009.5650904137E+00+
*       -2.873388842E+00               0
GRID*               4128               01.6774716311E+009.5799679578E+00+
*       -2.862465089E+00               0
GRID*               4129               01.9794252236E+009.4857810915E+00+
*       -2.986290898E+00               0
GRID*               4130               01.9616208518E+009.5761799920E+00+
*       -2.984431778E+00               0
GRID*               4131               01.9751725057E+009.4447842358E+00+
*       -3.059281638E+00               0
GRID*               4132               01.9458715701E+009.5078503909E+00+
*       -3.116478818E+00               0
GRID*               4133               01.9501078640E+009.6858053092E+00+
*       -2.990152176E+00               0
GRID*               4134               01.9298939776E+009.5510930285E+00+
*       -3.180260329E+00               0
GRID*               4135               01.9897979481E+009.5780198678E+00+
*       -3.119816864E+00               0
GRID*               4136               01.8956799116E+009.6217103459E+00+
*       -3.219281425E+00               0
GRID*               4137               01.9456251336E+009.6972717280E+00+
*       -3.196062165E+00               0
GRID*               4138               01.9805681718E+009.6940415656E+00+
*       -3.112062414E+00               0
GRID*               4139               01.9992508147E+009.6501553584E+00+
*       -3.054655319E+00               0
GRID*               4140               01.6660663226E+009.3936064430E+00+
*       -3.202673320E+00               0
GRID*               4141               01.6243778686E+009.4736691278E+00+
*       -3.235594320E+00               0
GRID*               4142               01.5795476174E+009.5558010400E+00+
*       -3.257987359E+00               0
GRID*               4143               01.5724807620E+009.4000523133E+00+
*       -3.203731999E+00               0
GRID*               4144               01.4768262853E+009.4143670016E+00+
*       -3.194213331E+00               0
GRID*               4145               01.5330065367E+009.6344193789E+00+
*       -3.268716175E+00               0
GRID*               4146               01.4822370641E+009.5596389405E+00+
*       -3.244106169E+00               0
GRID*               4147               01.4892903653E+009.7223512176E+00+
*       -3.270325055E+00               0
GRID*               4148               01.3907997959E+009.7315207988E+00+
*       -3.238965770E+00               0
GRID*               4149               01.3888876910E+009.5936656149E+00+
*       -2.899505445E+00               0
GRID*               4150               01.3067496899E+009.5789435358E+00+
*       -2.937991900E+00               0
GRID*               4151               01.4803284120E+009.7371969380E+00+
*       -2.918022387E+00               0
GRID*               4152               01.3965874579E+009.7375396979E+00+
*       -2.943854043E+00               0
GRID*               4153               01.4292370489E+009.6642944244E+00+
*       -2.913404197E+00               0
GRID*               4154               01.5779691149E+009.7277874832E+00+
*       -2.902818261E+00               0
GRID*               4155               01.5709513380E+009.6579849314E+00+
*       -2.887258419E+00               0
GRID*               4156               01.4728561619E+009.5920219099E+00+
*       -2.874372877E+00               0
GRID*               4157               01.5652351974E+009.5906737491E+00+
*       -2.862734054E+00               0
GRID*               4158               01.4488101587E+009.4861450488E+00+
*       -3.214109749E+00               0
GRID*               4159               01.4030089113E+009.5655731439E+00+
*       -3.221142182E+00               0
GRID*               4160               01.3992662155E+009.4204199016E+00+
*       -3.171807770E+00               0
GRID*               4161               01.3132568491E+009.4491265031E+00+
*       -3.136301232E+00               0
GRID*               4162               01.3347297127E+009.6289005002E+00+
*       -3.198849410E+00               0
GRID*               4163               01.3049475217E+009.5568499433E+00+
*       -3.163259254E+00               0
GRID*               4164               01.3051874240E+009.7233662936E+00+
*       -3.167208168E+00               0
GRID*               4165               01.2702679980E+009.7265938603E+00+
*       -3.083164660E+00               0
GRID*               4166               01.3157066020E+009.7459939807E+00+
*       -2.997738862E+00               0
GRID*               4167               01.2577588882E+009.5146228466E+00+
*       -3.101166344E+00               0
GRID*               4168               01.2419737937E+009.5600629503E+00+
*       -3.021024936E+00               0
GRID*               4169               01.3035916603E+009.6433438595E+00+
*       -3.031786013E+00               0
GRID*               4872               02.0136856442E+001.0361689011E+01+
*       -2.991745662E+00               0
GRID*               4873               02.0577803538E+001.0383729320E+01+
*       -3.069806397E+00               0
GRID*               4874               01.3666921173E+001.0431204988E+01+
*       -3.186538809E+00               0
GRID*               4875               01.4177332892E+001.0371435018E+01+
*       -3.248186324E+00               0
GRID*               4876               01.4766983223E+001.0340442792E+01+
*       -3.298070121E+00               0
GRID*               4877               01.5664843698E+001.0302060706E+01+
*       -3.322114611E+00               0
GRID*               4878               01.6544506138E+001.0277965933E+01+
*       -3.322114611E+00               0
GRID*               4879               02.0416038309E+001.0363120306E+01+
*       -3.146342804E+00               0
GRID*               4880               02.0000576359E+001.0338328393E+01+
*       -3.228222977E+00               0
GRID*               4881               01.7549227096E+001.0275601790E+01+
*       -3.316677234E+00               0
GRID*               4882               01.8458198718E+001.0283073543E+01+
*       -3.316677234E+00               0
GRID*               4883               01.9331700462E+001.0317250854E+01+
*       -3.280925425E+00               0
GRID*               4884               01.9447714342E+001.0311546396E+01+
*       -2.939567370E+00               0
GRID*               4885               01.8776502847E+001.0290605181E+01+
*       -2.887313080E+00               0
GRID*               4886               01.3617732606E+001.0433091036E+01+
*       -3.023510654E+00               0
GRID*               4887               01.3922318371E+001.0391728448E+01+
*       -2.964988199E+00               0
GRID*               4888               01.4571716259E+001.0356432613E+01+
*       -2.909601219E+00               0
GRID*               4889               01.5220412192E+001.0315753731E+01+
*       -2.880668988E+00               0
GRID*               4890               01.7788326740E+001.0280052185E+01+
*       -2.871762276E+00               0
GRID*               4891               01.6886033373E+001.0272867057E+01+
*       -2.871762276E+00               0
GRID*               4892               01.6140778205E+001.0303469931E+01+
*       -2.892779272E+00               0
GRID*               4250               01.5336515836E+001.0785671318E+01+
*       -3.218991193E+00               0
GRID*               4251               01.5258726150E+001.0820139114E+01+
*       -3.030273553E+00               0
GRID*               4252               01.6353776935E+001.0661196511E+01+
*       -3.108267553E+00               0
GRID*               4253               01.5524846043E+001.0957939025E+01+
*       -3.202019556E+00               0
GRID*               4254               01.5927028887E+001.1008513748E+01+
*       -3.009442838E+00               0
GRID*               4255               01.7206153069E+001.1065450598E+01+
*       -3.187913775E+00               0
GRID*               4256               01.7837085422E+001.1061781013E+01+
*       -2.995276768E+00               0
GRID*               4257               01.9031378997E+001.0991589454E+01+
*       -3.165997073E+00               0
GRID*               4258               01.9232401770E+001.0964268552E+01+
*       -2.976880596E+00               0
GRID*               4259               01.9511976690E+001.0806178126E+01+
*       -3.087210414E+00               0
GRID*               4260               01.5553227322E+001.0737877067E+01+
*       -2.923160377E+00               0
GRID*               4261               01.5238202218E+001.0845115137E+01+
*       -2.923160378E+00               0
GRID*               4262               01.7319194589E+001.0634446852E+01+
*       -3.149823734E+00               0
GRID*               4263               01.7319169480E+001.0634446756E+01+
*       -3.055990654E+00               0
GRID*               4264               01.7225704714E+001.0664012055E+01+
*       -3.285215497E+00               0
GRID*               4265               01.6250419539E+001.0667281563E+01+
*       -3.243658250E+00               0
GRID*               4266               01.5651622586E+001.0723130436E+01+
*       -3.299020602E+00               0
GRID*               4267               01.5725010691E+001.0713620768E+01+
*       -3.163629310E+00               0
GRID*               4268               01.7199142631E+001.0635215836E+01+
*       -2.909882188E+00               0
GRID*               4269               01.6250445512E+001.0667280024E+01+
*       -2.962158116E+00               0
GRID*               4270               01.5618582923E+001.0727798040E+01+
*       -3.069269073E+00               0
GRID*               4271               01.5290581391E+001.0802736070E+01+
*       -3.124632599E+00               0
GRID*               4272               01.5459258191E+001.0945623512E+01+
*       -2.912745311E+00               0
GRID*               4273               01.6195537916E+001.1029764781E+01+
*       -2.912744471E+00               0
GRID*               4274               01.5362078657E+001.0922582125E+01+
*       -3.019857918E+00               0
GRID*               4275               01.5276864926E+001.0891309768E+01+
*       -3.116145389E+00               0
GRID*               4276               01.5706884888E+001.0984733098E+01+
*       -3.105729651E+00               0
GRID*               4277               01.5249715018E+001.0827424656E+01+
*       -3.299020600E+00               0
GRID*               4278               01.5250360980E+001.0873785919E+01+
*       -3.210505191E+00               0
GRID*               4279               01.5338552412E+001.0915576643E+01+
*       -3.290534330E+00               0
GRID*               4280               01.7152867510E+001.1064911583E+01+
*       -2.905663001E+00               0
GRID*               4281               01.8259235447E+001.1048370462E+01+
*       -2.905663438E+00               0
GRID*               4282               01.6817314948E+001.1058362980E+01+
*       -3.002360026E+00               0
GRID*               4283               01.6519669027E+001.1047657979E+01+
*       -3.098677263E+00               0
GRID*               4284               01.7522938745E+001.1065937535E+01+
*       -3.091594933E+00               0
GRID*               4285               01.5940476876E+001.1009754409E+01+
*       -3.290534331E+00               0
GRID*               4286               01.6234312804E+001.1032301310E+01+
*       -3.194967689E+00               0
GRID*               4287               01.6841871800E+001.1059032272E+01+
*       -3.283480774E+00               0
GRID*               4288               01.8848628621E+001.1010298493E+01+
*       -3.272523860E+00               0
GRID*               4289               01.9454277290E+001.0916294196E+01+
*       -3.272523071E+00               0
GRID*               4290               01.7960418055E+001.1058837883E+01+
*       -3.283481604E+00               0
GRID*               4291               01.8208224640E+001.1050512409E+01+
*       -3.176955045E+00               0
GRID*               4292               01.8491933768E+001.1036526191E+01+
*       -3.080637803E+00               0
GRID*               4293               01.8969659601E+001.0998424861E+01+
*       -2.896465274E+00               0
GRID*               4294               01.9499637455E+001.0899985652E+01+
*       -2.896465411E+00               0
GRID*               4295               01.8634393845E+001.1027385462E+01+
*       -2.986080069E+00               0
GRID*               4296               01.9137280209E+001.0978320838E+01+
*       -3.071438670E+00               0
GRID*               4297               01.9087521792E+001.0715783907E+01+
*       -3.045461688E+00               0
GRID*               4298               01.9087501553E+001.0715781720E+01+
*       -3.139294722E+00               0
GRID*               4299               01.9161287190E+001.0725609212E+01+
*       -2.909882188E+00               0
GRID*               4300               01.9533653553E+001.0818269200E+01+
*       -2.951629533E+00               0
GRID*               4301               01.9524428560E+001.0887986540E+01+
*       -3.032045771E+00               0
GRID*               4302               01.9161287186E+001.0725609211E+01+
*       -3.285215497E+00               0
GRID*               4303               01.9533651911E+001.0818268476E+01+
*       -3.233129588E+00               0
GRID*               4304               01.9488389362E+001.0904524556E+01+
*       -3.126603518E+00               0
GRID*                  3               05.1842689514E-013.9975907803E+00+
*       -1.912023306E+00               0
GRID*                  4               05.3959774971E-013.8946390152E+00+
*       -1.702941537E+00               0
GRID*                  5               07.0961809158E-013.9633712769E+00+
*       -1.905048132E+00               0
GRID*                  6               05.6172007322E-013.7715225220E+00+
*       -1.892924428E+00               0
GRID*                  7               01.6815408468E+003.7171528339E+00+
*       -1.426472545E+00               0
GRID*                  8               01.6457686424E+003.8114757538E+00+
*       -1.635475993E+00               0
GRID*                  9               04.5159196854E-013.7969145775E+00+
*       -1.404272556E+00               0
GRID*                 10               04.6439525485E-013.6999917030E+00+
*       -1.600660682E+00               0
GRID*                 11               04.4500151277E-013.3349077702E+00+
*       -1.538112044E+00               0
GRID*                 12               06.2938016653E-013.9625830650E+00+
*       -1.442642212E+00               0
GRID*                 13               01.1888870001E+004.3000211716E+00+
*       -1.705619335E+00               0
GRID*                 14               01.2190170288E+004.1141977310E+00+
*       -1.590351701E+00               0
GRID*                 15               01.0442522764E+004.3133974075E+00+
*       -1.624315977E+00               0
GRID*                 16               01.0650990009E+004.1392211914E+00+
*       -1.706224561E+00               0
GRID*                 17               01.0943233967E+004.3456044197E+00+
*       -1.960646868E+00               0
GRID*                 18               01.4946823120E+003.8787019253E+00+
*       -1.397980809E+00               0
GRID*                 19               01.5739307404E+003.4280257225E+00+
*       -1.488549232E+00               0
GRID*                 20               01.4918644428E+003.8916845322E+00+
*       -1.729899764E+00               0
GRID*                 21               01.5014249086E+004.0560297966E+00+
*       -1.423639297E+00               0
GRID*                 22               01.4357287884E+004.0998802185E+00+
*       -1.912284613E+00               0
GRID*                 23               01.5451259613E+004.1279411316E+00+
*       -1.733563185E+00               0
GRID*                 24               01.3785547018E+003.9833607674E+00+
*       -1.565026164E+00               0
GRID*                 25               01.2395534515E+004.0761170387E+00+
*       -1.815794826E+00               0
GRID*                 26               01.4736343622E+004.2827301025E+00+
*       -1.603109241E+00               0
GRID*                 27               07.1467608213E-013.0886437893E+00+
*       -1.910516262E+00               0
GRID*                 28               07.9056870937E-013.0369851589E+00+
*       -1.710325718E+00               0
GRID*                 29               05.3324431181E-013.2564849854E+00+
*       -1.801461935E+00               0
GRID*                 30               01.5294469595E+007.0367050171E+00+
*       -1.596984029E+00               0
GRID*                 31               01.6179295778E+006.9502773285E+00+
*       -1.684966087E+00               0
GRID*                 32               01.5304710865E+006.7670383453E+00+
*       -1.662203789E+00               0
GRID*                 33               01.3885273933E+004.5338864326E+00+
*       -1.724491119E+00               0
GRID*                 34               01.4561505318E+004.6268968582E+00+
*       -1.592091322E+00               0
GRID*                 35               01.2358083725E+004.7460613251E+00+
*       -1.560533762E+00               0
GRID*                 36               01.1799417734E+004.5165610313E+00+
*       -1.607036114E+00               0
GRID*                 37               01.2576171160E+004.4467186928E+00+
*       -1.491099238E+00               0
GRID*                 38               01.1306583881E+004.4874296188E+00+
*       -1.806567311E+00               0
GRID*                 39               09.2154139280E-014.5899295807E+00+
*       -1.642334342E+00               0
GRID*                 40               01.0413858891E+004.6838607788E+00+
*       -1.765185833E+00               0
GRID*                 41               01.0986675024E+004.6949086189E+00+
*       -1.521125555E+00               0
GRID*                 42               01.0161839724E+004.4701542854E+00+
*       -1.543887854E+00               0
GRID*                 43               01.2928954363E+004.7633996010E+00+
*       -1.781635523E+00               0
GRID*                 44               01.1799054146E+007.4029812813E+00+
*       -1.791259885E+00               0
GRID*                 45               01.4215226173E+007.3322048187E+00+
*       -1.810715914E+00               0
GRID*                 46               01.6566156149E+003.5566246510E+00+
*       -1.814277887E+00               0
GRID*                 47               06.6990232468E-014.1553974152E+00+
*       -1.875108838E+00               0
GRID*                 48               09.1595417261E-015.0893387794E+00+
*       -1.671994686E+00               0
GRID*                 49               09.9263006449E-014.8949122429E+00+
*       -1.597066641E+00               0
GRID*                 50               08.4359103441E-014.2612066269E+00+
*       -1.916975498E+00               0
GRID*                 51               09.6248197556E-014.0902180672E+00+
*       -1.916437507E+00               0
GRID*                 52               08.4608310461E-014.0464673042E+00+
*       -1.741006851E+00               0
GRID*                 53               08.7102437019E-014.3583750725E+00+
*       -1.760166407E+00               0
GRID*                 54               06.8280923367E-014.1219415665E+00+
*       -1.526294947E+00               0
GRID*                 55               08.3965969086E-014.3358187675E+00+
*       -1.513635516E+00               0
GRID*                 56               01.0616412163E+004.2688159943E+00+
*       -1.350427747E+00               0
GRID*                 57               09.6849417686E-014.1149783134E+00+
*       -1.504833579E+00               0
GRID*                 58               01.3053840399E+004.3042473793E+00+
*       -1.449909568E+00               0
GRID*                 59               01.4028637409E+001.0654583931E+01+
*       -2.989484072E+00               0
GRID*                 60               01.5297677517E+001.0455635071E+01+
*       -3.032945871E+00               0
GRID*                 61               01.4231510162E+001.0619240761E+01+
*       -3.195114613E+00               0
GRID*                 62               01.3522436619E+001.0895067215E+01+
*       -3.194666624E+00               0
GRID*                 63               01.2766177654E+005.0429491997E+00+
*       -1.758261323E+00               0
GRID*                 64               01.7798187733E+001.0009384155E+01+
*       -3.138465881E+00               0
GRID*                 65               01.8391315937E+009.8547563553E+00+
*       -3.100974321E+00               0
GRID*                 66               01.7525959015E+001.0229542732E+01+
*       -3.102174759E+00               0
GRID*                 67               01.6599802971E+003.8395221233E+00+
*       -1.876518846E+00               0
GRID*                 68               01.4243702888E+001.1074038506E+01+
*       -3.109212875E+00               0
GRID*                 69               01.7414777279E+009.7109127045E+00+
*       -3.077843189E+00               0
GRID*                 70               01.6315404177E+009.8324451447E+00+
*       -3.105246305E+00               0
GRID*                 71               01.8560222387E+001.1211332321E+01+
*       -3.157629251E+00               0
GRID*                 72               01.6379158497E+001.1208533287E+01+
*       -3.000907660E+00               0
GRID*                 73               01.6708890200E+001.0448001862E+01+
*       -3.239504814E+00               0
GRID*                 74               01.8294200897E+001.0446630478E+01+
*       -3.065059185E+00               0
GRID*                 75               01.5830535889E+001.0122029305E+01+
*       -3.089610338E+00               0
GRID*                 76               01.3719598055E+004.3159098625E+00+
*       -1.860846519E+00               0
GRID*                 77               01.5310178995E+005.9756178856E+00+
*       -1.583149314E+00               0
GRID*                 78               01.4318536520E+006.1859550476E+00+
*       -1.620262265E+00               0
GRID*                 79               02.1157615185E+001.0994129181E+01+
*       -3.042833328E+00               0
GRID*                 80               01.9854189157E+001.0491750717E+01+
*       -3.073002338E+00               0
GRID*                 81               01.6264029741E+007.3114824295E+00+
*       -1.766099811E+00               0
GRID*                 82               01.5064949989E+007.1857028008E+00+
*       -1.727737784E+00               0
GRID*                 83               01.6810547113E+007.5140399933E+00+
*       -1.879550576E+00               0
GRID*                 84               01.7795828581E+009.4775714874E+00+
*       -3.038016081E+00               0
GRID*                 85               01.5573080778E+009.3466472626E+00+
*       -2.959088564E+00               0
GRID*                 86               01.5636593103E+009.5314960480E+00+
*       -3.056263447E+00               0
GRID*                 87               01.2572730780E+007.6428785324E+00+
*       -1.973537803E+00               0
GRID*                 88               01.4161095619E+007.5547699928E+00+
*       -1.885308743E+00               0
GRID*                 89               01.4542565346E+007.7417197227E+00+
*       -2.019973993E+00               0
GRID*                 90               01.2911325693E+007.8483357430E+00+
*       -2.078171253E+00               0
GRID*                 91               04.5976662636E-013.5725755692E+00+
*       -1.798011303E+00               0
GRID*                 92               01.5725218058E+009.0011005402E+00+
*       -2.737587690E+00               0
GRID*                 93               01.7227306366E+008.9040355682E+00+
*       -2.670936346E+00               0
GRID*                 94               01.6575747728E+009.2339363098E+00+
*       -2.894928694E+00               0
GRID*                 95               01.6896317005E+008.6975069046E+00+
*       -2.568508863E+00               0
GRID*                 96               01.4588494301E+008.8243255615E+00+
*       -2.635772467E+00               0
GRID*                 97               01.5848759413E+006.3431892395E+00+
*       -1.607624888E+00               0
GRID*                 98               01.3827704191E+006.3874168396E+00+
*       -1.645107031E+00               0
GRID*                 99               01.4621269703E+009.0788764954E+00+
*       -2.866293669E+00               0
GRID*                100               01.5149641037E+009.6826086044E+00+
*       -3.068971872E+00               0
GRID*                101               01.2246366739E+006.9056911469E+00+
*       -1.640718222E+00               0
GRID*                102               01.0718868971E+006.7727522850E+00+
*       -1.623430610E+00               0
GRID*                103               01.3653560877E+006.7915029526E+00+
*       -1.546559095E+00               0
GRID*                104               01.1298596859E+007.0672688484E+00+
*       -1.656054378E+00               0
GRID*                105               01.2867029905E+007.0402045250E+00+
*       -1.694892526E+00               0
GRID*                106               01.2282754183E+006.7333998680E+00+
*       -1.738597989E+00               0
GRID*                107               01.1877796650E+006.6175222397E+00+
*       -1.538797855E+00               0
GRID*                108               09.9855244160E-015.9525113106E+00+
*       -1.609171629E+00               0
GRID*                109               01.0814676285E+005.6547493935E+00+
*       -1.637666583E+00               0
GRID*                110               01.2285537720E+005.7800326347E+00+
*       -1.610322595E+00               0
GRID*                111               01.1845412254E+006.1435132027E+00+
*       -1.591525793E+00               0
GRID*                112               01.2869786024E+005.9493327141E+00+
*       -1.527692795E+00               0
GRID*                113               01.4716334343E+008.4176683426E+00+
*       -2.432228327E+00               0
GRID*                114               01.4887995720E+008.6298370361E+00+
*       -2.523700953E+00               0
GRID*                115               01.4506140947E+008.2738618851E+00+
*       -2.394499302E+00               0
GRID*                116               01.2408454418E+004.0878839493E+00+
*       -1.392302155E+00               0
GRID*                117               01.6551758051E+008.1775159836E+00+
*       -2.274770975E+00               0
GRID*                118               01.6505465508E+008.3746328354E+00+
*       -2.367470980E+00               0
GRID*                119               01.4784432650E+008.0992269516E+00+
*       -2.227022886E+00               0
GRID*                120               01.6438007355E+007.9994153976E+00+
*       -2.172880411E+00               0
GRID*                121               01.4002442360E+005.9113955498E+00+
*       -1.771022201E+00               0
GRID*                122               01.3925073147E+004.8274116516E+00+
*       -1.641422629E+00               0
GRID*                123               01.2751735449E+008.0257215500E+00+
*       -2.178471088E+00               0
GRID*                124               01.2849489450E+008.1678771973E+00+
*       -2.277387142E+00               0
GRID*                125               01.4659634829E+007.9209232330E+00+
*       -2.123856783E+00               0
GRID*                126               01.6683654785E+008.5672483444E+00+
*       -2.463333368E+00               0
GRID*                127               01.4890763760E+005.1005849838E+00+
*       -1.649779201E+00               0
GRID*                128               01.4081918001E+005.2947311401E+00+
*       -1.569366574E+00               0
GRID*                129               01.6512103081E+007.8013734818E+00+
*       -2.051477671E+00               0
GRID*                130               01.6486823559E+007.6388964653E+00+
*       -1.969104767E+00               0
GRID*                131               01.2932790518E+007.2074384689E+00+
*       -1.727625370E+00               0
GRID*                132               01.4316893816E+007.0313301086E+00+
*       -1.765592575E+00               0
GRID*                133               01.3935612440E+006.8372664452E+00+
*       -1.733864188E+00               0
GRID*                134               01.4534937143E+006.5857858658E+00+
*       -1.636731744E+00               0
GRID*                135               09.8183929920E-015.4885873795E+00+
*       -1.696719289E+00               0
GRID*                136               01.4482338428E+003.1487128735E+00+
*       -1.792504549E+00               0
GRID*                137               01.6473065615E+003.2782258987E+00+
*       -1.768928647E+00               0
GRID*                138               01.2293860912E+002.9872965813E+00+
*       -1.751948714E+00               0
GRID*                139               01.0971759558E+004.9574928284E+00+
*       -1.773501635E+00               0
GRID*                140               01.1141685247E+005.1114611626E+00+
*       -1.638194680E+00               0
GRID*                141               09.7982239723E-015.2524724007E+00+
*       -1.624366641E+00               0
GRID*                142               01.3202660084E+005.0515012741E+00+
*       -1.524473667E+00               0
GRID*                143               01.1986497641E+004.9329166412E+00+
*       -1.554780006E+00               0
GRID*                144               01.2502405643E+006.5198683739E+00+
*       -1.718983293E+00               0
GRID*                145               01.1862384081E+006.2930693626E+00+
*       -1.673275709E+00               0
GRID*                146               01.5161966085E+005.4606637955E+00+
*       -1.639674187E+00               0
GRID*                147               01.2520849705E+005.5179595947E+00+
*       -1.638445973E+00               0
GRID*                148               01.3935909271E+005.6896138191E+00+
*       -1.583642125E+00               0
GRID*                149               01.2687319517E+003.0049898624E+00+
*       -1.488068581E+00               0
GRID*                150               01.0198363066E+002.8952679634E+00+
*       -1.542324543E+00               0
GRID*                151               01.0961914063E+003.0621578693E+00+
*       -1.848710656E+00               0
GRID*                152               01.5282496214E+003.1681871414E+00+
*       -1.461464286E+00               0
GRID*                153               07.0150130987E-012.9884767532E+00+
*       -1.491235971E+00               0
GRID*                154               01.0955724716E+005.3331513405E+00+
*       -1.766412854E+00               0
GRID*                155               01.1892321110E+005.2884349823E+00+
*       -1.545575619E+00               0
GRID*                156               03.9815113006E-013.9934138865E+00+
*       -1.889785383E+00               0
GRID*                157               04.0873655735E-013.9419380040E+00+
*       -1.785244498E+00               0
GRID*                158               05.2901232243E-013.9461148977E+00+
*       -1.807482421E+00               0
GRID*                159               04.3111736182E-014.0567291761E+00+
*       -1.782443209E+00               0
GRID*                160               04.4170278910E-014.0052532936E+00+
*       -1.677902324E+00               0
GRID*                161               05.6739434175E-014.0421366317E+00+
*       -1.994036078E+00               0
GRID*                162               06.6298993997E-014.0250268800E+00+
*       -1.990548491E+00               0
GRID*                163               06.1402249336E-013.9804810286E+00+
*       -1.908535719E+00               0
GRID*                164               05.7002067078E-013.9388171630E+00+
*       -1.994036078E+00               0
GRID*                165               06.6561626900E-013.9217074113E+00+
*       -1.990548491E+00               0
GRID*                166               05.4007348418E-013.8845566511E+00+
*       -1.902473867E+00               0
GRID*                167               04.8932863333E-013.7635244359E+00+
*       -1.984486639E+00               0
GRID*                168               04.6768204429E-013.8765585650E+00+
*       -1.994036078E+00               0
GRID*                169               05.9166725982E-013.8257830339E+00+
*       -1.984486639E+00               0
GRID*                170               03.4740627921E-013.8723816713E+00+
*       -1.971798155E+00               0
GRID*                171               04.4419525042E-014.0394679654E+00+
*       -1.994036078E+00               0
GRID*                172               05.5065891147E-013.8330807686E+00+
*       -1.797932982E+00               0
GRID*                173               06.2460792065E-013.9290051460E+00+
*       -1.803994834E+00               0
GRID*                174               06.3566908240E-013.8674468994E+00+
*       -1.898986280E+00               0
GRID*                175               01.5284874818E+003.7513796331E+00+
*       -1.492305875E+00               0
GRID*                176               01.5106013796E+003.7985410930E+00+
*       -1.596807599E+00               0
GRID*                177               01.6636547446E+003.7643142939E+00+
*       -1.530974269E+00               0
GRID*                178               01.5590041812E+003.6600371611E+00+
*       -1.490843893E+00               0
GRID*                179               01.5411180790E+003.7071986210E+00+
*       -1.595345618E+00               0
GRID*                180               04.5799361169E-013.7484531403E+00+
*       -1.502466619E+00               0
GRID*                181               05.8338866410E-013.6671494377E+00+
*       -1.494631551E+00               0
GRID*                182               05.7698702094E-013.7156108749E+00+
*       -1.396437489E+00               0
GRID*                183               04.4829674065E-013.5659111738E+00+
*       -1.471192300E+00               0
GRID*                184               04.5469838381E-013.5174497366E+00+
*       -1.569386363E+00               0
GRID*                185               05.7369179306E-013.4846074713E+00+
*       -1.463357233E+00               0
GRID*                186               03.2058467331E-013.7633414108E+00+
*       -1.423056975E+00               0
GRID*                187               03.2698631647E-013.7148799736E+00+
*       -1.521251038E+00               0
GRID*                188               03.1852499009E-013.6297545728E+00+
*       -1.420914565E+00               0
GRID*                189               03.2492663325E-013.5812931356E+00+
*       -1.519108628E+00               0
GRID*                190               03.4554116790E-013.7090439210E+00+
*       -1.328945116E+00               0
GRID*                191               04.7654846312E-013.7426170876E+00+
*       -1.310160697E+00               0
GRID*                192               03.5021910855E-013.8178823436E+00+
*       -1.310160697E+00               0
GRID*                193               05.4048606753E-013.8797488213E+00+
*       -1.423457384E+00               0
GRID*                194               05.5154986326E-013.9333771821E+00+
*       -1.329345524E+00               0
GRID*                195               04.6265576426E-013.8505429383E+00+
*       -1.310160697E+00               0
GRID*                196               05.5165904045E-013.8342102015E+00+
*       -1.310160697E+00               0
GRID*                197               06.4055313944E-013.9170444453E+00+
*       -1.329345524E+00               0
GRID*                198               03.3279194054E-013.8313394332E+00+
*       -1.529731089E+00               0
GRID*                199               03.3919358370E-013.7828779960E+00+
*       -1.627925152E+00               0
GRID*                200               03.6162337384E-013.8882275222E+00+
*       -1.420392176E+00               0
GRID*                201               04.9559485912E-013.8457767963E+00+
*       -1.553607047E+00               0
GRID*                202               05.0199650228E-013.7973153591E+00+
*       -1.651801109E+00               0
GRID*                203               03.7679483113E-013.8802016521E+00+
*       -1.679065580E+00               0
GRID*                204               05.9419126583E-013.7709204469E+00+
*       -1.482680189E+00               0
GRID*                205               06.3819415642E-013.8197826658E+00+
*       -1.632014679E+00               0
GRID*                206               05.8448895812E-013.9286110401E+00+
*       -1.572791874E+00               0
GRID*                207               06.8308536483E-013.8537546907E+00+
*       -1.501865016E+00               0
GRID*                208               01.2039520144E+004.2071094513E+00+
*       -1.647985518E+00               0
GRID*                209               01.1316346526E+004.2137975693E+00+
*       -1.607333839E+00               0
GRID*                210               01.1165696383E+004.3067092896E+00+
*       -1.664967656E+00               0
GRID*                211               01.1269930005E+004.2196211815E+00+
*       -1.705921948E+00               0
GRID*                212               01.1420580149E+004.1267094612E+00+
*       -1.648288131E+00               0
GRID*                213               01.0546756387E+004.2263092995E+00+
*       -1.665270269E+00               0
GRID*                214               01.0692878366E+004.3295009136E+00+
*       -1.792481422E+00               0
GRID*                215               01.1416051984E+004.3228127956E+00+
*       -1.833133101E+00               0
GRID*                216               01.0797111988E+004.2424128056E+00+
*       -1.833435714E+00               0
GRID*                217               06.8262657055E-013.8053560958E+00+
*       -1.812881589E+00               0
GRID*                218               07.5657557973E-013.9012804733E+00+
*       -1.818943441E+00               0
GRID*                219               06.7156540879E-013.8669143425E+00+
*       -1.717890143E+00               0
GRID*                220               04.1979771910E-013.8803797574E+00+
*       -1.880235944E+00               0
GRID*                221               03.7668949649E-013.7517670426E+00+
*       -1.880396731E+00               0
GRID*                222               03.6562833473E-013.8133252892E+00+
*       -1.785405286E+00               0
GRID*                223               06.5862458448E-013.7749360456E+00+
*       -1.898846708E+00               0
GRID*                224               06.3026353833E-013.6832019509E+00+
*       -1.899228459E+00               0
GRID*                225               06.4162266480E-013.7405115251E+00+
*       -1.984486639E+00               0
GRID*                226               06.8857177108E-013.8291965575E+00+
*       -1.990408919E+00               0
GRID*                227               01.5881115794E+003.7979273796E+00+
*       -1.412226677E+00               0
GRID*                228               01.6405443090E+003.9912707235E+00+
*       -1.408348006E+00               0
GRID*                229               01.7339735764E+003.9104961778E+00+
*       -1.422593873E+00               0
GRID*                230               01.5702254772E+003.8450888395E+00+
*       -1.516728401E+00               0
GRID*                231               01.7160874742E+003.9576576377E+00+
*       -1.527095598E+00               0
GRID*                232               01.8008140623E+003.7010148311E+00+
*       -1.321260691E+00               0
GRID*                233               01.8029248248E+003.7762830084E+00+
*       -1.450059495E+00               0
GRID*                234               01.7669474384E+003.8235741409E+00+
*       -1.321260691E+00               0
GRID*                235               01.6203331917E+003.6150320914E+00+
*       -1.321260691E+00               0
GRID*                236               01.5665281385E+003.4704685356E+00+
*       -1.352299035E+00               0
GRID*                237               01.6277357936E+003.5725892782E+00+
*       -1.457510889E+00               0
GRID*                238               01.7151164298E+003.6617388500E+00+
*       -1.321260691E+00               0
GRID*                239               01.6613113765E+003.5171752943E+00+
*       -1.352299035E+00               0
GRID*                240               01.4350582144E+003.8321541787E+00+
*       -1.478060007E+00               0
GRID*                241               01.5464305534E+003.7170062776E+00+
*       -1.406533481E+00               0
GRID*                242               01.5566737657E+003.6803915468E+00+
*       -1.321260691E+00               0
GRID*                243               01.6240862571E+003.7466615985E+00+
*       -1.321260691E+00               0
GRID*                244               01.4889759636E+003.7465150421E+00+
*       -1.301321627E+00               0
GRID*                245               01.5688165426E+003.8515801430E+00+
*       -1.682687879E+00               0
GRID*                246               01.7360353223E+003.9385288214E+00+
*       -1.651442388E+00               0
GRID*                247               01.6590832225E+003.9786332106E+00+
*       -1.698654273E+00               0
GRID*                248               01.4966446757E+003.9738571644E+00+
*       -1.576769531E+00               0
GRID*                249               01.5735967755E+003.9337527752E+00+
*       -1.529557645E+00               0
GRID*                250               01.6638634554E+004.0608058428E+00+
*       -1.545524040E+00               0
GRID*                251               01.5113218241E+003.4435739824E+00+
*       -1.990491908E+00               0
GRID*                252               01.4820120485E+003.3520517313E+00+
*       -1.993242927E+00               0
GRID*                253               01.6237423604E+004.0162694015E+00+
*       -1.810304193E+00               0
GRID*                254               01.5956745331E+004.1203672447E+00+
*       -1.901496617E+00               0
GRID*                255               01.4637966156E+003.9957823753E+00+
*       -1.821092188E+00               0
GRID*                256               01.5184952021E+004.0098128319E+00+
*       -1.731731474E+00               0
GRID*                257               01.6503731196E+004.1343977012E+00+
*       -1.812135903E+00               0
GRID*                258               01.4904273748E+004.1139106750E+00+
*       -1.822923899E+00               0
GRID*                259               01.4399898052E+004.0196952820E+00+
*       -1.494332731E+00               0
GRID*                260               01.4980536103E+003.9673658609E+00+
*       -1.410810053E+00               0
GRID*                261               01.4366185069E+003.9310313463E+00+
*       -1.481503487E+00               0
GRID*                262               01.4352095723E+003.9375226498E+00+
*       -1.647462964E+00               0
GRID*                263               01.4932733774E+003.8851932287E+00+
*       -1.563940287E+00               0
GRID*                264               01.3657089472E+003.9839007854E+00+
*       -1.772847295E+00               0
GRID*                265               01.3923397064E+004.1020290852E+00+
*       -1.774679005E+00               0
GRID*                266               01.3376411200E+004.0879986286E+00+
*       -1.864039719E+00               0
GRID*                267               01.5330691251E+004.3518576012E+00+
*       -1.565146347E+00               0
GRID*                268               01.5344290331E+004.2886072701E+00+
*       -1.503922870E+00               0
GRID*                269               01.5746099901E+004.2628060560E+00+
*       -1.581411785E+00               0
GRID*                270               07.5262239575E-013.0628144741E+00+
*       -1.810420990E+00               0
GRID*                271               08.0361284152E-013.1737905508E+00+
*       -1.721783663E+00               0
GRID*                272               07.6566652790E-013.1996198660E+00+
*       -1.821878935E+00               0
GRID*                273               06.2396019697E-013.1725643873E+00+
*       -1.855989099E+00               0
GRID*                274               06.6190651059E-013.1467350721E+00+
*       -1.755893826E+00               0
GRID*                275               06.7495064274E-013.2835404640E+00+
*       -1.767351772E+00               0
GRID*                276               06.9976996651E-012.9283473812E+00+
*       -1.788619458E+00               0
GRID*                277               06.6182365290E-012.9541766964E+00+
*       -1.888714730E+00               0
GRID*                278               07.8308107474E-012.9035765571E+00+
*       -1.886874738E+00               0
GRID*                279               08.2102738836E-012.8777472420E+00+
*       -1.786779466E+00               0
GRID*                280               07.3556843210E-013.0218189412E+00+
*       -1.993282557E+00               0
GRID*                281               06.8271600286E-012.8873518483E+00+
*       -1.971481024E+00               0
GRID*                282               06.1724130538E-013.0045357580E+00+
*       -1.993282557E+00               0
GRID*                283               06.6196795568E-013.0864539494E+00+
*       -1.993282557E+00               0
GRID*                284               05.7125207052E-013.1703745474E+00+
*       -1.938755393E+00               0
GRID*                285               06.6523216548E-013.1860685478E+00+
*       -1.993282557E+00               0
GRID*                286               05.7451628032E-013.2699891458E+00+
*       -1.938755393E+00               0
GRID*                287               06.4258376909E-012.9622268751E+00+
*       -1.681059874E+00               0
GRID*                288               06.0463745547E-012.9880561903E+00+
*       -1.781155146E+00               0
GRID*                289               05.6015627558E-013.0383655956E+00+
*       -1.889191598E+00               0
GRID*                290               05.1392157031E-013.0719767883E+00+
*       -1.726627982E+00               0
GRID*                291               01.6265896990E+007.0377491021E+00+
*       -1.552607856E+00               0
GRID*                292               01.5884319232E+006.9516579221E+00+
*       -1.525950929E+00               0
GRID*                293               01.5736882687E+006.9934911728E+00+
*       -1.640975058E+00               0
GRID*                294               01.6708310082E+006.9945352578E+00+
*       -1.596598886E+00               0
GRID*                295               01.6326732324E+006.9084440778E+00+
*       -1.569941958E+00               0
GRID*                296               01.5742003322E+006.8586578369E+00+
*       -1.673584938E+00               0
GRID*                297               01.6633347407E+006.8099480148E+00+
*       -1.621787649E+00               0
GRID*                298               01.7070639863E+006.9015675064E+00+
*       -1.633168798E+00               0
GRID*                299               01.5889439867E+006.8168245863E+00+
*       -1.558560809E+00               0
GRID*                300               01.6881346148E+007.0677451464E+00+
*       -1.628103883E+00               0
GRID*                301               01.6438933056E+007.1109589907E+00+
*       -1.584112854E+00               0
GRID*                302               01.7213273116E+006.9997071722E+00+
*       -1.686564360E+00               0
GRID*                303               01.5578186616E+006.8197013557E+00+
*       -1.760711046E+00               0
GRID*                304               01.6015479073E+006.9113208473E+00+
*       -1.772092196E+00               0
GRID*                305               01.6875799732E+006.9033684949E+00+
*       -1.724094518E+00               0
GRID*                306               01.6438507275E+006.8117490033E+00+
*       -1.712713368E+00               0
GRID*                307               01.4223389626E+004.5803916454E+00+
*       -1.658291221E+00               0
GRID*                308               01.3459794521E+004.6864790916E+00+
*       -1.576312542E+00               0
GRID*                309               01.3121678829E+004.6399738789E+00+
*       -1.642512441E+00               0
GRID*                310               01.2842345834E+004.5252237320E+00+
*       -1.665763617E+00               0
GRID*                311               01.3180461526E+004.5717289448E+00+
*       -1.599563718E+00               0
GRID*                312               01.2078750730E+004.6313111782E+00+
*       -1.583784938E+00               0
GRID*                313               01.2313605303E+004.5490989506E+00+
*       -1.489617633E+00               0
GRID*                314               01.3694649095E+004.6042668641E+00+
*       -1.482145237E+00               0
GRID*                315               01.2592938298E+004.6638490975E+00+
*       -1.466366457E+00               0
GRID*                316               01.1346659052E+004.5608180630E+00+
*       -1.486638033E+00               0
GRID*                317               01.2187794447E+004.4816398621E+00+
*       -1.549067676E+00               0
GRID*                318               01.2701982016E+004.5141777814E+00+
*       -1.431649196E+00               0
GRID*                319               01.1735035765E+004.5258968937E+00+
*       -1.428669595E+00               0
GRID*                320               01.1553000808E+004.5019953251E+00+
*       -1.706801713E+00               0
GRID*                321               01.0260998905E+004.5386795998E+00+
*       -1.724450827E+00               0
GRID*                322               01.0507415831E+004.5532453060E+00+
*       -1.624685228E+00               0
GRID*                323               01.1106638312E+004.6002109051E+00+
*       -1.686110973E+00               0
GRID*                324               01.0860221386E+004.5856451988E+00+
*       -1.785876572E+00               0
GRID*                325               09.8146364093E-014.6368951797E+00+
*       -1.703760087E+00               0
GRID*                326               01.0101044476E+004.6424190998E+00+
*       -1.581729949E+00               0
GRID*                327               01.1393046379E+004.6057348251E+00+
*       -1.564080834E+00               0
GRID*                328               01.0700266957E+004.6893846989E+00+
*       -1.643155694E+00               0
GRID*                329               01.1120970249E+004.4149792194E+00+
*       -1.615676045E+00               0
GRID*                330               01.1509346962E+004.3800580502E+00+
*       -1.557707608E+00               0
GRID*                331               01.0980628729E+004.4933576584E+00+
*       -1.575461984E+00               0
GRID*                332               01.0302181244E+004.3917758465E+00+
*       -1.584101915E+00               0
GRID*                333               01.1369005442E+004.4584364891E+00+
*       -1.517493546E+00               0
GRID*                334               01.0527870047E+004.5376146900E+00+
*       -1.455063903E+00               0
GRID*                335               01.1907233948E+004.6382727444E+00+
*       -1.446662354E+00               0
GRID*                336               01.0940287697E+004.6499918568E+00+
*       -1.443682754E+00               0
GRID*                337               01.1385971308E+004.7149610519E+00+
*       -1.662859797E+00               0
GRID*                338               01.1672379375E+004.7204849720E+00+
*       -1.540829659E+00               0
GRID*                339               01.2364186049E+004.6399803162E+00+
*       -1.694335818E+00               0
GRID*                340               01.2643519044E+004.7547304630E+00+
*       -1.671084642E+00               0
GRID*                341               01.3407114148E+004.6486430168E+00+
*       -1.753063321E+00               0
GRID*                342               01.3007140160E+007.3675930500E+00+
*       -1.800987899E+00               0
GRID*                343               01.3293983181E+007.3131493602E+00+
*       -1.906680082E+00               0
GRID*                344               01.2085897167E+007.3485375915E+00+
*       -1.896952068E+00               0
GRID*                345               01.2204010132E+007.4340300129E+00+
*       -1.945860621E+00               0
GRID*                346               01.3412096145E+007.3986417816E+00+
*       -1.955588636E+00               0
GRID*                347               05.4961257328E-013.2483132555E+00+
*       -1.377080441E+00               0
GRID*                348               06.8995811320E-013.3020329412E+00+
*       -1.301595508E+00               0
GRID*                349               05.8534705268E-013.3886274558E+00+
*       -1.462627112E+00               0
GRID*                350               04.7093850636E-013.3633661408E+00+
*       -1.377080441E+00               0
GRID*                351               06.1128404628E-013.4170858264E+00+
*       -1.301595508E+00               0
GRID*                352               01.1990106019E+007.2887864300E+00+
*       -1.862288294E+00               0
GRID*                353               01.3198192032E+007.2533981987E+00+
*       -1.872016309E+00               0
GRID*                354               01.0868610246E+007.4279241473E+00+
*       -1.809654855E+00               0
GRID*                355               01.0814089024E+007.3627080009E+00+
*       -1.753544413E+00               0
GRID*                356               01.1231161361E+007.4344980648E+00+
*       -1.741724822E+00               0
GRID*                357               01.6690782309E+003.6368887424E+00+
*       -1.620375216E+00               0
GRID*                358               01.5465415652E+003.5797730696E+00+
*       -1.684746565E+00               0
GRID*                359               01.6511921287E+003.6840502024E+00+
*       -1.724876940E+00               0
GRID*                360               01.1361937498E+007.5026242715E+00+
*       -1.777522157E+00               0
GRID*                361               01.0896865874E+007.5194836701E+00+
*       -1.879483344E+00               0
GRID*                362               01.1333982522E+007.4198406799E+00+
*       -1.893221072E+00               0
GRID*                363               06.0475003719E-014.0250182152E+00+
*       -1.789025187E+00               0
GRID*                364               05.9416460991E-014.0764940977E+00+
*       -1.893566072E+00               0
GRID*                365               05.0685507659E-014.1356324936E+00+
*       -1.763985975E+00               0
GRID*                366               09.0781802381E-015.0641133207E+00+
*       -1.765828315E+00               0
GRID*                367               09.4615596975E-014.9669000524E+00+
*       -1.728364292E+00               0
GRID*                368               09.5429211855E-014.9921255112E+00+
*       -1.634530663E+00               0
GRID*                369               08.3895877598E-015.0197396249E+00+
*       -1.721159265E+00               0
GRID*                370               08.7729672191E-014.9225263566E+00+
*       -1.683695242E+00               0
GRID*                371               06.8451760911E-014.2717276596E+00+
*       -1.962582336E+00               0
GRID*                372               08.0127790969E-014.3217720207E+00+
*       -1.996512175E+00               0
GRID*                373               07.4540917772E-014.3138751580E+00+
*       -1.883045660E+00               0
GRID*                374               07.8269946580E-014.2190591284E+00+
*       -1.996512175E+00               0
GRID*                375               06.8976020813E-014.0593843460E+00+
*       -1.890078485E+00               0
GRID*                376               08.3605003357E-014.0267946720E+00+
*       -1.910742819E+00               0
GRID*                377               08.1619215012E-014.1228077412E+00+
*       -1.895773172E+00               0
GRID*                378               07.5799271464E-014.1009323597E+00+
*       -1.808057845E+00               0
GRID*                379               07.7785059810E-014.0049192905E+00+
*       -1.823027492E+00               0
GRID*                380               09.0428254008E-014.0683426857E+00+
*       -1.828722179E+00               0
GRID*                381               07.5674667954E-014.2083020210E+00+
*       -1.896042168E+00               0
GRID*                382               08.5730770230E-014.3097908497E+00+
*       -1.838570952E+00               0
GRID*                383               07.7046334743E-014.2568862438E+00+
*       -1.817637622E+00               0
GRID*                384               08.4483706951E-014.1538369656E+00+
*       -1.828991175E+00               0
GRID*                385               08.5855373740E-014.2024211884E+00+
*       -1.750586629E+00               0
GRID*                386               06.7635577917E-014.1386694908E+00+
*       -1.700701892E+00               0
GRID*                387               07.6444616914E-014.0842044353E+00+
*       -1.633650899E+00               0
GRID*                388               07.7691680193E-014.2401583195E+00+
*       -1.643230677E+00               0
GRID*                389               06.4313205652E-014.1210399491E+00+
*       -1.975578845E+00               0
GRID*                390               07.2582442884E-014.0881008921E+00+
*       -1.975578845E+00               0
GRID*                391               07.4568231230E-013.9920878230E+00+
*       -1.990548491E+00               0
GRID*                392               05.5585181626E-014.1841938669E+00+
*       -1.869869610E+00               0
GRID*                393               06.5856482285E-014.2609705522E+00+
*       -1.862112329E+00               0
GRID*                394               06.0941512234E-014.2103283667E+00+
*       -1.975578845E+00               0
GRID*                395               05.2908154810E-014.1498364008E+00+
*       -1.970339616E+00               0
GRID*                396               09.4195598364E-014.3246080875E+00+
*       -1.568975747E+00               0
GRID*                397               09.2792183161E-014.4029865265E+00+
*       -1.528761685E+00               0
GRID*                398               09.5763832331E-014.3358862400E+00+
*       -1.692241192E+00               0
GRID*                399               08.5534203053E-014.3470969200E+00+
*       -1.636900961E+00               0
GRID*                400               09.4360417128E-014.4142646790E+00+
*       -1.652027130E+00               0
GRID*                401               01.0529467463E+004.2911067009E+00+
*       -1.487371862E+00               0
GRID*                402               09.5065045357E-014.3023173809E+00+
*       -1.432031631E+00               0
GRID*                403               01.0063732266E+004.2141878605E+00+
*       -1.564574778E+00               0
GRID*                404               01.0150676966E+004.1918971539E+00+
*       -1.427630663E+00               0
GRID*                405               09.0407693386E-014.2253985405E+00+
*       -1.509234548E+00               0
GRID*                406               01.1369391084E+004.2096128464E+00+
*       -1.477371573E+00               0
GRID*                407               01.2622005343E+004.2092225552E+00+
*       -1.520130634E+00               0
GRID*                408               01.0937556028E+004.1145880222E+00+
*       -1.547592640E+00               0
GRID*                409               01.1748181581E+004.3088223934E+00+
*       -1.537112772E+00               0
GRID*                410               01.3939979754E+001.0545886389E+01+
*       -2.964759190E+00               0
GRID*                411               01.4574499808E+001.0446411959E+01+
*       -2.986490090E+00               0
GRID*                412               01.4663157463E+001.0555109501E+01+
*       -3.011214972E+00               0
GRID*                413               01.4827545697E+001.0576212825E+01+
*       -2.902766466E+00               0
GRID*                414               01.4738888041E+001.0467515282E+01+
*       -2.878041584E+00               0
GRID*                415               01.5462065751E+001.0476738395E+01+
*       -2.924497366E+00               0
GRID*                416               01.3606439233E+001.0575729847E+01+
*       -3.052447081E+00               0
GRID*                417               01.3707875609E+001.0558058262E+01+
*       -3.155262351E+00               0
GRID*                418               01.4130073786E+001.0636912346E+01+
*       -3.092299342E+00               0
GRID*                419               01.4240959287E+001.0476255417E+01+
*       -3.074177980E+00               0
GRID*                420               01.4764593840E+001.0537437916E+01+
*       -3.114030242E+00               0
GRID*                421               01.3775537014E+001.0774825573E+01+
*       -3.092075348E+00               0
GRID*                422               01.4390581385E+001.0857603165E+01+
*       -3.112470089E+00               0
GRID*                423               01.4643681780E+001.0737361523E+01+
*       -3.009878812E+00               0
GRID*                424               01.3876973391E+001.0757153988E+01+
*       -3.194890618E+00               0
GRID*                425               01.4745118156E+001.0719689938E+01+
*       -3.112694083E+00               0
GRID*                426               01.3703127303E+001.0593894494E+01+
*       -2.880080457E+00               0
GRID*                427               01.4129189783E+001.0548049227E+01+
*       -2.878041584E+00               0
GRID*                428               01.3513917274E+001.0591731655E+01+
*       -2.966798063E+00               0
GRID*                429               01.4217847438E+001.0656746770E+01+
*       -2.902766466E+00               0
GRID*                430               01.3349238372E+004.9598687513E+00+
*       -1.826948310E+00               0
GRID*                431               01.3413642436E+005.0752235620E+00+
*       -1.826107522E+00               0
GRID*                432               01.4091249401E+005.0197271808E+00+
*       -1.797747907E+00               0
GRID*                433               01.3293343877E+001.0639647162E+01+
*       -2.909372211E+00               0
GRID*                434               01.3750286944E+001.0741262805E+01+
*       -2.902766466E+00               0
GRID*                435               01.3148099747E+001.0654993712E+01+
*       -3.006397890E+00               0
GRID*                436               01.3249536124E+001.0637322127E+01+
*       -3.109213160E+00               0
GRID*                437               01.8094751835E+009.9320702553E+00+
*       -3.119720101E+00               0
GRID*                438               01.8388487328E+009.8922112069E+00+
*       -3.180974483E+00               0
GRID*                439               01.8091923226E+009.9695251069E+00+
*       -3.199720263E+00               0
GRID*                440               01.8901669437E+009.9719610435E+00+
*       -3.151998349E+00               0
GRID*                441               01.9198233539E+009.8946471435E+00+
*       -3.133252569E+00               0
GRID*                442               01.8743491102E+009.9791054249E+00+
*       -3.067804411E+00               0
GRID*                443               01.9040055204E+009.9017915249E+00+
*       -3.049058631E+00               0
GRID*                444               01.7662073374E+001.0119463444E+01+
*       -3.120320320E+00               0
GRID*                445               01.7201009393E+001.0228280544E+01+
*       -3.008219481E+00               0
GRID*                446               01.7337123752E+001.0118201256E+01+
*       -3.026365042E+00               0
GRID*                447               01.8515003291E+001.0070345549E+01+
*       -3.050585168E+00               0
GRID*                448               01.8378888933E+001.0180424838E+01+
*       -3.032439607E+00               0
GRID*                449               01.8353054727E+001.0162931907E+01+
*       -3.168235656E+00               0
GRID*                450               01.7429996692E+001.0151039365E+01+
*       -3.191410720E+00               0
GRID*                451               01.8489169086E+001.0052852618E+01+
*       -3.186381217E+00               0
GRID*                452               01.7566111051E+001.0040960077E+01+
*       -3.209556281E+00               0
GRID*                453               01.4417950473E+003.9293987623E+00+
*       -1.902974308E+00               0
GRID*                454               01.4137272200E+004.0334966054E+00+
*       -1.994166732E+00               0
GRID*                455               01.5759223700E+003.8656033278E+00+
*       -1.803209305E+00               0
GRID*                456               01.5258529744E+003.9033175578E+00+
*       -1.976283848E+00               0
GRID*                457               01.5478545427E+003.9697011709E+00+
*       -1.894401729E+00               0
GRID*                458               01.3084932463E+001.0708319086E+01+
*       -3.289104164E+00               0
GRID*                459               01.2944340843E+001.0981615879E+01+
*       -3.102052926E+00               0
GRID*                460               01.3146626453E+001.1019714964E+01+
*       -3.190924301E+00               0
GRID*                461               01.3304973978E+001.1071101524E+01+
*       -3.059326052E+00               0
GRID*                462               01.3883069754E+001.0984552860E+01+
*       -3.151939750E+00               0
GRID*                463               01.3507259588E+001.1109200609E+01+
*       -3.148197427E+00               0
GRID*                464               01.4751214519E+001.0947088810E+01+
*       -3.069743214E+00               0
GRID*                465               01.3812485609E+001.0944151829E+01+
*       -3.019856391E+00               0
GRID*                466               01.2765671513E+001.0823688158E+01+
*       -3.196913064E+00               0
GRID*                467               01.3120208285E+001.0685774930E+01+
*       -3.197137059E+00               0
GRID*                468               01.2894999352E+001.0775235354E+01+
*       -3.108989166E+00               0
GRID*                469               01.4196234341E+001.0641784917E+01+
*       -3.287081718E+00               0
GRID*                470               01.3841697569E+001.0779698144E+01+
*       -3.286857724E+00               0
GRID*                471               01.4429476228E+001.0840369266E+01+
*       -3.206828909E+00               0
GRID*                472               01.4784012999E+001.0702456039E+01+
*       -3.207052903E+00               0
GRID*                473               01.4748737178E+001.0725000195E+01+
*       -3.299020009E+00               0
GRID*                474               01.9200006220E+009.8087928084E+00+
*       -3.075077207E+00               0
GRID*                475               04.2584679438E-013.1602084257E+00+
*       -1.486023653E+00               0
GRID*                476               04.5178378797E-013.1886667963E+00+
*       -1.324992049E+00               0
GRID*                477               05.3045785489E-013.0736139111E+00+
*       -1.324992049E+00               0
GRID*                478               01.8711736891E+009.7368709830E+00+
*       -3.063511641E+00               0
GRID*                479               01.7903046608E+009.7828345299E+00+
*       -3.089408755E+00               0
GRID*                480               01.8850575838E+009.8120229708E+00+
*       -3.159076958E+00               0
GRID*                481               01.8362306509E+009.7401011454E+00+
*       -3.147511392E+00               0
GRID*                482               01.7416307270E+009.7488448668E+00+
*       -3.179506467E+00               0
GRID*                483               01.7904576599E+009.8207666922E+00+
*       -3.191072033E+00               0
GRID*                484               01.6866620719E+009.8096110869E+00+
*       -3.193208025E+00               0
GRID*                485               01.7353360057E+009.8436007500E+00+
*       -3.103110313E+00               0
GRID*                486               01.7350531448E+009.8810556016E+00+
*       -3.183110475E+00               0
GRID*                487               01.8187750496E+009.9162065070E+00+
*       -3.012573215E+00               0
GRID*                488               01.7149794616E+009.9050509017E+00+
*       -3.014709207E+00               0
GRID*                489               01.8394228923E+009.8162412340E+00+
*       -3.018710826E+00               0
GRID*                490               01.7356273042E+009.8050856286E+00+
*       -3.020846818E+00               0
GRID*                491               01.8712186776E+001.1294934631E+01+
*       -3.082793106E+00               0
GRID*                492               01.8869266638E+001.1206438543E+01+
*       -2.986839056E+00               0
GRID*                493               01.9021231026E+001.1290040853E+01+
*       -2.912002910E+00               0
GRID*                494               01.8057950896E+001.1291522293E+01+
*       -2.912002910E+00               0
GRID*                495               01.7905986508E+001.1207919983E+01+
*       -2.986839056E+00               0
GRID*                496               01.6650589217E+001.1302478979E+01+
*       -3.004095001E+00               0
GRID*                497               01.7140607438E+001.1302372939E+01+
*       -3.093762390E+00               0
GRID*                498               01.7621654830E+001.1293535114E+01+
*       -3.004432310E+00               0
GRID*                499               01.6207966807E+001.1287576205E+01+
*       -2.915084004E+00               0
GRID*                500               01.5708771982E+001.1276829440E+01+
*       -3.004045693E+00               0
GRID*                501               01.5812474715E+001.1194020593E+01+
*       -2.908478260E+00               0
GRID*                502               01.5142088200E+001.1262316746E+01+
*       -2.911616294E+00               0
GRID*                503               01.6153093692E+001.1108523518E+01+
*       -3.005175249E+00               0
GRID*                504               01.6436737905E+001.1127521998E+01+
*       -2.908478260E+00               0
GRID*                505               01.5586409910E+001.1094010824E+01+
*       -2.912745849E+00               0
GRID*                506               01.7108121959E+001.1135157150E+01+
*       -2.998092214E+00               0
GRID*                507               01.7117424607E+001.0338772297E+01+
*       -3.170839787E+00               0
GRID*                508               01.6003283858E+001.0451818466E+01+
*       -3.136225343E+00               0
GRID*                509               01.6411818266E+001.0342588902E+01+
*       -3.067560315E+00               0
GRID*                510               01.7910079956E+001.0338086605E+01+
*       -3.083616972E+00               0
GRID*                511               01.7501545548E+001.0447316170E+01+
*       -3.152282000E+00               0
GRID*                512               01.6795939207E+001.0451132774E+01+
*       -3.049002528E+00               0
GRID*                513               01.6678247452E+001.0175786018E+01+
*       -3.095892549E+00               0
GRID*                514               01.6008561035E+001.0179652793E+01+
*       -3.184000993E+00               0
GRID*                515               01.6856272598E+001.0233409506E+01+
*       -3.190283203E+00               0
GRID*                516               01.6582285129E+001.0097282651E+01+
*       -3.185128509E+00               0
GRID*                517               01.7860993556E+001.0231045364E+01+
*       -3.184845826E+00               0
GRID*                518               01.7452459148E+001.0340274929E+01+
*       -3.253510854E+00               0
GRID*                519               01.8245114497E+001.0339589237E+01+
*       -3.166288039E+00               0
GRID*                520               01.3653398243E+004.4380106415E+00+
*       -1.881658046E+00               0
GRID*                521               01.4123289180E+004.3401039459E+00+
*       -1.928339183E+00               0
GRID*                522               01.3107662064E+004.3893486158E+00+
*       -1.919868403E+00               0
GRID*                523               01.8734495300E+001.0265222675E+01+
*       -3.149094017E+00               0
GRID*                524               01.9118616241E+001.0373766547E+01+
*       -3.130536230E+00               0
GRID*                525               01.9328783208E+001.0392036516E+01+
*       -3.053082118E+00               0
GRID*                526               01.8944662267E+001.0283492643E+01+
*       -3.071639905E+00               0
GRID*                527               01.5311430693E+001.1141285896E+01+
*       -3.055060267E+00               0
GRID*                528               01.5085365888E+001.1041276127E+01+
*       -3.059327857E+00               0
GRID*                529               01.4744746910E+001.1126773202E+01+
*       -2.962630868E+00               0
GRID*                530               01.4257187156E+001.1043586142E+01+
*       -2.962630868E+00               0
GRID*                531               01.5098850155E+001.1010823764E+01+
*       -2.912745849E+00               0
GRID*                532               01.4764698787E+001.0916636447E+01+
*       -2.923161207E+00               0
GRID*                533               01.4155123054E+001.1167484072E+01+
*       -3.282601928E+00               0
GRID*                534               01.3476741126E+001.1094482239E+01+
*       -3.283115401E+00               0
GRID*                535               01.4213184427E+001.1059320135E+01+
*       -3.244130850E+00               0
GRID*                536               01.4185641516E+001.1182202443E+01+
*       -3.147683954E+00               0
GRID*                537               01.6469324809E+006.0770652485E+00+
*       -1.619321537E+00               0
GRID*                538               01.6064863382E+006.0635938848E+00+
*       -1.542170532E+00               0
GRID*                539               01.5973503572E+006.1822338295E+00+
*       -1.637878013E+00               0
GRID*                540               01.4814357758E+006.0807864666E+00+
*       -1.601705790E+00               0
GRID*                541               01.5569042144E+006.1687624658E+00+
*       -1.560727008E+00               0
GRID*                542               01.4865842764E+001.1245299063E+01+
*       -3.282601928E+00               0
GRID*                543               01.4923904136E+001.1137135126E+01+
*       -3.244130850E+00               0
GRID*                544               01.6805658147E+001.0383328723E+01+
*       -3.302671194E+00               0
GRID*                545               01.7401009263E+001.0479086621E+01+
*       -3.309276819E+00               0
GRID*                546               01.7714629769E+001.0390800476E+01+
*       -3.302671194E+00               0
GRID*                547               01.8297495842E+001.0550362587E+01+
*       -3.128220677E+00               0
GRID*                548               01.7504840493E+001.0551048279E+01+
*       -3.215443492E+00               0
GRID*                549               01.6531333567E+001.0554599186E+01+
*       -3.173886184E+00               0
GRID*                550               01.7323988916E+001.0553913494E+01+
*       -3.086663369E+00               0
GRID*                551               01.6447738190E+001.0342639071E+01+
*       -3.258948231E+00               0
GRID*                552               01.5292643549E+001.0640218636E+01+
*       -3.151691083E+00               0
GRID*                553               01.5470200181E+001.0533621311E+01+
*       -3.217309713E+00               0
GRID*                554               01.5825727226E+001.0558415791E+01+
*       -3.070606712E+00               0
GRID*                555               01.5925995708E+001.0407423496E+01+
*       -3.302671194E+00               0
GRID*                556               01.6217192596E+001.0481075334E+01+
*       -3.309276819E+00               0
GRID*                557               02.2018069024E+001.0924902834E+01+
*       -3.116121602E+00               0
GRID*                558               02.1989379799E+001.0881857246E+01+
*       -3.026888743E+00               0
GRID*                559               02.0334795937E+001.0900153653E+01+
*       -3.065021871E+00               0
GRID*                560               02.1195249776E+001.0830927307E+01+
*       -3.138310145E+00               0
GRID*                561               02.1166560551E+001.0787881718E+01+
*       -3.049077285E+00               0
GRID*                562               02.1706969381E+001.1032922214E+01+
*       -2.936046839E+00               0
GRID*                563               02.1952227291E+001.0982247117E+01+
*       -3.025662246E+00               0
GRID*                564               02.1566603589E+001.1072984296E+01+
*       -3.025039292E+00               0
GRID*                565               02.1246433380E+001.0931961641E+01+
*       -2.929441094E+00               0
GRID*                566               02.2041045486E+001.0920079578E+01+
*       -2.912270012E+00               0
GRID*                567               02.0771863534E+001.1016641422E+01+
*       -2.929441094E+00               0
GRID*                568               02.0506455747E+001.1166212166E+01+
*       -2.911549466E+00               0
GRID*                569               02.0892207397E+001.1143699925E+01+
*       -3.024941700E+00               0
GRID*                570               02.0195008477E+001.0979198866E+01+
*       -3.009856962E+00               0
GRID*                571               01.9809256827E+001.1001711107E+01+
*       -2.896464728E+00               0
GRID*                572               01.9929600690E+001.1128769610E+01+
*       -2.991965334E+00               0
GRID*                573               02.0182699407E+001.0587985477E+01+
*       -2.944525599E+00               0
GRID*                574               01.9406000221E+001.0669157467E+01+
*       -2.909882188E+00               0
GRID*                575               01.9077489972E+001.0572922707E+01+
*       -3.038358927E+00               0
GRID*                576               01.9694379495E+001.0505261673E+01+
*       -2.944525599E+00               0
GRID*                577               01.8917680309E+001.0586433662E+01+
*       -2.909882188E+00               0
GRID*                578               01.9074195027E+001.0469190598E+01+
*       -3.069030762E+00               0
GRID*                579               01.8914385364E+001.0482701553E+01+
*       -2.940554023E+00               0
GRID*                580               01.8297495842E+001.0550362587E+01+
*       -3.034387350E+00               0
GRID*                581               01.9683082924E+001.0648964422E+01+
*       -3.080106376E+00               0
GRID*                582               02.0964860136E+001.0527754217E+01+
*       -3.045354668E+00               0
GRID*                583               02.0793753902E+001.0684967921E+01+
*       -3.052458706E+00               0
GRID*                584               02.0011593173E+001.0745199182E+01+
*       -2.951629637E+00               0
GRID*                585               02.1293370385E+001.0623988977E+01+
*       -2.916877929E+00               0
GRID*                586               01.9956155145E+001.0433752444E+01+
*       -3.166717509E+00               0
GRID*                587               01.9179455960E+001.0514924433E+01+
*       -3.225907424E+00               0
GRID*                588               01.9077489972E+001.0572922707E+01+
*       -3.132192254E+00               0
GRID*                589               01.9992751836E+001.0549538025E+01+
*       -3.226025581E+00               0
GRID*                590               02.0094717824E+001.0491539752E+01+
*       -3.319740752E+00               0
GRID*                591               01.9216052650E+001.0630710015E+01+
*       -3.285215497E+00               0
GRID*                592               01.9176161015E+001.0411192324E+01+
*       -3.162745932E+00               0
GRID*                593               02.1182618892E+001.0572727144E+01+
*       -3.134529921E+00               0
GRID*                594               02.1011512658E+001.0729940848E+01+
*       -3.141633959E+00               0
GRID*                595               01.9821645602E+001.0706751730E+01+
*       -3.233129619E+00               0
GRID*                596               02.1321181570E+001.0630514452E+01+
*       -3.287553164E+00               0
GRID*                597               01.5664489865E+007.2485926151E+00+
*       -1.746918797E+00               0
GRID*                598               01.5968810145E+007.2591249566E+00+
*       -1.656916856E+00               0
GRID*                599               01.6568350021E+007.3220147709E+00+
*       -1.676097869E+00               0
GRID*                600               01.5640497030E+007.3427931138E+00+
*       -1.655053756E+00               0
GRID*                601               01.5040957154E+007.2799032994E+00+
*       -1.635872743E+00               0
GRID*                602               01.6855593941E+007.4236746013E+00+
*       -1.750207109E+00               0
GRID*                603               01.7128852627E+007.5249533832E+00+
*       -1.806932492E+00               0
GRID*                604               01.6537288427E+007.4127612114E+00+
*       -1.822825193E+00               0
GRID*                605               01.6135075692E+007.4100490591E+00+
*       -1.706517788E+00               0
GRID*                606               01.6408334378E+007.5113278410E+00+
*       -1.763243171E+00               0
GRID*                607               01.4640088081E+007.2589538097E+00+
*       -1.769226849E+00               0
GRID*                608               01.5548857487E+007.1641393680E+00+
*       -1.827433514E+00               0
GRID*                609               01.5123995579E+007.2373903770E+00+
*       -1.868922579E+00               0
GRID*                610               01.5239627957E+007.3218436241E+00+
*       -1.788407862E+00               0
GRID*                611               01.6148397363E+007.2270291823E+00+
*       -1.846614527E+00               0
GRID*                612               01.5148337840E+007.2971320552E+00+
*       -1.903042589E+00               0
GRID*                613               01.6172739624E+007.2867708606E+00+
*       -1.880734537E+00               0
GRID*                614               01.6445998310E+007.3880496425E+00+
*       -1.937459920E+00               0
GRID*                615               01.7033535752E+007.3439712773E+00+
*       -1.870195502E+00               0
GRID*                616               01.7306794438E+007.4452500592E+00+
*       -1.926920885E+00               0
GRID*                617               01.7017704836E+007.2421469358E+00+
*       -1.806681929E+00               0
GRID*                618               01.6544078696E+007.1627502424E+00+
*       -1.804079630E+00               0
GRID*                619               01.7677388224E+007.1790122032E+00+
*       -1.709252863E+00               0
GRID*                620               01.6923713129E+007.2483476969E+00+
*       -1.668670744E+00               0
GRID*                621               01.7203762084E+007.0996155098E+00+
*       -1.706650564E+00               0
GRID*                622               01.6324173253E+007.1854578825E+00+
*       -1.649489731E+00               0
GRID*                623               01.6684454679E+009.4121093750E+00+
*       -2.998552322E+00               0
GRID*                624               01.5867136121E+009.4337339401E+00+
*       -2.892817855E+00               0
GRID*                625               01.6978510022E+009.4991960526E+00+
*       -2.932281613E+00               0
GRID*                626               01.6716210842E+009.5045337677E+00+
*       -3.047139764E+00               0
GRID*                627               01.5604836941E+009.4390716553E+00+
*       -3.007676005E+00               0
GRID*                628               01.5898892283E+009.5261583328E+00+
*       -2.941405296E+00               0
GRID*                629               01.7593540405E+009.5588105910E+00+
*       -2.965614364E+00               0
GRID*                630               01.6513922666E+009.5857728713E+00+
*       -2.974738047E+00               0
GRID*                631               01.7403014754E+009.6754811996E+00+
*       -2.985527918E+00               0
GRID*                632               01.7605302930E+009.5942420959E+00+
*       -3.057929635E+00               0
GRID*                633               01.6525685191E+009.6212043762E+00+
*       -3.067053318E+00               0
GRID*                634               01.8699247757E+009.5514126786E+00+
*       -3.106480409E+00               0
GRID*                635               01.8508722106E+009.6680832871E+00+
*       -3.126393963E+00               0
GRID*                636               01.8365745338E+009.5434691096E+00+
*       -2.988649978E+00               0
GRID*                637               01.9269164514E+009.6173103008E+00+
*       -3.057114306E+00               0
GRID*                638               01.8175219687E+009.6601397181E+00+
*       -3.008563532E+00               0
GRID*                639               01.8882166396E+009.5073709828E+00+
*       -3.046670379E+00               0
GRID*                640               01.7818967557E+009.6665392453E+00+
*       -3.163193931E+00               0
GRID*                641               01.8009493208E+009.5498686368E+00+
*       -3.143280376E+00               0
GRID*                642               01.7494695462E+009.4730700619E+00+
*       -3.133240114E+00               0
GRID*                643               01.7304169811E+009.5897406704E+00+
*       -3.153153668E+00               0
GRID*                644               01.6968084574E+009.4004120827E+00+
*       -3.102820396E+00               0
GRID*                645               01.5888466835E+009.4273743629E+00+
*       -3.111944079E+00               0
GRID*                646               01.6415077723E+009.5000323421E+00+
*       -3.142363797E+00               0
GRID*                647               01.3366913199E+007.5988242626E+00+
*       -1.929423273E+00               0
GRID*                648               01.4304398158E+007.5358782311E+00+
*       -2.022177252E+00               0
GRID*                649               01.3510215739E+007.5799325009E+00+
*       -2.066291783E+00               0
GRID*                650               01.3557648063E+007.6922991276E+00+
*       -1.996755898E+00               0
GRID*                651               01.4351830482E+007.6482448578E+00+
*       -1.952641368E+00               0
GRID*                652               01.4495133022E+007.6293530961E+00+
*       -2.089509878E+00               0
GRID*                653               01.3518707835E+007.7121909982E+00+
*       -1.876238243E+00               0
GRID*                654               01.4312890255E+007.6681367284E+00+
*       -1.832123713E+00               0
GRID*                655               01.4503625118E+007.7616115933E+00+
*       -1.899456338E+00               0
GRID*                656               01.1831891033E+007.7051551482E+00+
*       -1.918489005E+00               0
GRID*                657               01.2001188490E+007.8078837534E+00+
*       -1.970805731E+00               0
GRID*                658               01.2742028236E+007.7456071377E+00+
*       -2.025854528E+00               0
GRID*                659               01.1453666888E+007.7127781076E+00+
*       -2.007514752E+00               0
GRID*                660               01.1622964345E+007.8155067128E+00+
*       -2.059831477E+00               0
GRID*                661               01.2669951494E+007.7585420148E+00+
*       -1.912952593E+00               0
GRID*                662               01.2839248951E+007.8612706201E+00+
*       -1.965269319E+00               0
GRID*                663               01.3882046923E+001.0550571400E+01+
*       -3.280476093E+00               0
GRID*                664               01.4978502578E+001.0566694784E+01+
*       -3.287081718E+00               0
GRID*                665               01.3482143845E+001.0592684073E+01+
*       -3.211474438E+00               0
GRID*                666               01.3446868024E+001.0615228229E+01+
*       -3.303441544E+00               0
GRID*                667               01.2720174478E+001.0883793488E+01+
*       -3.103879849E+00               0
GRID*                668               01.2973274873E+001.0763551846E+01+
*       -3.001288572E+00               0
GRID*                669               01.3588319244E+001.0846329438E+01+
*       -3.021683313E+00               0
GRID*                670               01.3852551292E+001.0969834489E+01+
*       -3.286857724E+00               0
GRID*                671               01.5312368088E+004.2905548632E+00+
*       -1.748003464E+00               0
GRID*                672               01.5733295974E+004.2637584500E+00+
*       -1.671837230E+00               0
GRID*                673               01.5492156649E+004.3329803183E+00+
*       -1.651701043E+00               0
GRID*                674               05.8709767412E-013.6858505525E+00+
*       -1.667338291E+00               0
GRID*                675               06.2469892155E-013.7831742086E+00+
*       -1.718478719E+00               0
GRID*                676               06.0059290899E-013.7224590097E+00+
*       -1.580874251E+00               0
GRID*                677               05.1074334979E-013.6720490456E+00+
*       -1.845467865E+00               0
GRID*                678               04.6208094060E-013.6362836361E+00+
*       -1.699335992E+00               0
GRID*                679               05.1305766404E-013.7357571125E+00+
*       -1.746792555E+00               0
GRID*                680               03.2571277306E-013.6522935662E+00+
*       -1.832940169E+00               0
GRID*                681               03.2802708730E-013.7160016331E+00+
*       -1.734264858E+00               0
GRID*                682               04.0562626443E-013.9370897410E+00+
*       -1.569726666E+00               0
GRID*                683               06.3576008331E-013.7216159620E+00+
*       -1.813470164E+00               0
GRID*                684               05.8478335987E-013.6221424856E+00+
*       -1.766013602E+00               0
GRID*                685               01.6578550788E+008.9409239087E+00+
*       -2.819528206E+00               0
GRID*                686               01.7709699777E+009.0174145570E+00+
*       -2.779447873E+00               0
GRID*                687               01.6856367047E+009.0775911885E+00+
*       -2.697507358E+00               0
GRID*                688               01.6476262212E+008.9525680542E+00+
*       -2.704262018E+00               0
GRID*                689               01.7329594942E+008.8923914228E+00+
*       -2.786202534E+00               0
GRID*                690               01.7607411201E+009.0290587025E+00+
*       -2.664181685E+00               0
GRID*                691               01.6150482893E+009.1175184250E+00+
*       -2.816258192E+00               0
GRID*                692               01.7003815623E+009.0573417935E+00+
*       -2.898198708E+00               0
GRID*                693               01.7281631882E+009.1940090733E+00+
*       -2.776177859E+00               0
GRID*                694               01.8444526388E+008.9314447896E+00+
*       -2.800610451E+00               0
GRID*                695               01.8342237812E+008.9430889351E+00+
*       -2.685344263E+00               0
GRID*                696               01.8071455626E+008.8600355712E+00+
*       -2.727808641E+00               0
GRID*                697               01.7992371257E+008.7692616868E+00+
*       -2.677553067E+00               0
GRID*                698               01.7826876577E+008.6659973550E+00+
*       -2.626339326E+00               0
GRID*                699               01.7061811686E+008.8007712364E+00+
*       -2.619722605E+00               0
GRID*                700               01.7247285269E+008.8014725931E+00+
*       -2.735484814E+00               0
GRID*                701               01.7081790589E+008.6982082613E+00+
*       -2.684271073E+00               0
GRID*                702               01.7502215953E+008.7328311507E+00+
*       -2.508897985E+00               0
GRID*                703               01.7667710633E+008.8360954825E+00+
*       -2.560111727E+00               0
GRID*                704               01.6880664865E+008.8941068983E+00+
*       -2.563357713E+00               0
GRID*                705               01.6715170185E+008.7908425665E+00+
*       -2.512143971E+00               0
GRID*                706               01.6079865674E+008.9452922051E+00+
*       -2.587979155E+00               0
GRID*                707               01.5328821520E+008.9938246910E+00+
*       -2.621304827E+00               0
GRID*                708               01.5907900333E+008.8641805649E+00+
*       -2.653354406E+00               0
GRID*                709               01.4760459641E+008.9054372017E+00+
*       -2.570397215E+00               0
GRID*                710               01.5156856179E+008.9127130508E+00+
*       -2.686680079E+00               0
GRID*                711               01.6170621933E+009.0179831648E+00+
*       -2.641477802E+00               0
GRID*                712               01.6921666087E+008.9694506788E+00+
*       -2.608152130E+00               0
GRID*                713               01.6434040843E+008.8470936776E+00+
*       -2.770444678E+00               0
GRID*                714               01.5682996689E+008.8956261635E+00+
*       -2.803770350E+00               0
GRID*                715               01.5114634811E+008.8072386742E+00+
*       -2.752862738E+00               0
GRID*                716               01.6382290102E+006.4061373733E+00+
*       -1.702665432E+00               0
GRID*                717               01.6838354763E+006.4156906921E+00+
*       -1.612828016E+00               0
GRID*                718               01.6755180500E+006.3399756849E+00+
*       -1.650774072E+00               0
GRID*                719               01.5505994983E+006.3464327534E+00+
*       -1.740844698E+00               0
GRID*                720               01.4495467372E+006.3685465534E+00+
*       -1.759585770E+00               0
GRID*                721               01.4838231802E+006.3653030396E+00+
*       -1.626365960E+00               0
GRID*                722               01.5503276536E+006.4362265611E+00+
*       -1.741467461E+00               0
GRID*                723               01.4492748925E+006.4583403612E+00+
*       -1.760208532E+00               0
GRID*                724               01.5002373028E+006.3225243741E+00+
*       -1.502534253E+00               0
GRID*                725               01.3991845417E+006.3446381742E+00+
*       -1.521275324E+00               0
GRID*                726               01.5083647966E+006.2645721436E+00+
*       -1.613943577E+00               0
GRID*                727               01.4237261581E+006.2439072782E+00+
*       -1.508852942E+00               0
GRID*                728               01.4073120356E+006.2866859436E+00+
*       -1.632684648E+00               0
GRID*                729               01.5411349145E+006.4116999086E+00+
*       -1.509568278E+00               0
GRID*                730               01.4400821534E+006.4338137087E+00+
*       -1.528309349E+00               0
GRID*                731               01.6738615018E+006.2608509255E+00+
*       -1.631559325E+00               0
GRID*                732               01.6334153590E+006.2473795617E+00+
*       -1.554408319E+00               0
GRID*                733               01.6304369471E+006.2944544939E+00+
*       -1.703248012E+00               0
GRID*                734               01.4740883536E+006.2678156574E+00+
*       -1.747163387E+00               0
GRID*                735               01.5598508716E+009.1564064026E+00+
*       -2.880611181E+00               0
GRID*                736               01.5978347750E+009.2109980469E+00+
*       -2.760127040E+00               0
GRID*                737               01.5001108738E+009.1334681397E+00+
*       -2.745809527E+00               0
GRID*                738               01.5173243880E+009.0399885178E+00+
*       -2.801940680E+00               0
GRID*                739               01.5553082915E+009.0945801621E+00+
*       -2.681456538E+00               0
GRID*                740               01.4063917100E+009.1427747971E+00+
*       -2.954180450E+00               0
GRID*                741               01.3701850896E+009.0713130623E+00+
*       -2.896411544E+00               0
GRID*                742               01.3345923124E+009.1807095997E+00+
*       -2.881072378E+00               0
GRID*                743               01.5715327552E+009.3085312123E+00+
*       -2.821588485E+00               0
GRID*                744               01.4738088539E+009.2310013051E+00+
*       -2.807270973E+00               0
GRID*                745               01.5097175241E+009.2127618790E+00+
*       -2.912691116E+00               0
GRID*                746               01.4500711323E+009.0653135953E+00+
*       -2.930263511E+00               0
GRID*                747               01.4976616860E+009.1991989789E+00+
*       -2.976660959E+00               0
GRID*                748               01.6074414253E+009.2902917862E+00+
*       -2.927008629E+00               0
GRID*                749               01.5477950335E+009.1428435025E+00+
*       -2.944581024E+00               0
GRID*                750               01.4539822637E+009.2766601808E+00+
*       -3.000577897E+00               0
GRID*                751               01.4433305193E+009.3740218248E+00+
*       -2.884199255E+00               0
GRID*                752               01.3957399655E+009.2401364412E+00+
*       -2.837801808E+00               0
GRID*                753               01.5213994076E+009.3648866887E+00+
*       -2.853668420E+00               0
GRID*                754               01.3400047052E+009.3040347430E+00+
*       -2.925688589E+00               0
GRID*                755               01.6310077006E+009.7322869057E+00+
*       -3.190588958E+00               0
GRID*                756               01.6859763557E+009.6715206856E+00+
*       -3.176887400E+00               0
GRID*                757               01.6865090728E+009.7716789246E+00+
*       -3.091544747E+00               0
GRID*                758               01.5732522607E+009.7575268745E+00+
*       -3.087109089E+00               0
GRID*                759               01.5727195436E+009.6573686356E+00+
*       -3.172451741E+00               0
GRID*                760               01.6282209158E+009.6967606544E+00+
*       -3.073407531E+00               0
GRID*                761               01.5375209088E+009.8233981498E+00+
*       -3.020837125E+00               0
GRID*                762               01.4569616787E+009.8308445631E+00+
*       -3.077181907E+00               0
GRID*                763               01.4792327518E+009.7484798797E+00+
*       -3.002699908E+00               0
GRID*                764               01.3986735217E+009.7559262930E+00+
*       -3.059044691E+00               0
GRID*                765               01.7905959593E+009.7443194086E+00+
*       -3.007145260E+00               0
GRID*                766               01.6365731359E+009.8142418861E+00+
*       -3.006176591E+00               0
GRID*                767               01.6915417910E+009.7534756660E+00+
*       -2.992475033E+00               0
GRID*                768               01.5782849789E+009.7393236160E+00+
*       -2.988039374E+00               0
GRID*                769               01.0813032921E+006.9189403989E+00+
*       -1.626645520E+00               0
GRID*                770               01.0049284037E+006.8524709680E+00+
*       -1.618001714E+00               0
GRID*                771               01.1482617855E+006.8392217159E+00+
*       -1.632074416E+00               0
GRID*                772               01.1465193126E+006.9129119828E+00+
*       -1.555096643E+00               0
GRID*                773               01.0701444242E+006.8464425519E+00+
*       -1.546452837E+00               0
GRID*                774               01.2186214924E+006.7821276188E+00+
*       -1.584994853E+00               0
GRID*                775               01.2949963808E+006.8485970497E+00+
*       -1.593638659E+00               0
GRID*                776               01.1811856096E+006.8354285644E+00+
*       -1.536326733E+00               0
GRID*                777               01.1048107212E+006.7689591335E+00+
*       -1.527682927E+00               0
GRID*                778               01.2515453165E+006.7783344673E+00+
*       -1.489247170E+00               0
GRID*                779               01.2085344212E+006.9071795225E+00+
*       -1.754432843E+00               0
GRID*                780               01.1611459272E+006.9879683733E+00+
*       -1.762100921E+00               0
GRID*                781               01.1772481799E+006.9864799976E+00+
*       -1.648386300E+00               0
GRID*                782               01.2556698322E+006.9729478359E+00+
*       -1.667805374E+00               0
GRID*                783               01.2395675795E+006.9744362116E+00+
*       -1.781519995E+00               0
GRID*                784               01.2082813382E+007.0537366867E+00+
*       -1.675473452E+00               0
GRID*                785               01.1500811577E+006.7530760765E+00+
*       -1.681014299E+00               0
GRID*                786               01.2264560461E+006.8195455074E+00+
*       -1.689658105E+00               0
GRID*                787               01.2968157530E+006.7624514103E+00+
*       -1.642578542E+00               0
GRID*                788               01.3126421208E+007.0542857343E+00+
*       -1.557479259E+00               0
GRID*                789               01.2816089625E+006.9870290453E+00+
*       -1.530392106E+00               0
GRID*                790               01.3260295391E+006.9158537388E+00+
*       -1.620725811E+00               0
GRID*                791               01.3519686694E+006.9299349481E+00+
*       -1.483312543E+00               0
GRID*                792               01.2156647951E+007.0557157414E+00+
*       -1.576086045E+00               0
GRID*                793               01.1846316368E+006.9884590523E+00+
*       -1.548998893E+00               0
GRID*                794               01.2103537934E+006.8210338831E+00+
*       -1.803372727E+00               0
GRID*                795               01.1479901230E+006.8339597799E+00+
*       -1.736948772E+00               0
GRID*                796               01.1498094952E+006.7478141404E+00+
*       -1.785888656E+00               0
GRID*                797               01.1298332810E+006.6951372623E+00+
*       -1.581114233E+00               0
GRID*                798               01.1627571052E+006.6913441108E+00+
*       -1.485366550E+00               0
GRID*                799               01.0595092223E+006.6931432804E+00+
*       -1.541650292E+00               0
GRID*                800               01.1174556063E+006.6155282577E+00+
*       -1.499333915E+00               0
GRID*                801               01.2765678763E+006.7045125961E+00+
*       -1.542678475E+00               0
GRID*                802               09.9952049327E-016.7733219300E+00+
*       -1.661846672E+00               0
GRID*                803               01.0425118414E+006.8489969143E+00+
*       -1.704422624E+00               0
GRID*                804               01.0339147981E+006.9997292497E+00+
*       -1.634313598E+00               0
GRID*                805               01.1188867299E+006.9154663453E+00+
*       -1.713066430E+00               0
GRID*                806               01.0714982358E+006.9962551960E+00+
*       -1.720734508E+00               0
GRID*                807               01.0746849125E+005.8591070127E+00+
*       -1.500009738E+00               0
GRID*                808               01.1161425059E+005.7102260541E+00+
*       -1.514257215E+00               0
GRID*                809               01.0400100350E+005.8036303520E+00+
*       -1.623419106E+00               0
GRID*                810               01.1135531068E+005.8662719727E+00+
*       -1.609747112E+00               0
GRID*                811               01.1896855776E+005.7728676747E+00+
*       -1.500585221E+00               0
GRID*                812               01.1550107002E+005.7173910141E+00+
*       -1.623994589E+00               0
GRID*                813               01.1648363931E+005.7580220945E+00+
*       -1.751114731E+00               0
GRID*                814               01.0498357279E+005.8442614324E+00+
*       -1.750539248E+00               0
GRID*                815               01.0516049597E+005.9490814426E+00+
*       -1.746995735E+00               0
GRID*                816               01.1666056249E+005.8628421047E+00+
*       -1.747571218E+00               0
GRID*                817               01.0912933213E+005.6953804738E+00+
*       -1.764786725E+00               0
GRID*                818               09.6717456248E-015.8853564589E+00+
*       -1.717581298E+00               0
GRID*                819               01.0086321559E+005.7364755003E+00+
*       -1.731828776E+00               0
GRID*                820               09.6036809464E-015.9897199520E+00+
*       -1.704379025E+00               0
GRID*                821               09.0927023835E-015.9163441122E+00+
*       -1.646841520E+00               0
GRID*                822               09.1865724028E-016.0142471819E+00+
*       -1.615769345E+00               0
GRID*                823               01.0915468335E+006.0480122566E+00+
*       -1.600348711E+00               0
GRID*                824               01.2357599139E+006.0464229584E+00+
*       -1.559609294E+00               0
GRID*                825               01.1427655220E+005.9509220123E+00+
*       -1.568432212E+00               0
GRID*                826               01.1445993516E+006.0445823887E+00+
*       -1.738172817E+00               0
GRID*                827               01.1958180401E+005.9474921444E+00+
*       -1.706256318E+00               0
GRID*                828               01.1431809396E+006.1673112172E+00+
*       -1.732787703E+00               0
GRID*                829               01.0533624866E+006.0852208981E+00+
*       -1.695556107E+00               0
GRID*                830               01.2577661872E+005.8646826744E+00+
*       -1.569007695E+00               0
GRID*                831               01.4886562905E+004.5536978582E+00+
*       -1.711427012E+00               0
GRID*                832               01.5404737497E+004.5050636962E+00+
*       -1.646192084E+00               0
GRID*                833               01.5348082981E+004.6273087625E+00+
*       -1.673037561E+00               0
GRID*                834               01.2283541801E+008.3990558533E+00+
*       -2.439685559E+00               0
GRID*                835               01.3040759003E+008.4596781659E+00+
*       -2.431298056E+00               0
GRID*                836               01.2141533716E+008.4806237247E+00+
*       -2.369821020E+00               0
GRID*                837               01.4729252369E+008.5308631072E+00+
*       -2.365196852E+00               0
GRID*                838               01.4815083057E+008.6369474540E+00+
*       -2.410933165E+00               0
GRID*                839               01.4802165031E+008.5237526894E+00+
*       -2.477964640E+00               0
GRID*                840               01.3883862755E+008.5685009630E+00+
*       -2.405279427E+00               0
GRID*                841               01.3969693443E+008.6745853098E+00+
*       -2.451015740E+00               0
GRID*                842               01.5010491963E+008.4245651920E+00+
*       -2.550948473E+00               0
GRID*                843               01.4099888751E+008.4923765846E+00+
*       -2.571140822E+00               0
GRID*                844               01.3890579954E+008.3930764658E+00+
*       -2.511366318E+00               0
GRID*                845               01.3785483257E+008.3211732371E+00+
*       -2.492501805E+00               0
GRID*                846               01.4820661533E+008.2622400844E+00+
*       -2.481594391E+00               0
GRID*                847               01.4611237645E+008.3457651138E+00+
*       -2.413363814E+00               0
GRID*                848               01.4925758230E+008.3341433132E+00+
*       -2.500458903E+00               0
GRID*                849               01.1792330580E+004.1021328083E+00+
*       -1.304175496E+00               0
GRID*                850               01.2892821254E+004.0988461594E+00+
*       -1.304175496E+00               0
GRID*                851               01.2404971408E+004.1807818953E+00+
*       -1.304175496E+00               0
GRID*                852               01.3198927265E+008.4910203680E+00+
*       -2.511855434E+00               0
GRID*                853               01.2366455677E+008.6418529884E+00+
*       -2.484906535E+00               0
GRID*                854               01.3284757954E+008.5971047148E+00+
*       -2.557591747E+00               0
GRID*                855               01.7278283445E+008.2974237253E+00+
*       -2.262794960E+00               0
GRID*                856               01.7255137173E+008.3959821512E+00+
*       -2.309144963E+00               0
GRID*                857               01.6528611779E+008.2760744095E+00+
*       -2.321120977E+00               0
GRID*                858               01.6465857324E+008.2735460007E+00+
*       -2.214048322E+00               0
GRID*                859               01.6442711052E+008.3721044266E+00+
*       -2.260398324E+00               0
GRID*                860               01.7470247763E+008.3254008862E+00+
*       -2.427004206E+00               0
GRID*                861               01.7493394035E+008.2268424603E+00+
*       -2.380654204E+00               0
GRID*                862               01.6661962920E+008.1686475661E+00+
*       -2.387091412E+00               0
GRID*                863               01.6638816649E+008.2672059920E+00+
*       -2.433441414E+00               0
GRID*                864               01.5668095350E+008.1383714676E+00+
*       -2.250896931E+00               0
GRID*                865               01.5696080003E+008.0390300412E+00+
*       -2.312745922E+00               0
GRID*                866               01.6579742703E+008.0781745572E+00+
*       -2.336619966E+00               0
GRID*                867               01.6494882703E+008.0884656906E+00+
*       -2.223825693E+00               0
GRID*                868               01.5611220002E+008.0493211746E+00+
*       -2.199951649E+00               0
GRID*                869               01.6522867355E+007.9891242643E+00+
*       -2.285674684E+00               0
GRID*                870               01.7356477771E+008.0479489765E+00+
*       -2.280047498E+00               0
GRID*                871               01.7413353119E+008.1369992694E+00+
*       -2.330992780E+00               0
GRID*                872               01.7747185818E+008.1278672489E+00+
*       -2.242448815E+00               0
GRID*                873               01.7690310470E+008.0388169560E+00+
*       -2.191503533E+00               0
GRID*                874               01.8219919428E+008.3467502020E+00+
*       -2.368678189E+00               0
GRID*                875               01.7802724654E+008.2176803211E+00+
*       -2.291354274E+00               0
GRID*                876               01.2471355200E+004.3021342754E+00+
*       -1.577764452E+00               0
GRID*                877               01.2232520580E+004.3733699322E+00+
*       -1.598359287E+00               0
GRID*                878               01.2815005779E+004.3754830360E+00+
*       -1.470504403E+00               0
GRID*                879               01.3958442748E+003.8747753999E+00+
*       -1.392691812E+00               0
GRID*                880               01.3377804697E+003.9271048209E+00+
*       -1.476214490E+00               0
GRID*                881               01.3769944093E+003.8844835998E+00+
*       -1.561582684E+00               0
GRID*                882               01.5033005036E+003.4761341898E+00+
*       -1.437422208E+00               0
GRID*                883               01.5571055568E+003.6206977456E+00+
*       -1.406383864E+00               0
GRID*                884               01.5051991279E+003.5154736053E+00+
*       -1.521882237E+00               0
GRID*                885               01.4676674280E+004.0053701255E+00+
*       -1.319844067E+00               0
GRID*                886               01.5571637336E+004.0195247006E+00+
*       -1.319844067E+00               0
GRID*                887               01.4642961297E+003.9167061899E+00+
*       -1.307014823E+00               0
GRID*                888               01.5537924352E+003.9308607650E+00+
*       -1.307014823E+00               0
GRID*                889               01.3449046883E+005.8806144758E+00+
*       -1.838778431E+00               0
GRID*                890               01.2524508569E+005.9285235622E+00+
*       -1.827921021E+00               0
GRID*                891               01.3548884609E+005.9846771847E+00+
*       -1.837080820E+00               0
GRID*                892               01.4233134550E+003.8479418078E+00+
*       -1.307014823E+00               0
GRID*                893               01.4530012859E+003.7977808232E+00+
*       -1.392287614E+00               0
GRID*                894               01.6439156073E+004.0799346591E+00+
*       -1.421177250E+00               0
GRID*                895               01.5306569897E+003.8274361442E+00+
*       -1.307014823E+00               0
GRID*                896               01.3345625401E+004.9351804256E+00+
*       -1.699841976E+00               0
GRID*                897               01.3427013755E+004.7954056263E+00+
*       -1.711529076E+00               0
GRID*                898               01.2847566009E+004.9031744003E+00+
*       -1.769948423E+00               0
GRID*                899               01.3928686118E+004.8520999773E+00+
*       -1.768528963E+00               0
GRID*                900               01.3430626726E+004.8200939520E+00+
*       -1.838635410E+00               0
GRID*                901               01.3141578436E+004.7867364883E+00+
*       -1.600978196E+00               0
GRID*                902               01.4243289232E+004.7271542549E+00+
*       -1.616756976E+00               0
GRID*                903               01.3905173540E+004.6806490421E+00+
*       -1.682956874E+00               0
GRID*                904               01.4323075392E+004.7531587470E+00+
*       -1.752772944E+00               0
GRID*                905               01.3825016000E+004.7211527217E+00+
*       -1.822879391E+00               0
GRID*                906               01.5599369360E+004.7111864582E+00+
*       -1.616572357E+00               0
GRID*                907               01.5281153274E+004.8114438549E+00+
*       -1.641238011E+00               0
GRID*                908               01.4797231984E+004.8056349691E+00+
*       -1.560141910E+00               0
GRID*                909               01.5115448069E+004.7053775724E+00+
*       -1.535476256E+00               0
GRID*                910               01.3884957008E+004.7997071364E+00+
*       -1.517265364E+00               0
GRID*                911               01.4203173093E+004.6994497397E+00+
*       -1.492599711E+00               0
GRID*                912               01.4641291478E+004.6529013503E+00+
*       -1.728107291E+00               0
GRID*                913               01.4303175785E+004.6063961376E+00+
*       -1.794307189E+00               0
GRID*                914               09.6886268258E-014.5300419331E+00+
*       -1.593111098E+00               0
GRID*                915               09.5788230739E-014.5275503072E+00+
*       -1.474619611E+00               0
GRID*                916               09.1056101761E-014.5874379548E+00+
*       -1.523842855E+00               0
GRID*                917               08.2952393516E-014.5566547867E+00+
*       -1.567830539E+00               0
GRID*                918               08.7684522494E-014.4967671391E+00+
*       -1.518607295E+00               0
GRID*                919               07.6242190599E-014.4089148045E+00+
*       -1.704811692E+00               0
GRID*                920               07.4673956633E-014.3976366520E+00+
*       -1.581546247E+00               0
GRID*                921               08.9628288150E-014.4741523266E+00+
*       -1.701250374E+00               0
GRID*                922               07.8768041730E-014.5246920586E+00+
*       -1.645895660E+00               0
GRID*                923               08.8060054183E-014.4628741741E+00+
*       -1.577984929E+00               0
GRID*                924               01.0734211802E+004.4787919521E+00+
*       -1.675227582E+00               0
GRID*                925               09.9711637365E-014.6397295783E+00+
*       -1.833121939E+00               0
GRID*                926               09.3719412553E-014.5927639792E+00+
*       -1.771696194E+00               0
GRID*                927               08.3848593705E-014.6663260866E+00+
*       -1.715843612E+00               0
GRID*                928               08.9840818518E-014.7132916856E+00+
*       -1.777269357E+00               0
GRID*                929               08.4136529055E-014.5631596450E+00+
*       -1.728871037E+00               0
GRID*                930               07.9862506901E-014.6182186892E+00+
*       -1.636161838E+00               0
GRID*                931               01.3768084049E+008.0624742508E+00+
*       -2.202746987E+00               0
GRID*                932               01.2800612450E+008.0967993736E+00+
*       -2.227929115E+00               0
GRID*                933               01.3816961050E+008.1335520744E+00+
*       -2.252205014E+00               0
GRID*                934               01.4007336996E+008.0488876657E+00+
*       -2.314420090E+00               0
GRID*                935               01.2990988396E+008.0121349649E+00+
*       -2.290144191E+00               0
GRID*                936               01.3039865397E+008.0832127885E+00+
*       -2.339602218E+00               0
GRID*                937               01.3705685139E+007.9733223915E+00+
*       -2.151163936E+00               0
GRID*                938               01.4722033739E+008.0100750923E+00+
*       -2.175439835E+00               0
GRID*                939               01.4694706995E+008.1144279717E+00+
*       -2.107522097E+00               0
GRID*                940               01.3678358395E+008.0776752709E+00+
*       -2.083246198E+00               0
GRID*                941               01.4632308085E+008.0252761124E+00+
*       -2.055939046E+00               0
GRID*                942               01.2844283949E+008.1207887397E+00+
*       -2.120473810E+00               0
GRID*                943               01.3860632549E+008.1575414405E+00+
*       -2.144749708E+00               0
GRID*                944               01.2893160950E+008.1918665633E+00+
*       -2.169931836E+00               0
GRID*                945               01.7215775925E+008.1205223675E+00+
*       -2.162602680E+00               0
GRID*                946               01.7158900577E+008.0314720745E+00+
*       -2.111657398E+00               0
GRID*                947               01.4720817787E+008.2006567827E+00+
*       -2.159408126E+00               0
GRID*                948               01.3753346187E+008.2349819056E+00+
*       -2.184590254E+00               0
GRID*                949               01.5521494348E+008.0645221947E+00+
*       -2.080450860E+00               0
GRID*                950               01.5558466866E+008.1471922792E+00+
*       -2.139166908E+00               0
GRID*                951               01.6385254219E+008.0972865022E+00+
*       -2.112095671E+00               0
GRID*                952               01.5214488975E+009.0235836800E+00+
*       -2.917857792E+00               0
GRID*                953               01.6191727988E+009.1011135872E+00+
*       -2.932175305E+00               0
GRID*                954               01.5766463153E+008.9846957024E+00+
*       -2.853504803E+00               0
GRID*                955               01.6760720768E+009.3336141007E+00+
*       -3.051247705E+00               0
GRID*                956               01.7262054244E+009.2772586244E+00+
*       -3.019167770E+00               0
GRID*                957               01.6274949253E+009.1899214678E+00+
*       -2.981763654E+00               0
GRID*                958               01.5773615778E+009.2462769441E+00+
*       -3.013843589E+00               0
GRID*                959               01.4705854040E+006.1485761023E+00+
*       -1.747130540E+00               0
GRID*                960               01.3706931689E+006.1219569336E+00+
*       -1.761700852E+00               0
GRID*                961               01.3806769414E+006.2260196426E+00+
*       -1.760003242E+00               0
GRID*                962               01.8328378156E+008.5241367574E+00+
*       -2.467783917E+00               0
GRID*                963               01.7832716462E+008.4058407814E+00+
*       -2.386229986E+00               0
GRID*                964               01.7282805589E+008.4838941232E+00+
*       -2.358909862E+00               0
GRID*                965               01.7551038075E+008.4148754696E+00+
*       -2.476345035E+00               0
GRID*                966               01.5610899925E+008.3961505890E+00+
*       -2.399849653E+00               0
GRID*                967               01.5505803227E+008.3242473602E+00+
*       -2.380985141E+00               0
GRID*                968               01.5820323813E+008.3126255596E+00+
*       -2.468080230E+00               0
GRID*                969               01.5785825253E+008.5985426903E+00+
*       -2.493517160E+00               0
GRID*                970               01.5996583501E+008.5747645263E+00+
*       -2.611872955E+00               0
GRID*                971               01.6894413033E+008.5434701805E+00+
*       -2.581689163E+00               0
GRID*                972               01.5994152184E+008.4993551929E+00+
*       -2.566500994E+00               0
GRID*                973               01.5096322651E+008.5306495388E+00+
*       -2.596684786E+00               0
GRID*                974               01.5827742787E+008.3788175894E+00+
*       -2.516040835E+00               0
GRID*                975               01.6722308369E+008.3572998358E+00+
*       -2.483662162E+00               0
GRID*                976               01.7640132713E+008.5111832241E+00+
*       -2.524276230E+00               0
GRID*                977               01.6594560146E+008.4709405899E+00+
*       -2.415402174E+00               0
GRID*                978               01.6811403008E+008.4536075903E+00+
*       -2.531593356E+00               0
GRID*                979               01.4486340880E+005.1976580620E+00+
*       -1.609572887E+00               0
GRID*                980               01.5562118824E+005.3264574654E+00+
*       -1.606582076E+00               0
GRID*                981               01.5966541703E+005.2293843873E+00+
*       -1.646788389E+00               0
GRID*                982               01.5498099950E+005.1484651775E+00+
*       -1.723678540E+00               0
GRID*                983               01.5093677071E+005.2455382556E+00+
*       -1.683472227E+00               0
GRID*                984               01.5846515731E+005.1279819467E+00+
*       -1.620491668E+00               0
GRID*                985               01.4407918453E+004.9639983177E+00+
*       -1.645600915E+00               0
GRID*                986               01.5597955885E+005.0328953256E+00+
*       -1.589063538E+00               0
GRID*                987               01.5115110579E+004.8963086595E+00+
*       -1.584885252E+00               0
GRID*                988               01.5276203113E+004.9070568386E+00+
*       -1.677132367E+00               0
GRID*                989               01.5759048420E+005.0436435047E+00+
*       -1.681310652E+00               0
GRID*                990               01.5173486479E+005.1147373587E+00+
*       -1.550435364E+00               0
GRID*                991               01.6475055218E+007.9003944397E+00+
*       -2.112179041E+00               0
GRID*                992               01.7279111226E+007.9578546648E+00+
*       -2.229979684E+00               0
GRID*                993               01.7316159089E+007.8588337068E+00+
*       -2.169278314E+00               0
GRID*                994               01.6480420536E+007.7993189536E+00+
*       -2.174254312E+00               0
GRID*                995               01.6443372673E+007.8983399116E+00+
*       -2.234955682E+00               0
GRID*                996               01.6499463320E+007.7201349735E+00+
*       -2.010291219E+00               0
GRID*                997               01.5514694452E+007.6903080940E+00+
*       -1.994539380E+00               0
GRID*                998               01.5527334213E+007.7715466022E+00+
*       -2.035725832E+00               0
GRID*                999               01.6408237022E+007.7082739500E+00+
*       -2.123198679E+00               0
GRID*               1000               01.6395597261E+007.6270354418E+00+
*       -2.082012227E+00               0
GRID*               1001               01.5423468154E+007.6784470705E+00+
*       -2.107446841E+00               0
GRID*               1002               01.7234536726E+007.6876790392E+00+
*       -2.077420933E+00               0
GRID*               1003               01.7247176487E+007.7689175474E+00+
*       -2.118607385E+00               0
GRID*               1004               01.7608233580E+007.7610753568E+00+
*       -2.029461826E+00               0
GRID*               1005               01.7595593819E+007.6798368485E+00+
*       -1.988275374E+00               0
GRID*               1006               01.5585868955E+007.8611483574E+00+
*       -2.087667227E+00               0
GRID*               1007               01.5464427697E+007.9704026913E+00+
*       -2.036198048E+00               0
GRID*               1008               01.6390661823E+007.9106278157E+00+
*       -2.000008492E+00               0
GRID*               1009               01.5548821092E+007.9601693153E+00+
*       -2.148368597E+00               0
GRID*               1010               01.6353613960E+008.0096487736E+00+
*       -2.060709863E+00               0
GRID*               1011               01.7669381164E+007.8501211789E+00+
*       -2.081108485E+00               0
GRID*               1012               01.7632333301E+007.9491421369E+00+
*       -2.141809855E+00               0
GRID*               1013               01.7149983288E+007.8438825266E+00+
*       -1.999912531E+00               0
GRID*               1014               01.7112935425E+007.9429034846E+00+
*       -2.060613901E+00               0
GRID*               1015               01.2975635775E+009.4050887762E+00+
*       -2.942473022E+00               0
GRID*               1016               01.3472041231E+009.4671126997E+00+
*       -2.962048976E+00               0
GRID*               1017               01.3498441620E+008.9910355930E+00+
*       -2.841582992E+00               0
GRID*               1018               01.4352482353E+008.9961433103E+00+
*       -2.889280758E+00               0
GRID*               1019               01.4927042876E+009.3487939817E+00+
*       -3.054301307E+00               0
GRID*               1020               01.3787267291E+009.3761685439E+00+
*       -2.979411998E+00               0
GRID*               1021               01.6730606528E+009.2938273753E+00+
*       -2.815910680E+00               0
GRID*               1022               01.1149992023E+006.2114541237E+00+
*       -1.515940202E+00               0
GRID*               1023               01.0724894432E+006.1205925829E+00+
*       -1.531315285E+00               0
GRID*               1024               01.1629722629E+006.1279079758E+00+
*       -1.497756433E+00               0
GRID*               1025               01.4958799039E+009.4412183744E+00+
*       -3.102888748E+00               0
GRID*               1026               01.4961466812E+009.5284701410E+00+
*       -2.952362651E+00               0
GRID*               1027               01.4283672747E+009.4381924674E+00+
*       -2.998987952E+00               0
GRID*               1028               01.4929710649E+009.4360457483E+00+
*       -2.903775210E+00               0
GRID*               1029               01.7872094670E+009.3990762132E+00+
*       -3.090711463E+00               0
GRID*               1030               01.5856710672E+009.3349499702E+00+
*       -3.063356638E+00               0
GRID*               1031               01.5464684791E+009.5066553381E+00+
*       -3.143368407E+00               0
GRID*               1032               01.3255581787E+008.6926147056E+00+
*       -2.521210865E+00               0
GRID*               1033               01.2553305506E+008.6612386008E+00+
*       -2.614387047E+00               0
GRID*               1034               01.4185719439E+008.5984609314E+00+
*       -2.616877135E+00               0
GRID*               1035               01.4738245010E+008.7270812988E+00+
*       -2.579736710E+00               0
GRID*               1036               01.3855089137E+008.8579920594E+00+
*       -2.560936518E+00               0
GRID*               1037               01.4004839847E+008.7607477967E+00+
*       -2.504900761E+00               0
GRID*               1038               01.4847024550E+008.7223508660E+00+
*       -2.462575799E+00               0
GRID*               1039               01.4697273841E+008.8195951287E+00+
*       -2.518611556E+00               0
GRID*               1040               01.5892156363E+008.6636719704E+00+
*       -2.546104908E+00               0
GRID*               1041               01.7000744143E+008.6085994606E+00+
*       -2.634276911E+00               0
GRID*               1042               01.5180569872E+008.6205522474E+00+
*       -2.646884463E+00               0
GRID*               1043               01.6184730515E+008.6543871817E+00+
*       -2.669288418E+00               0
GRID*               1044               01.5851185193E+008.7561858002E+00+
*       -2.484979754E+00               0
GRID*               1045               01.5682249006E+008.6724619641E+00+
*       -2.439882645E+00               0
GRID*               1046               01.6686409649E+008.7062968983E+00+
*       -2.462286600E+00               0
GRID*               1047               01.6466232593E+008.4588541833E+00+
*       -2.311235022E+00               0
GRID*               1048               01.5571667011E+008.4803719369E+00+
*       -2.343613695E+00               0
GRID*               1049               01.4708794445E+008.4456282234E+00+
*       -2.313705417E+00               0
GRID*               1050               01.5603360027E+008.4241104698E+00+
*       -2.281326743E+00               0
GRID*               1051               01.5699994564E+008.4924583435E+00+
*       -2.447780848E+00               0
GRID*               1052               01.6555327232E+008.5551619378E+00+
*       -2.359166216E+00               0
GRID*               1053               01.5712912590E+008.6056531081E+00+
*       -2.380749373E+00               0
GRID*               1054               01.5030819163E+008.7177965101E+00+
*       -2.702920220E+00               0
GRID*               1055               01.4035968730E+008.6957051941E+00+
*       -2.672912892E+00               0
GRID*               1056               01.3785480261E+007.8846294880E+00+
*       -2.101014018E+00               0
GRID*               1057               01.4593088152E+007.9384735055E+00+
*       -2.003761667E+00               0
GRID*               1058               01.3718933584E+007.9021797605E+00+
*       -1.980918902E+00               0
GRID*               1059               01.3726945519E+007.7950277328E+00+
*       -2.049072623E+00               0
GRID*               1060               01.4601100087E+007.8313214779E+00+
*       -2.071915388E+00               0
GRID*               1061               01.4534553411E+007.8488717504E+00+
*       -1.951820272E+00               0
GRID*               1062               01.3766077336E+007.7750362676E+00+
*       -2.170188747E+00               0
GRID*               1063               01.4640231903E+007.8113300127E+00+
*       -2.193031512E+00               0
GRID*               1064               01.4581697162E+007.7217282575E+00+
*       -2.141090117E+00               0
GRID*               1065               01.2831530571E+007.9370286465E+00+
*       -2.128321171E+00               0
GRID*               1066               01.1647520345E+007.9884370612E+00+
*       -2.163105394E+00               0
GRID*               1067               01.1727315467E+007.8997441577E+00+
*       -2.112955477E+00               0
GRID*               1068               01.2070821322E+007.8927315068E+00+
*       -2.023337109E+00               0
GRID*               1069               01.1991026200E+007.9814244103E+00+
*       -2.073487026E+00               0
GRID*               1070               01.2886258402E+007.9469363691E+00+
*       -2.017792868E+00               0
GRID*               1071               01.2806463280E+008.0356292726E+00+
*       -2.067942786E+00               0
GRID*               1072               01.2287948552E+008.0733747023E+00+
*       -2.288473367E+00               0
GRID*               1073               01.2336825553E+008.1444525259E+00+
*       -2.337931394E+00               0
GRID*               1074               01.2050870431E+008.0656187114E+00+
*       -2.126536780E+00               0
GRID*               1075               01.2099747432E+008.1366965351E+00+
*       -2.175994806E+00               0
GRID*               1076               01.1753231506E+008.0708268249E+00+
*       -2.215719502E+00               0
GRID*               1077               01.1802108507E+008.1419046486E+00+
*       -2.265177528E+00               0
GRID*               1078               01.4663644151E+004.3999326384E+00+
*       -1.513565697E+00               0
GRID*               1079               01.5243272099E+004.5239409791E+00+
*       -1.559637387E+00               0
GRID*               1080               01.4648924470E+004.4548134804E+00+
*       -1.597600281E+00               0
GRID*               1081               01.4576224999E+004.5720160162E+00+
*       -1.508056738E+00               0
GRID*               1082               01.2887071967E+004.4169538021E+00+
*       -1.715055227E+00               0
GRID*               1083               01.4310808778E+004.4083082676E+00+
*       -1.663800180E+00               0
GRID*               1084               01.3312606812E+004.2913756371E+00+
*       -1.654364288E+00               0
GRID*               1085               01.2804234028E+004.3079655170E+00+
*       -1.783232927E+00               0
GRID*               1086               01.3802435994E+004.4248981476E+00+
*       -1.792668819E+00               0
GRID*               1087               01.4227970839E+004.2993199825E+00+
*       -1.731977880E+00               0
GRID*               1088               01.0574257374E+004.5825314522E+00+
*       -1.532506704E+00               0
GRID*               1089               01.0874553323E+004.4004135132E+00+
*       -1.715441644E+00               0
GRID*               1090               01.1597726941E+004.3937253952E+00+
*       -1.756093323E+00               0
GRID*               1091               01.1124908924E+004.4165170193E+00+
*       -1.883607090E+00               0
GRID*               1092               01.2142202258E+004.1880691051E+00+
*       -1.760707080E+00               0
GRID*               1093               01.1523262262E+004.1076691151E+00+
*       -1.761009693E+00               0
GRID*               1094               01.1669384241E+004.2108607292E+00+
*       -1.888220847E+00               0
GRID*               1095               01.2595928907E+004.5106580257E+00+
*       -1.765529215E+00               0
GRID*               1096               01.2513090968E+004.4016697407E+00+
*       -1.833706915E+00               0
GRID*               1097               05.9962878665E-013.5130658419E+00+
*       -1.302325629E+00               0
GRID*               1098               01.3822392539E+004.4106912768E+00+
*       -1.436965861E+00               0
GRID*               1099               01.3583557920E+004.4819269335E+00+
*       -1.457560696E+00               0
GRID*               1100               01.2945493717E+004.4443391063E+00+
*       -1.408374792E+00               0
GRID*               1101               01.3184328336E+004.3731034496E+00+
*       -1.387779957E+00               0
GRID*               1102               01.5110700559E+001.0218034878E+01+
*       -3.159956503E+00               0
GRID*               1103               01.4849529563E+001.0160273725E+01+
*       -3.149448803E+00               0
GRID*               1104               01.5355552251E+001.0148440177E+01+
*       -3.014443974E+00               0
GRID*               1105               01.4635716921E+001.0244445751E+01+
*       -3.084790139E+00               0
GRID*               1106               01.4374545925E+001.0186684597E+01+
*       -3.074282439E+00               0
GRID*               1107               01.0310885106E+003.1292422914E+00+
*       -1.287038941E+00               0
GRID*               1108               01.1007491743E+003.1278329830E+00+
*       -1.323548838E+00               0
GRID*               1109               01.7056795955E+009.9209146500E+00+
*       -3.121856093E+00               0
GRID*               1110               01.7274424712E+009.9650619889E+00+
*       -3.212156790E+00               0
GRID*               1111               01.4845983224E+001.0067001711E+01+
*       -3.030922774E+00               0
GRID*               1112               01.3864976899E+001.0105246131E+01+
*       -3.090761239E+00               0
GRID*               1113               01.4436393682E+001.0071483065E+01+
*       -3.117776939E+00               0
GRID*               1114               01.4676376903E+009.9724090764E+00+
*       -3.153407432E+00               0
GRID*               1115               01.3691824239E+009.9173814831E+00+
*       -3.094719868E+00               0
GRID*               1116               01.3857344174E+007.8717337762E+00+
*       -2.213574975E+00               0
GRID*               1117               01.4726424181E+007.9033083485E+00+
*       -2.244390173E+00               0
GRID*               1118               01.6072970033E+009.9772372246E+00+
*       -3.097428322E+00               0
GRID*               1119               01.6290598790E+001.0021384564E+01+
*       -3.187729019E+00               0
GRID*               1120               01.6533032934E+009.8765924836E+00+
*       -3.195547003E+00               0
GRID*               1121               01.5695051251E+009.9227054444E+00+
*       -3.186614334E+00               0
GRID*               1122               01.5452617107E+001.0067497524E+01+
*       -3.178796350E+00               0
GRID*               1123               01.6480731666E+009.9219868183E+00+
*       -3.007965922E+00               0
GRID*               1124               01.6238297522E+001.0066778898E+01+
*       -3.000147939E+00               0
GRID*               1125               01.5088417368E+009.9222096313E+00+
*       -3.038740758E+00               0
GRID*               1126               01.7180421806E+007.5977005051E+00+
*       -2.025437912E+00               0
GRID*               1127               01.5323959589E+007.5968332291E+00+
*       -1.927206755E+00               0
GRID*               1128               01.5467262128E+007.5779414673E+00+
*       -2.064075265E+00               0
GRID*               1129               01.6648685336E+007.5764682293E+00+
*       -1.924327672E+00               0
GRID*               1130               01.6495887125E+007.4739272264E+00+
*       -1.986113343E+00               0
GRID*               1131               01.6334025347E+007.5363554624E+00+
*       -2.030890438E+00               0
GRID*               1132               01.7342283583E+007.5352722691E+00+
*       -1.980660816E+00               0
GRID*               1133               01.7529567817E+007.5921694411E+00+
*       -1.933754157E+00               0
GRID*               1134               01.7691429595E+007.5297412050E+00+
*       -1.888977062E+00               0
GRID*               1135               01.7069956980E+007.6746137563E+00+
*       -1.906337006E+00               0
GRID*               1136               01.7231818757E+007.6121855203E+00+
*       -1.861559911E+00               0
GRID*               1137               01.2533686006E+007.1378397118E+00+
*       -1.590010661E+00               0
GRID*               1138               01.1749469483E+007.1513718735E+00+
*       -1.570591587E+00               0
GRID*               1139               01.1372431428E+007.0692479031E+00+
*       -1.556666971E+00               0
GRID*               1140               01.2115693688E+007.1373536587E+00+
*       -1.691839874E+00               0
GRID*               1141               01.2566566312E+007.2214566838E+00+
*       -1.606377083E+00               0
GRID*               1142               01.2899910212E+007.1238214970E+00+
*       -1.711258948E+00               0
GRID*               1143               01.0991308186E+006.9937008336E+00+
*       -1.562764721E+00               0
GRID*               1144               01.2042380144E+007.1353888840E+00+
*       -1.790528056E+00               0
GRID*               1145               01.1225283315E+007.0653040738E+00+
*       -1.754742560E+00               0
GRID*               1146               01.0881318911E+007.1492869792E+00+
*       -1.759466119E+00               0
GRID*               1147               01.1698415740E+007.2193717894E+00+
*       -1.795251615E+00               0
GRID*               1148               01.2009499838E+007.0517719121E+00+
*       -1.774161634E+00               0
GRID*               1149               01.0458058453E+007.0884829223E+00+
*       -1.684336014E+00               0
GRID*               1150               01.5248094797E+006.9908037186E+00+
*       -1.725279331E+00               0
GRID*               1151               01.4126253128E+006.9342982769E+00+
*       -1.749728382E+00               0
GRID*               1152               01.5057454109E+006.8937718868E+00+
*       -1.709415138E+00               0
GRID*               1153               01.4805681705E+007.0340175629E+00+
*       -1.681288302E+00               0
GRID*               1154               01.4615041018E+006.9369857311E+00+
*       -1.665424109E+00               0
GRID*               1155               01.5364785299E+007.0435261394E+00+
*       -1.515819697E+00               0
GRID*               1156               01.4919824004E+006.6764121056E+00+
*       -1.649467766E+00               0
GRID*               1157               01.5430545249E+006.6325885376E+00+
*       -1.737519533E+00               0
GRID*               1158               01.5815432110E+006.7232147774E+00+
*       -1.750255555E+00               0
GRID*               1159               01.6584198254E+006.7166201746E+00+
*       -1.682216489E+00               0
GRID*               1160               01.6199311393E+006.6259939349E+00+
*       -1.669480467E+00               0
GRID*               1161               01.5963823322E+006.6278111410E+00+
*       -1.579447300E+00               0
GRID*               1162               01.6348710183E+006.7184373808E+00+
*       -1.592183322E+00               0
GRID*               1163               01.5518398603E+006.7190556608E+00+
*       -1.546210784E+00               0
GRID*               1164               01.5133511742E+006.6284294211E+00+
*       -1.533474761E+00               0
GRID*               1165               01.4499532039E+006.7246867093E+00+
*       -1.777578782E+00               0
GRID*               1166               01.3814982826E+006.7598007592E+00+
*       -1.813408982E+00               0
GRID*               1167               01.4620161653E+006.8021523952E+00+
*       -1.698033988E+00               0
GRID*               1168               01.4893637404E+006.8548154056E+00+
*       -1.796541246E+00               0
GRID*               1169               01.4114645178E+006.6340604695E+00+
*       -1.764842759E+00               0
GRID*               1170               01.4235274792E+006.7115261555E+00+
*       -1.685297966E+00               0
GRID*               1171               01.3090540767E+004.0297389030E+00+
*       -1.690410495E+00               0
GRID*               1172               01.4087501188E+003.8686820486E+00+
*       -1.730435108E+00               0
GRID*               1173               01.3520952483E+003.9145201662E+00+
*       -1.647998308E+00               0
GRID*               1174               01.2825946231E+003.9608983019E+00+
*       -1.773382638E+00               0
GRID*               1175               01.4336492798E+003.8386454822E+00+
*       -1.644019484E+00               0
GRID*               1176               01.4577220279E+003.7860015795E+00+
*       -1.729513242E+00               0
GRID*               1177               01.5346741277E+003.7458971903E+00+
*       -1.682301356E+00               0
GRID*               1178               01.5274135401E+003.7961757271E+00+
*       -1.889933844E+00               0
GRID*               1179               01.4433556130E+003.8222569315E+00+
*       -1.816624303E+00               0
GRID*               1180               01.3932862174E+003.8599711616E+00+
*       -1.989698847E+00               0
GRID*               1181               01.5487802974E+004.1505189635E+00+
*       -1.994166732E+00               0
GRID*               1182               01.5118911615E+004.0493866642E+00+
*       -1.994166732E+00               0
GRID*               1183               01.4263029657E+004.1370589380E+00+
*       -1.994166732E+00               0
GRID*               1184               01.7078002875E+003.9901881971E+00+
*       -1.883613734E+00               0
GRID*               1185               01.6718369063E+004.0698736904E+00+
*       -1.983378737E+00               0
GRID*               1186               01.6240169158E+003.9192076166E+00+
*       -1.976283848E+00               0
GRID*               1187               01.3231393931E+004.1751655165E+00+
*       -1.994166732E+00               0
GRID*               1188               01.2250517247E+004.1632839266E+00+
*       -1.945921838E+00               0
GRID*               1189               01.4038442969E+004.2078950405E+00+
*       -1.886565566E+00               0
GRID*               1190               01.2912549017E+004.2831803385E+00+
*       -1.968447685E+00               0
GRID*               1191               01.3057566285E+004.1960134506E+00+
*       -1.838320673E+00               0
GRID*               1192               01.3489286571E+004.0928592257E+00+
*       -1.994166732E+00               0
GRID*               1193               01.2508409887E+004.0809776358E+00+
*       -1.945921838E+00               0
GRID*               1194               01.3504553265E+003.9966440747E+00+
*       -1.907979460E+00               0
GRID*               1195               01.2523676581E+003.9847624848E+00+
*       -1.859734567E+00               0
GRID*               1196               01.2636551952E+003.9896230819E+00+
*       -1.989861580E+00               0
GRID*               1197               09.6107649426E-015.5572862636E+00+
*       -1.769329317E+00               0
GRID*               1198               09.0071694728E-015.5904161028E+00+
*       -1.714633144E+00               0
GRID*               1199               09.0605284122E-015.5141590338E+00+
*       -1.733104156E+00               0
GRID*               1200               01.0316534638E+005.5716683865E+00+
*       -1.667192936E+00               0
GRID*               1201               01.0108906589E+005.6403672706E+00+
*       -1.739802964E+00               0
GRID*               1202               01.0857286613E+005.5949132810E+00+
*       -1.767236254E+00               0
GRID*               1203               01.0359144966E+005.5118322740E+00+
*       -1.796762607E+00               0
GRID*               1204               01.3654868777E+007.8079626100E+00+
*       -1.936170689E+00               0
GRID*               1205               01.1859844449E+007.6274112760E+00+
*       -2.037420616E+00               0
GRID*               1206               01.1984615915E+007.7143428307E+00+
*       -2.088891817E+00               0
GRID*               1207               01.3760412970E+007.9832301141E+00+
*       -2.040635633E+00               0
GRID*               1208               01.5758226861E+008.1231015616E+00+
*       -2.370937072E+00               0
GRID*               1209               01.4874564160E+008.0839570456E+00+
*       -2.347063027E+00               0
GRID*               1210               01.5528949499E+008.2256889343E+00+
*       -2.334635139E+00               0
GRID*               1211               01.4735418309E+008.1712745123E+00+
*       -2.430801235E+00               0
GRID*               1212               01.4645286798E+008.1865444183E+00+
*       -2.310761094E+00               0
GRID*               1213               01.2983189607E+007.8354400311E+00+
*       -2.190732210E+00               0
GRID*               1214               01.2903394485E+007.9241329347E+00+
*       -2.240882127E+00               0
GRID*               1215               01.2185892463E+007.5229299068E+00+
*       -1.882398844E+00               0
GRID*               1216               01.2616921530E+007.6718955212E+00+
*       -1.860019058E+00               0
GRID*               1217               01.2230083213E+007.5519468956E+00+
*       -1.768880099E+00               0
GRID*               1218               01.2980074883E+007.4788756371E+00+
*       -1.838284314E+00               0
GRID*               1219               01.3411103950E+007.6278412514E+00+
*       -1.815904527E+00               0
GRID*               1220               01.3323066542E+007.5359452563E+00+
*       -1.760556989E+00               0
GRID*               1221               01.3350131819E+007.4246626693E+00+
*       -1.723260575E+00               0
GRID*               1222               01.4188160896E+007.4434874058E+00+
*       -1.848012328E+00               0
GRID*               1223               01.4309047479E+007.5783728629E+00+
*       -1.778510796E+00               0
GRID*               1224               01.4336112756E+007.4670902758E+00+
*       -1.741214382E+00               0
GRID*               1225               01.2142045805E+007.4600509005E+00+
*       -1.713532560E+00               0
GRID*               1226               01.5122010344E+007.6123032281E+00+
*       -1.813547205E+00               0
GRID*               1227               01.5083608630E+007.5316928407E+00+
*       -1.766122254E+00               0
GRID*               1228               01.2705137181E+007.6432585526E+00+
*       -2.087755935E+00               0
GRID*               1229               01.3690054464E+007.6926791478E+00+
*       -2.110974031E+00               0
GRID*               1230               01.6446736091E+007.5919382283E+00+
*       -1.810668122E+00               0
GRID*               1231               01.6284874314E+007.6543664643E+00+
*       -1.855445217E+00               0
GRID*               1232               01.3385030868E+007.5099243686E+00+
*       -1.992885050E+00               0
GRID*               1233               01.4217569176E+007.4432204485E+00+
*       -1.970439204E+00               0
GRID*               1234               01.4244634453E+007.3319378615E+00+
*       -1.933142789E+00               0
GRID*               1235               01.5121272563E+007.4084146423E+00+
*       -1.940339003E+00               0
GRID*               1236               01.5171161378E+007.4942922261E+00+
*       -1.988992426E+00               0
GRID*               1237               01.3913636259E+008.2219631329E+00+
*       -2.444970305E+00               0
GRID*               1238               01.3085310510E+008.1689707890E+00+
*       -2.386414225E+00               0
GRID*               1239               01.3677815199E+008.2208695412E+00+
*       -2.335943222E+00               0
GRID*               1240               01.3225432463E+008.2664513464E+00+
*       -2.434438281E+00               0
GRID*               1241               01.2397106714E+008.2134590025E+00+
*       -2.375882201E+00               0
GRID*               1242               01.3866513392E+008.4842700426E+00+
*       -2.352160066E+00               0
GRID*               1243               01.3907092561E+008.1182821684E+00+
*       -2.372245155E+00               0
GRID*               1244               01.5639154368E+008.2168205168E+00+
*       -2.446955575E+00               0
GRID*               1245               01.3746482171E+008.3293449481E+00+
*       -2.281093919E+00               0
GRID*               1246               01.2918156423E+008.2763526042E+00+
*       -2.222537839E+00               0
GRID*               1247               01.4581671936E+008.2879742495E+00+
*       -2.243146334E+00               0
GRID*               1248               01.5443048772E+008.3217189515E+00+
*       -2.273912485E+00               0
GRID*               1249               01.4603697747E+008.3737249947E+00+
*       -2.294840904E+00               0
GRID*               1250               01.3851578869E+008.4012481769E+00+
*       -2.299958431E+00               0
GRID*               1251               01.5477702022E+003.2134693861E+00+
*       -1.780716598E+00               0
GRID*               1252               01.5407981800E+003.2521254891E+00+
*       -1.922488749E+00               0
GRID*               1253               01.4412618207E+003.1873689765E+00+
*       -1.934276700E+00               0
GRID*               1254               01.4131585622E+003.2648684056E+00+
*       -1.851470776E+00               0
GRID*               1255               01.5126949215E+003.3296249182E+00+
*       -1.839682825E+00               0
GRID*               1256               01.4061865400E+003.3035245086E+00+
*       -1.993242927E+00               0
GRID*               1257               01.4438458483E+003.0912977500E+00+
*       -1.934276700E+00               0
GRID*               1258               01.3644897268E+003.1411212487E+00+
*       -1.934276700E+00               0
GRID*               1259               01.3388099670E+003.0680047274E+00+
*       -1.772226632E+00               0
GRID*               1260               01.2550658510E+003.0604131027E+00+
*       -1.913998783E+00               0
GRID*               1261               01.3580315996E+003.0493707496E+00+
*       -1.934276700E+00               0
GRID*               1262               01.2486077238E+002.9686626035E+00+
*       -1.913998783E+00               0
GRID*               1263               01.6686030576E+003.1045623243E+00+
*       -1.704120103E+00               0
GRID*               1264               01.5690666983E+003.0398058117E+00+
*       -1.715908054E+00               0
GRID*               1265               01.6015369175E+003.0820669866E+00+
*       -1.824954982E+00               0
GRID*               1266               01.7010732768E+003.1468234993E+00+
*       -1.813167031E+00               0
GRID*               1267               01.3998236086E+002.9432523392E+00+
*       -1.825783182E+00               0
GRID*               1268               01.2903997328E+002.8625441931E+00+
*       -1.805505264E+00               0
GRID*               1269               01.3096213654E+002.8439102153E+00+
*       -1.967555333E+00               0
GRID*               1270               01.4647310041E+002.9652866614E+00+
*       -1.716622473E+00               0
GRID*               1271               01.3553071283E+002.8845785153E+00+
*       -1.696344555E+00               0
GRID*               1272               01.5117186642E+003.1395229887E+00+
*       -1.934276700E+00               0
GRID*               1273               01.6112550235E+003.2042795013E+00+
*       -1.922488749E+00               0
GRID*               1274               01.6650217389E+003.0728771018E+00+
*       -1.966727133E+00               0
GRID*               1275               01.0449030101E+004.9262025356E+00+
*       -1.685284138E+00               0
GRID*               1276               01.0065650642E+005.0234158039E+00+
*       -1.722748160E+00               0
GRID*               1277               01.0150613487E+005.1003999710E+00+
*       -1.655094683E+00               0
GRID*               1278               01.0533992946E+005.0031867027E+00+
*       -1.617630661E+00               0
GRID*               1279               01.1056722403E+005.0344769955E+00+
*       -1.705848157E+00               0
GRID*               1280               09.4788828492E-015.1709055901E+00+
*       -1.648180664E+00               0
GRID*               1281               09.4394409553E-015.2477658257E+00+
*       -1.737604998E+00               0
GRID*               1282               09.1200998322E-015.1661990151E+00+
*       -1.761419020E+00               0
GRID*               1283               08.4402984378E-015.1164040354E+00+
*       -1.713604233E+00               0
GRID*               1284               08.7596395609E-015.1979708460E+00+
*       -1.689790210E+00               0
GRID*               1285               09.3274693527E-015.2414502693E+00+
*       -1.537403305E+00               0
GRID*               1286               09.0081282296E-015.1598834587E+00+
*       -1.561217327E+00               0
GRID*               1287               09.4550591327E-015.0822322625E+00+
*       -1.538012660E+00               0
GRID*               1288               09.7744002558E-015.1637990732E+00+
*       -1.514198637E+00               0
GRID*               1289               08.6554669883E-015.2299211546E+00+
*       -1.603590595E+00               0
GRID*               1290               08.3361258652E-015.1483543440E+00+
*       -1.627404617E+00               0
GRID*               1291               08.5862222747E-015.0738189032E+00+
*       -1.582832312E+00               0
GRID*               1292               08.1857442724E-015.0707511954E+00+
*       -1.654413149E+00               0
GRID*               1293               01.6849260929E+009.6820313150E+00+
*       -2.981427609E+00               0
GRID*               1294               01.5960168841E+009.5923229868E+00+
*       -2.970637738E+00               0
GRID*               1295               01.5393117070E+009.6070523262E+00+
*       -3.062617660E+00               0
GRID*               1296               01.5716692808E+009.6678792650E+00+
*       -2.976991950E+00               0
GRID*               1297               01.5282107568E+009.7439521479E+00+
*       -3.175081184E+00               0
GRID*               1298               01.5864989138E+009.8188704180E+00+
*       -3.193218401E+00               0
GRID*               1299               01.9093282147E+001.0064808714E+01+
*       -3.119485451E+00               0
GRID*               1300               01.5970671469E+009.5818123573E+00+
*       -3.166097529E+00               0
GRID*               1301               07.7077945899E-013.9143886646E+00+
*       -1.990548491E+00               0
GRID*               1302               08.0284015035E-013.9357790850E+00+
*       -1.904645310E+00               0
GRID*               1303               07.3257359366E-013.8708604230E+00+
*       -1.904908560E+00               0
GRID*               1304               01.6242990266E+005.9031251903E+00+
*       -1.652759122E+00               0
GRID*               1305               01.6124622297E+006.0075118800E+00+
*       -1.677632678E+00               0
GRID*               1306               01.6363297211E+005.9838882549E+00+
*       -1.589988196E+00               0
GRID*               1307               01.6107812867E+005.8874278345E+00+
*       -1.557762402E+00               0
GRID*               1308               01.5704451872E+005.9733447278E+00+
*       -1.521692154E+00               0
GRID*               1309               01.1953931451E+005.0772051811E+00+
*       -1.698228002E+00               0
GRID*               1310               01.0865550297E+005.1213285146E+00+
*       -1.771494369E+00               0
GRID*               1311               01.1677796500E+005.0870725332E+00+
*       -1.831527690E+00               0
GRID*               1312               01.1868968606E+005.0002210140E+00+
*       -1.765881479E+00               0
GRID*               1313               01.0780587452E+005.0443443475E+00+
*       -1.839147846E+00               0
GRID*               1314               01.2984418869E+005.0472252369E+00+
*       -1.641367495E+00               0
GRID*               1315               01.2172172666E+005.0814812183E+00+
*       -1.581334174E+00               0
GRID*               1316               01.2376337647E+004.9879329205E+00+
*       -1.656520665E+00               0
GRID*               1317               01.2594578862E+004.9922089577E+00+
*       -1.539626837E+00               0
GRID*               1318               01.1564091444E+005.0221889019E+00+
*       -1.596487343E+00               0
GRID*               1319               01.1950356960E+004.8604462147E+00+
*       -1.777568579E+00               0
GRID*               1320               01.2457726002E+004.8481581211E+00+
*       -1.668207765E+00               0
GRID*               1321               01.1479128599E+004.9452047348E+00+
*       -1.664140821E+00               0
GRID*               1322               01.3828470707E+005.0717670918E+00+
*       -1.704020262E+00               0
GRID*               1323               01.3563866615E+004.9394564629E+00+
*       -1.582948148E+00               0
GRID*               1324               01.4046711922E+005.0760431290E+00+
*       -1.587126434E+00               0
GRID*               1325               01.5153542453E+005.0485450729E+00+
*       -1.743506846E+00               0
GRID*               1326               01.4475935489E+005.1040414541E+00+
*       -1.771866461E+00               0
GRID*               1327               01.3165054917E+006.4536426067E+00+
*       -1.682045162E+00               0
GRID*               1328               01.3830099651E+006.5245661283E+00+
*       -1.797146663E+00               0
GRID*               1329               01.3518671393E+006.5528271198E+00+
*       -1.677857518E+00               0
GRID*               1330               01.4181320667E+006.4866013527E+00+
*       -1.640919387E+00               0
GRID*               1331               01.4846365401E+006.5575248742E+00+
*       -1.756020889E+00               0
GRID*               1332               01.2208514520E+006.4530902304E+00+
*       -1.802890822E+00               0
GRID*               1333               01.2871163794E+006.3868644632E+00+
*       -1.765952691E+00               0
GRID*               1334               01.2182394862E+006.4064688683E+00+
*       -1.696129501E+00               0
GRID*               1335               01.1888503739E+006.3396907247E+00+
*       -1.780037030E+00               0
GRID*               1336               01.2845044136E+006.3402431011E+00+
*       -1.659191370E+00               0
GRID*               1337               01.2392579913E+006.6266341209E+00+
*       -1.728790641E+00               0
GRID*               1338               01.2988553697E+006.7078674707E+00+
*       -1.815775882E+00               0
GRID*               1339               01.3098379428E+006.6011017236E+00+
*       -1.805968534E+00               0
GRID*               1340               01.2080793932E+006.5518771605E+00+
*       -1.796746251E+00               0
GRID*               1341               01.1970968201E+006.6586429076E+00+
*       -1.806553599E+00               0
GRID*               1342               01.2590848449E+007.5539786384E+00+
*       -2.036999580E+00               0
GRID*               1343               01.1720820839E+007.5397893055E+00+
*       -1.984360031E+00               0
GRID*               1344               01.5485821366E+007.5344049931E+00+
*       -1.882429659E+00               0
GRID*               1345               01.5566466029E+007.7515551370E+00+
*       -2.156841956E+00               0
GRID*               1346               01.5519322278E+007.8786986299E+00+
*       -1.967572111E+00               0
GRID*               1347               01.3772474491E+007.9557075070E+00+
*       -2.271697325E+00               0
GRID*               1348               01.5475754225E+007.7101999646E+00+
*       -1.874021725E+00               0
GRID*               1349               01.5615610444E+007.9425544308E+00+
*       -2.268901987E+00               0
GRID*               1350               01.5554186410E+007.8590938293E+00+
*       -2.210443868E+00               0
GRID*               1351               01.7915383895E+001.0575393846E+01+
*       -2.909882188E+00               0
GRID*               1352               01.7912088951E+001.0471661737E+01+
*       -2.940554023E+00               0
GRID*               1353               01.7585130334E+001.0336824417E+01+
*       -2.989661694E+00               0
GRID*               1354               01.6086868644E+001.0341326714E+01+
*       -2.973605037E+00               0
GRID*               1355               01.7595103937E+001.0382673118E+01+
*       -2.947159767E+00               0
GRID*               1356               01.6096842246E+001.0387175414E+01+
*       -2.931103110E+00               0
GRID*               1357               01.4761780596E+009.6612685629E+00+
*       -3.158340759E+00               0
GRID*               1358               01.6799234152E+001.0554864883E+01+
*       -3.018330693E+00               0
GRID*               1359               01.4904456530E+008.9572553327E+00+
*       -2.824927769E+00               0
GRID*               1360               03.4348148468E-013.5754570830E+00+
*       -1.326802705E+00               0
GRID*               1361               01.4479876121E+009.0360537484E+00+
*       -2.667228101E+00               0
GRID*               1362               01.3911514243E+008.9476662591E+00+
*       -2.616320489E+00               0
GRID*               1363               01.4188368871E+008.7848734356E+00+
*       -2.724987245E+00               0
GRID*               1364               01.4756730749E+008.8732609249E+00+
*       -2.775894857E+00               0
GRID*               1365               01.3841407895E+005.4893116951E+00+
*       -1.639060080E+00               0
GRID*               1366               01.3443218148E+005.5333379377E+00+
*       -1.763809540E+00               0
GRID*               1367               01.4763776338E+005.5046900380E+00+
*       -1.764423646E+00               0
GRID*               1368               01.3829133294E+005.4471231807E+00+
*       -1.776499645E+00               0
GRID*               1369               01.2508575103E+005.4757710804E+00+
*       -1.775885539E+00               0
GRID*               1370               01.5633701113E+005.3285045833E+00+
*       -1.718626033E+00               0
GRID*               1371               01.4621942043E+005.3776974678E+00+
*       -1.604520380E+00               0
GRID*               1372               01.4726390404E+005.3945251708E+00+
*       -1.764597589E+00               0
GRID*               1373               01.4186366362E+005.3115588431E+00+
*       -1.729443782E+00               0
GRID*               1374               01.5097463449E+005.3018716669E+00+
*       -1.528450599E+00               0
GRID*               1375               01.5637487492E+005.3848379946E+00+
*       -1.563604405E+00               0
GRID*               1376               01.5202057866E+005.4590904224E+00+
*       -1.535736088E+00               0
GRID*               1377               01.4662033824E+005.3761240947E+00+
*       -1.500582281E+00               0
GRID*               1378               01.4548937678E+005.5751388073E+00+
*       -1.611658156E+00               0
GRID*               1379               01.4149500823E+005.6526665181E+00+
*       -1.492303641E+00               0
GRID*               1380               01.4762529230E+005.5381915063E+00+
*       -1.520319672E+00               0
GRID*               1381               01.5626785078E+005.5406056099E+00+
*       -1.555896186E+00               0
GRID*               1382               01.5013756671E+005.6550806217E+00+
*       -1.527880155E+00               0
GRID*               1383               01.2999277084E+005.4804389021E+00+
*       -1.511498046E+00               0
GRID*               1384               01.4319835275E+005.4517910024E+00+
*       -1.512112153E+00               0
GRID*               1385               01.3441971040E+005.5668394059E+00+
*       -1.519705565E+00               0
GRID*               1386               01.4150747931E+005.6191650499E+00+
*       -1.736407616E+00               0
GRID*               1387               01.5584941264E+005.5696941093E+00+
*       -1.732790053E+00               0
GRID*               1388               01.4971912857E+005.6841691211E+00+
*       -1.704774023E+00               0
GRID*               1389               01.3779811233E+005.3688246748E+00+
*       -1.476958347E+00               0
GRID*               1390               01.3301383853E+005.4063453674E+00+
*       -1.603906274E+00               0
GRID*               1391               01.7707237447E+003.8876769722E+00+
*       -1.879585805E+00               0
GRID*               1392               01.7945475250E+003.8390560525E+00+
*       -1.796527336E+00               0
GRID*               1393               01.7431411496E+003.9525520061E+00+
*       -1.771963814E+00               0
GRID*               1394               01.7966955570E+003.8948382697E+00+
*       -1.979350808E+00               0
GRID*               1395               01.7337720998E+003.9973494946E+00+
*       -1.983378737E+00               0
GRID*               1396               01.6582979560E+003.6980733871E+00+
*       -1.845398366E+00               0
GRID*               1397               01.7928651839E+003.6976073164E+00+
*       -1.765406857E+00               0
GRID*               1398               01.6528744698E+003.8254989386E+00+
*       -1.755997419E+00               0
GRID*               1399               01.7874416977E+003.8250328678E+00+
*       -1.676005910E+00               0
GRID*               1400               01.5417799550E+003.7599203751E+00+
*       -1.802822783E+00               0
GRID*               1401               01.5400976139E+003.6184716389E+00+
*       -1.771702304E+00               0
GRID*               1402               01.5483415649E+003.7017952816E+00+
*       -1.890726905E+00               0
GRID*               1403               01.5466592238E+003.5603465454E+00+
*       -1.859606426E+00               0
GRID*               1404               01.6157823012E+003.5535978470E+00+
*       -1.945163369E+00               0
GRID*               1405               01.6174646423E+003.6950465832E+00+
*       -1.976283848E+00               0
GRID*               1406               01.6961192653E+003.7526050340E+00+
*       -1.976283848E+00               0
GRID*               1407               01.6944369242E+003.6111562978E+00+
*       -1.945163369E+00               0
GRID*               1408               01.6000314764E+003.8124090221E+00+
*       -1.976283848E+00               0
GRID*               1409               01.4674647194E+003.7690626259E+00+
*       -1.989698847E+00               0
GRID*               1410               01.6501711715E+006.9821476919E+00+
*       -1.763512769E+00               0
GRID*               1411               01.7265738663E+007.2843534190E+00+
*       -1.729934092E+00               0
GRID*               1412               01.4616095246E+007.3531543084E+00+
*       -1.677361808E+00               0
GRID*               1413               01.5110673908E+007.4204102537E+00+
*       -1.728825840E+00               0
GRID*               1414               01.1609046595E+006.5354685226E+00+
*       -1.478928087E+00               0
GRID*               1415               01.2190101147E+006.5686953068E+00+
*       -1.628890574E+00               0
GRID*               1416               01.1921351092E+006.4866415897E+00+
*       -1.569020805E+00               0
GRID*               1417               01.0746118575E+006.5322131132E+00+
*       -1.519578703E+00               0
GRID*               1418               01.1058423072E+006.4833861803E+00+
*       -1.609671421E+00               0
GRID*               1419               01.5512886643E+007.4231224060E+00+
*       -1.845133245E+00               0
GRID*               1420               01.5179709792E+007.1112039089E+00+
*       -1.662360907E+00               0
GRID*               1421               01.5608993624E+007.1965930292E+00+
*       -1.612392734E+00               0
GRID*               1422               01.5723753426E+007.1220941374E+00+
*       -1.547015857E+00               0
GRID*               1423               01.5191848278E+006.4644875526E+00+
*       -1.622178316E+00               0
GRID*               1424               01.5725378968E+006.5274356865E+00+
*       -1.717218860E+00               0
GRID*               1425               01.3561353250E+006.3267505386E+00+
*       -1.772425624E+00               0
GRID*               1426               01.2578693195E+006.2795768001E+00+
*       -1.786509964E+00               0
GRID*               1427               01.2998541702E+006.4970390146E+00+
*       -1.807666145E+00               0
GRID*               1428               01.3661190976E+006.4308132475E+00+
*       -1.770728014E+00               0
GRID*               1429               01.3488295339E+006.4260759245E+00+
*       -1.519697250E+00               0
GRID*               1430               01.2825646065E+006.4923016916E+00+
*       -1.556635381E+00               0
GRID*               1431               01.2505635284E+006.3789021860E+00+
*       -1.533781589E+00               0
GRID*               1432               01.3841911815E+006.5252604376E+00+
*       -1.515509607E+00               0
GRID*               1433               01.4712657027E+007.0231930719E+00+
*       -1.829872673E+00               0
GRID*               1434               01.5643858009E+006.9826666818E+00+
*       -1.789559429E+00               0
GRID*               1435               01.5084278092E+006.9518472373E+00+
*       -1.812405439E+00               0
GRID*               1436               01.3591961861E+007.0357673168E+00+
*       -1.730242550E+00               0
GRID*               1437               01.3624842167E+007.1193842888E+00+
*       -1.746608973E+00               0
GRID*               1438               01.3558275886E+007.0335420756E+00+
*       -1.831394567E+00               0
GRID*               1439               01.2833343931E+007.0379792838E+00+
*       -1.796044542E+00               0
GRID*               1440               01.2866224237E+007.1215962558E+00+
*       -1.812410965E+00               0
GRID*               1441               01.4690921903E+007.1085164547E+00+
*       -1.746665180E+00               0
GRID*               1442               01.3998870254E+007.1965706348E+00+
*       -1.727681577E+00               0
GRID*               1443               01.4113630056E+007.1220717430E+00+
*       -1.662304699E+00               0
GRID*               1444               01.5622122884E+007.0679900646E+00+
*       -1.706351936E+00               0
GRID*               1445               06.3018721342E-014.2289824486E+00+
*       -1.589836061E+00               0
GRID*               1446               05.1330853108E-014.1189045692E+00+
*       -1.589579029E+00               0
GRID*               1447               05.5858147144E-014.1153311729E+00+
*       -1.678159356E+00               0
GRID*               1448               06.1120349169E-014.0082902908E+00+
*       -1.614618242E+00               0
GRID*               1449               06.9284042716E-013.9705531597E+00+
*       -1.721974194E+00               0
GRID*               1450               08.2480808624E-013.9428284870E+00+
*       -1.736922800E+00               0
GRID*               1451               05.8190244425E-013.6281203501E+00+
*       -1.581815277E+00               0
GRID*               1452               05.7958813001E-013.5644122832E+00+
*       -1.680490587E+00               0
GRID*               1453               07.1645661720E-013.9008863674E+00+
*       -1.587740481E+00               0
GRID*               1454               01.0170079768E+004.7893865108E+00+
*       -1.681126237E+00               0
GRID*               1455               01.0456487834E+004.7949104309E+00+
*       -1.559096098E+00               0
GRID*               1456               01.1142192185E+004.8204867840E+00+
*       -1.578800201E+00               0
GRID*               1457               01.0692809224E+004.8206768036E+00+
*       -1.769343734E+00               0
GRID*               1458               09.7215990124E-014.7609688446E+00+
*       -1.818976597E+00               0
GRID*               1459               09.4778198896E-014.8664945767E+00+
*       -1.734917001E+00               0
GRID*               1460               01.0000549346E+004.8977848694E+00+
*       -1.823134498E+00               0
GRID*               1461               09.5708572865E-014.7424209118E+00+
*       -1.619700491E+00               0
GRID*               1462               08.9425572666E-014.8037837654E+00+
*       -1.531349758E+00               0
GRID*               1463               08.5871139082E-014.6512924343E+00+
*       -1.553983608E+00               0
GRID*               1464               09.4727444562E-014.7037819534E+00+
*       -1.493379215E+00               0
GRID*               1465               08.7403027289E-014.8188174177E+00+
*       -1.693209761E+00               0
GRID*               1466               01.1844143867E+004.4082911015E+00+
*       -1.656327724E+00               0
GRID*               1467               01.3230722547E+004.4903025627E+00+
*       -1.607795179E+00               0
GRID*               1468               01.0417526232E+004.5415139983E+00+
*       -1.853812678E+00               0
GRID*               1469               01.1055728793E+004.6424708366E+00+
*       -1.846045911E+00               0
GRID*               1470               01.1502091289E+004.5442552567E+00+
*       -1.866736650E+00               0
GRID*               1471               01.2531625950E+003.1321118445E+00+
*       -1.653115734E+00               0
GRID*               1472               01.3625864708E+003.2128199906E+00+
*       -1.673393651E+00               0
GRID*               1473               01.3764642609E+003.2233513149E+00+
*       -1.767539836E+00               0
GRID*               1474               01.2670403851E+003.1426431688E+00+
*       -1.747261919E+00               0
GRID*               1475               01.2490590215E+002.9961432219E+00+
*       -1.620008647E+00               0
GRID*               1476               01.2728355252E+003.1409584851E+00+
*       -1.521175667E+00               0
GRID*               1477               01.1797774434E+003.1023061275E+00+
*       -1.698998779E+00               0
GRID*               1478               01.1994503736E+003.1111527681E+00+
*       -1.567058712E+00               0
GRID*               1479               01.1442841291E+002.9501289129E+00+
*       -1.515196562E+00               0
GRID*               1480               01.1246111989E+002.9412822723E+00+
*       -1.647136629E+00               0
GRID*               1481               01.2332994184E+002.8423398967E+00+
*       -1.696002243E+00               0
GRID*               1482               01.2529723487E+002.8511865372E+00+
*       -1.564062176E+00               0
GRID*               1483               01.1285245261E+002.7963255877E+00+
*       -1.591190158E+00               0
GRID*               1484               01.3749800586E+002.8934251559E+00+
*       -1.564404488E+00               0
GRID*               1485               01.1705534637E+002.8397348137E+00+
*       -1.803875743E+00               0
GRID*               1486               01.1035076160E+002.8365610821E+00+
*       -1.697595241E+00               0
GRID*               1487               01.1627887487E+003.0247272253E+00+
*       -1.800329685E+00               0
GRID*               1488               01.1131801009E+003.1397367716E+00+
*       -1.747379750E+00               0
GRID*               1489               01.1797774434E+003.1023061275E+00+
*       -1.806498781E+00               0
GRID*               1490               01.1131801009E+003.1397367716E+00+
*       -1.854879752E+00               0
GRID*               1491               08.5448265596E-013.9674704228E+00+
*       -1.650725641E+00               0
GRID*               1492               07.7284572049E-014.0052075539E+00+
*       -1.543369688E+00               0
GRID*               1493               07.4317115077E-013.9805656181E+00+
*       -1.629566848E+00               0
GRID*               1494               04.8659399751E-014.0392253185E+00+
*       -1.547752662E+00               0
GRID*               1495               06.5609470010E-014.0422623158E+00+
*       -1.484468579E+00               0
GRID*               1496               05.5869382443E-014.1644271397E+00+
*       -1.481143055E+00               0
GRID*               1497               05.3197929087E-014.0847478889E+00+
*       -1.439316688E+00               0
GRID*               1498               08.2565170527E-014.1184599400E+00+
*       -1.515564263E+00               0
GRID*               1499               09.3387429268E-014.1308687192E+00+
*       -1.360441208E+00               0
GRID*               1500               07.9103182109E-014.1343503457E+00+
*       -1.371171892E+00               0
GRID*               1501               08.0699721978E-014.0231480265E+00+
*       -1.457217063E+00               0
GRID*               1502               09.4983969138E-014.0196664000E+00+
*       -1.446486379E+00               0
GRID*               1503               09.1521980720E-014.0355568058E+00+
*       -1.302094008E+00               0
GRID*               1504               08.5456285310E-013.9656541992E+00+
*       -1.302094008E+00               0
GRID*               1505               07.7798321750E-013.9085541428E+00+
*       -1.302199389E+00               0
GRID*               1506               07.0366033342E-013.9847684884E+00+
*       -1.329345524E+00               0
GRID*               1507               07.8028268622E-013.9434687758E+00+
*       -1.415390695E+00               0
GRID*               1508               07.0370305062E-013.8863687195E+00+
*       -1.415496077E+00               0
GRID*               1509               06.0798544357E-014.0024114458E+00+
*       -1.329345524E+00               0
GRID*               1510               06.3469997714E-014.0820906965E+00+
*       -1.371171892E+00               0
GRID*               1511               05.1058456791E-014.1245762697E+00+
*       -1.326020000E+00               0
GRID*               1512               08.6945704968E-014.2412889462E+00+
*       -1.364842176E+00               0
GRID*               1513               07.6123446226E-014.2288801670E+00+
*       -1.519965231E+00               0
GRID*               1514               07.3915070785E-014.2674886492E+00+
*       -1.419670762E+00               0
GRID*               1515               08.1757593644E-014.3744272497E+00+
*       -1.413341046E+00               0
GRID*               1516               06.6119524233E-014.2426330069E+00+
*       -1.489137245E+00               0
GRID*               1517               07.3962047092E-014.3495716074E+00+
*       -1.482807529E+00               0
GRID*               1518               08.4737329526E-014.2798974284E+00+
*       -1.264547707E+00               0
GRID*               1519               07.3037486698E-014.0644477391E+00+
*       -1.371171892E+00               0
GRID*               1520               01.1103492283E+002.7972035523E+00+
*       -1.965925811E+00               0
GRID*               1521               07.0861244202E-014.3359210491E+00+
*       -1.583506346E+00               0
GRID*               1522               07.2429478168E-014.3471992016E+00+
*       -1.706771791E+00               0
GRID*               1523               09.8044781239E-014.2077875596E+00+
*       -1.283238292E+00               0
GRID*               1524               07.8858308418E-014.4295993801E+00+
*       -1.503481126E+00               0
GRID*               1525               01.0389125943E+004.3694851398E+00+
*       -1.447157800E+00               0
GRID*               1526               01.1524366973E+004.2980276171E+00+
*       -2.018347859E+00               0
GRID*               1527               01.0972974540E+004.2274412462E+00+
*       -2.018347859E+00               0
GRID*               1528               01.1699124814E+004.0926975557E+00+
*       -1.945921838E+00               0
GRID*               1529               01.8650011462E+009.4564602423E+00+
*       -2.979340172E+00               0
GRID*               1530               01.8665387242E+009.4149847404E+00+
*       -3.050627340E+00               0
GRID*               1531               09.0689545658E-013.9916006757E+00+
*       -1.736548301E+00               0
GRID*               1532               09.6509489205E-014.0134760572E+00+
*       -1.824263629E+00               0
GRID*               1533               01.0137904882E+004.1147196293E+00+
*       -1.811331034E+00               0
GRID*               1534               09.5559105277E-014.0928442478E+00+
*       -1.723615706E+00               0
GRID*               1535               01.0164034047E+004.0379776193E+00+
*       -1.719157156E+00               0
GRID*               1536               09.9176850099E-014.1895769748E+00+
*       -1.996243179E+00               0
GRID*               1537               09.3232303042E-014.2750712547E+00+
*       -1.996512175E+00               0
GRID*               1538               09.0303650498E-014.1757123470E+00+
*       -1.916706502E+00               0
GRID*               1539               01.0284026861E+004.2179112434E+00+
*       -1.938542187E+00               0
GRID*               1540               01.0576892116E+004.3172701511E+00+
*       -2.018347859E+00               0
GRID*               1541               09.6895721555E-014.3034055233E+00+
*       -1.938811183E+00               0
GRID*               1542               09.3154306789E-014.1205788977E+00+
*       -1.996243179E+00               0
GRID*               1543               08.7209759732E-014.2060731775E+00+
*       -1.996512175E+00               0
GRID*               1544               01.0225294362E+004.0202446484E+00+
*       -1.910265199E+00               0
GRID*               1545               09.8398712292E-014.0177431158E+00+
*       -1.996243179E+00               0
GRID*               1546               01.0313767434E+004.0997480699E+00+
*       -1.996243179E+00               0
GRID*               1547               01.0914242041E+004.0297746512E+00+
*       -1.990070871E+00               0
GRID*               1548               01.1010177135E+004.0831675529E+00+
*       -1.866116166E+00               0
GRID*               1549               05.7220557321E-013.4455783837E+00+
*       -1.550540958E+00               0
GRID*               1550               03.1522976221E-013.3987511692E+00+
*       -1.487834309E+00               0
GRID*               1551               03.4116675581E-013.4272095398E+00+
*       -1.326802705E+00               0
GRID*               1552               04.7325323524E-013.5116136840E+00+
*       -1.377080441E+00               0
GRID*               1553               01.0455829298E+002.9668091278E+00+
*       -1.379186690E+00               0
GRID*               1554               09.2099012897E-012.9387020468E+00+
*       -1.379186690E+00               0
GRID*               1555               01.0043219626E+002.8108377457E+00+
*       -1.379186690E+00               0
GRID*               1556               03.7876282669E-013.2990111829E+00+
*       -1.325505075E+00               0
GRID*               1557               03.5282583310E-013.2705528122E+00+
*       -1.486536678E+00               0
GRID*               1558               01.3984907866E+003.0865885019E+00+
*       -1.474766433E+00               0
GRID*               1559               01.5620130927E+003.0170266931E+00+
*       -1.443330487E+00               0
GRID*               1560               01.4322542579E+002.9354280536E+00+
*       -1.456632634E+00               0
GRID*               1561               01.4793157528E+002.9679443062E+00+
*       -1.563690070E+00               0
GRID*               1562               01.6090745876E+003.0495429457E+00+
*       -1.550387923E+00               0
GRID*               1563               01.4794979624E+003.0939014357E+00+
*       -1.338756561E+00               0
GRID*               1564               01.3497391275E+003.0123027962E+00+
*       -1.352058709E+00               0
GRID*               1565               01.5132614337E+002.9427409874E+00+
*       -1.320622762E+00               0
GRID*               1566               01.1905851459E+002.8490986944E+00+
*       -1.456984720E+00               0
GRID*               1567               01.0661373234E+002.7942377448E+00+
*       -1.484112701E+00               0
GRID*               1568               05.9805006934E-012.9379726723E+00+
*       -1.571515000E+00               0
GRID*               1569               07.1220696068E-012.8692459306E+00+
*       -1.571103833E+00               0
GRID*               1570               07.4603500962E-013.0127309561E+00+
*       -1.600780845E+00               0
GRID*               1571               07.5674066043E-012.8935001334E+00+
*       -1.680648707E+00               0
GRID*               1572               01.6762472684E+009.4195371701E+00+
*       -2.903028870E+00               0
GRID*               1573               01.6229273053E+009.3501828516E+00+
*       -2.847990615E+00               0
GRID*               1574               01.7178784943E+009.3362307113E+00+
*       -2.878198232E+00               0
GRID*               1575               08.6066880822E-012.9418723583E+00+
*       -1.516780257E+00               0
GRID*               1576               09.0520250797E-012.9661265612E+00+
*       -1.626325130E+00               0
GRID*               1577               08.6451613427E-013.1362015155E+00+
*       -1.629930823E+00               0
GRID*               1578               08.1998243452E-013.1119473126E+00+
*       -1.520385949E+00               0
GRID*               1579               09.7914993287E-013.0653429177E+00+
*       -1.545930235E+00               0
GRID*               1580               04.6944039042E-013.1222861937E+00+
*       -1.834664434E+00               0
GRID*               1581               08.3011849730E-013.0500868568E+00+
*       -1.993282557E+00               0
GRID*               1582               08.9852348990E-012.8650196247E+00+
*       -1.969641032E+00               0
GRID*               1583               01.0208761594E+003.0368438968E+00+
*       -1.962379754E+00               0
GRID*               1584               09.0543374419E-013.0754008293E+00+
*       -1.879613459E+00               0
GRID*               1585               09.7383873680E-012.8903335972E+00+
*       -1.855971935E+00               0
GRID*               1586               08.8409892507E-012.8614053710E+00+
*       -1.676783743E+00               0
GRID*               1587               09.4338005781E-013.0495715141E+00+
*       -1.779518187E+00               0
GRID*               1588               01.0369102735E+002.8739917262E+00+
*       -1.745976212E+00               0
GRID*               1589               07.7800384770E-013.2031624999E+00+
*       -1.635040288E+00               0
GRID*               1590               09.8803607581E-013.1627923428E+00+
*       -1.873886985E+00               0
GRID*               1591               08.3522472737E-013.1502059876E+00+
*       -1.804694516E+00               0
GRID*               1592               08.8113936253E-013.1308677015E+00+
*       -1.724076784E+00               0
GRID*               1593               01.0339507110E+003.1434540567E+00+
*       -1.793269253E+00               0
GRID*               1594               09.9912407241E-014.6399274739E+00+
*       -1.463238462E+00               0
GRID*               1595               06.9580457132E-014.1415217829E+00+
*       -1.371171892E+00               0
GRID*               1596               07.5214604550E-014.2870688656E+00+
*       -1.264547707E+00               0
GRID*               1597               07.4613118692E-013.9255283032E+00+
*       -1.501543321E+00               0
GRID*               1598               09.1975927353E-014.2366766930E+00+
*       -1.632499993E+00               0
GRID*               1599               01.8372377885E+009.4780508955E+00+
*       -3.107824520E+00               0
GRID*               1600               01.0008413792E+004.4229023457E+00+
*       -1.783366859E+00               0
GRID*               1601               01.2731147408E+004.1960656643E+00+
*       -1.421105862E+00               0
GRID*               1602               01.4034044743E+004.1801385880E+00+
*       -1.436774433E+00               0
GRID*               1603               01.3711351752E+004.0719568729E+00+
*       -1.407970726E+00               0
GRID*               1604               01.3097000718E+004.0356223583E+00+
*       -1.478664160E+00               0
GRID*               1605               01.3419693708E+004.1438040733E+00+
*       -1.507467866E+00               0
GRID*               1606               01.2689258397E+003.9793664119E+00+
*       -1.389852486E+00               0
GRID*               1607               01.3677638769E+003.9832929373E+00+
*       -1.395141482E+00               0
GRID*               1608               01.1992522468E+004.0076305764E+00+
*       -1.773759919E+00               0
GRID*               1609               01.2687528720E+003.9612524407E+00+
*       -1.648375588E+00               0
GRID*               1610               01.2987858653E+004.0487792492E+00+
*       -1.577688932E+00               0
GRID*               1611               01.2292852402E+004.0951573849E+00+
*       -1.703073263E+00               0
GRID*               1612               01.1889840355E+004.0266709226E+00+
*       -1.661038356E+00               0
GRID*               1613               01.8715719314E+001.1287422111E+01+
*       -3.261733413E+00               0
GRID*               1614               01.9178557587E+001.1184448646E+01+
*       -3.268339038E+00               0
GRID*               1615               01.9191510627E+001.1276661781E+01+
*       -3.171975966E+00               0
GRID*               1616               01.9809845827E+001.1249778105E+01+
*       -3.282685752E+00               0
GRID*               1617               01.4917434074E+001.1219906818E+01+
*       -3.004260103E+00               0
GRID*               1618               01.5253369320E+001.1249449834E+01+
*       -3.093531346E+00               0
GRID*               1619               01.7554104725E+001.1230831594E+01+
*       -3.187265448E+00               0
GRID*               1620               01.6792655783E+001.1136991943E+01+
*       -3.094410717E+00               0
GRID*               1621               01.6146834425E+001.1293324958E+01+
*       -3.093541567E+00               0
GRID*               1622               01.6560331712E+001.1221783613E+01+
*       -3.187044624E+00               0
GRID*               1623               01.9990356373E+001.1217056105E+01+
*       -3.171935101E+00               0
GRID*               1624               02.0608691573E+001.1190172429E+01+
*       -3.282644888E+00               0
GRID*               1625               02.1289052772E+001.1108454535E+01+
*       -3.114537140E+00               0
GRID*               1626               02.0094497091E+001.0992859318E+01+
*       -3.104415201E+00               0
GRID*               1627               01.9829089304E+001.1142430061E+01+
*       -3.086523573E+00               0
GRID*               1628               01.9902555250E+001.1247407717E+01+
*       -2.911549466E+00               0
GRID*               1629               01.9205356330E+001.1082906659E+01+
*       -2.896464728E+00               0
GRID*               1630               01.9593510999E+001.1252301495E+01+
*       -3.082339662E+00               0
GRID*               1631               01.8896312079E+001.1087800436E+01+
*       -3.067254924E+00               0
GRID*               1632               01.6815454563E+001.1206520466E+01+
*       -2.908478260E+00               0
GRID*               1633               01.7086885283E+001.1300466158E+01+
*       -2.911665602E+00               0
GRID*               1634               01.7469690442E+001.1209932804E+01+
*       -3.079268456E+00               0
GRID*               1635               05.5409669293E-012.9869929172E+00+
*       -1.462585616E+00               0
GRID*               1636               06.1253109182E-012.9529045423E+00+
*       -1.353642404E+00               0
GRID*               1637               06.7786247183E-013.0750977471E+00+
*       -1.353642404E+00               0
GRID*               1638               07.4793168781E-013.2255581060E+00+
*       -1.298866275E+00               0
GRID*               1639               06.4332062729E-013.3121526206E+00+
*       -1.459897879E+00               0
GRID*               1640               01.4433295340E+009.5878032246E+00+
*       -3.127952259E+00               0
GRID*               1641               01.5221208758E+009.5822116163E+00+
*       -3.149722620E+00               0
GRID*               1642               01.4676771373E+009.5122469464E+00+
*       -3.121598046E+00               0
GRID*               1643               01.4563447874E+009.5971200139E+00+
*       -3.001311831E+00               0
GRID*               1644               01.4319971840E+009.6726762922E+00+
*       -3.007666044E+00               0
GRID*               1645               01.3603626143E+009.5778709124E+00+
*       -3.066646430E+00               0
GRID*               1646               01.6814361811E+001.0065706730E+01+
*       -3.114038110E+00               0
GRID*               1647               01.8290158845E+009.4016928237E+00+
*       -2.917661990E+00               0
GRID*               1648               01.8366424934E+009.3231975495E+00+
*       -2.970357373E+00               0
GRID*               1649               01.9159717506E+009.3391060768E+00+
*       -2.930273249E+00               0
GRID*               1650               01.7097993040E+009.1519263761E+00+
*       -2.950723252E+00               0
GRID*               1651               01.7900267296E+009.2096395616E+00+
*       -2.942560962E+00               0
GRID*               1652               01.2301954974E+002.8200129318E+00+
*       -1.967555333E+00               0
GRID*               1653               01.1691818559E+002.9447653199E+00+
*       -1.913998783E+00               0
GRID*               1654               01.1820103813E+003.0060932475E+00+
*       -1.962379754E+00               0
GRID*               1655               01.1025845134E+002.9821959640E+00+
*       -1.962379754E+00               0
GRID*               1656               01.1052868118E+003.0668814933E+00+
*       -1.962379754E+00               0
GRID*               1657               01.0179066932E+003.1485723331E+00+
*       -1.962379754E+00               0
GRID*               1658               01.1222755065E+003.1444603955E+00+
*       -1.968548849E+00               0
GRID*               1659               01.0580138564E+002.9787129164E+00+
*       -1.695517600E+00               0
GRID*               1660               01.0750025511E+003.0562918186E+00+
*       -1.594186693E+00               0
GRID*               1661               09.9577316113E-013.0600091037E+00+
*       -1.640076196E+00               0
GRID*               1662               03.3463561070E-013.5862411079E+00+
*       -1.937030077E+00               0
GRID*               1663               03.2315129250E-013.5184099496E+00+
*       -1.832977014E+00               0
GRID*               1664               01.6580078539E+008.6411676182E+00+
*       -2.409698853E+00               0
GRID*               1665               01.2349106314E+008.5576220680E+00+
*       -2.431787173E+00               0
GRID*               1666               01.5742405653E+008.7609162331E+00+
*       -2.602140665E+00               0
GRID*               1667               01.6789985895E+008.6323776245E+00+
*       -2.515921116E+00               0
GRID*               1668               01.7746463823E+008.5763125042E+00+
*       -2.576863977E+00               0
GRID*               1669               01.5927879237E+008.7616175898E+00+
*       -2.717902874E+00               0
GRID*               1670               01.5561258832E+008.8542518949E+00+
*       -2.545775773E+00               0
GRID*               1671               01.4029810844E+003.1458133445E+00+
*       -1.338756561E+00               0
GRID*               1672               01.5041049133E+003.2094287329E+00+
*       -1.338756561E+00               0
GRID*               1673               05.7928681490E-013.5837284745E+00+
*       -1.851771897E+00               0
GRID*               1674               05.7334987490E-013.7203321865E+00+
*       -1.984486639E+00               0
GRID*               1675               06.4189334001E-013.6320116154E+00+
*       -1.990790671E+00               0
GRID*               1676               05.2237315147E-013.6208587101E+00+
*       -1.937030077E+00               0
GRID*               1677               01.5877780914E+003.2232065201E+00+
*       -1.615196466E+00               0
GRID*               1678               01.6880941696E+003.1503406739E+00+
*       -1.551077641E+00               0
GRID*               1679               01.7476226396E+003.2053600525E+00+
*       -1.704809821E+00               0
GRID*               1680               01.4358508861E+003.3152946569E+00+
*       -1.762437664E+00               0
GRID*               1681               01.4214317170E+003.2790291616E+00+
*       -1.675691752E+00               0
GRID*               1682               01.6148444774E+003.2523330628E+00+
*       -1.338756561E+00               0
GRID*               1683               01.6376850368E+003.3822523533E+00+
*       -1.352299035E+00               0
GRID*               1684               01.5510901809E+003.2981064320E+00+
*       -1.475006759E+00               0
GRID*               1685               01.5269454728E+003.3393480234E+00+
*       -1.352299035E+00               0
GRID*               1686               01.4614396063E+003.2887662955E+00+
*       -1.510171620E+00               0
GRID*               1687               01.4882417321E+003.1584500074E+00+
*       -1.626984417E+00               0
GRID*               1688               01.5209680763E+003.3437856742E+00+
*       -1.663903801E+00               0
GRID*               1689               01.3543254697E+003.2074626488E+00+
*       -1.863289397E+00               0
GRID*               1690               01.6106186509E+003.3531258106E+00+
*       -1.628738940E+00               0
GRID*               1691               01.7383750317E+003.3514717816E+00+
*       -1.458334860E+00               0
GRID*               1692               01.7750629423E+003.2765718697E+00+
*       -1.598524568E+00               0
GRID*               1693               01.7949307752E+003.3238620612E+00+
*       -1.707355462E+00               0
GRID*               1694               01.7582428646E+003.3987619731E+00+
*       -1.567165754E+00               0
GRID*               1695               01.5362347429E+007.7931124836E+00+
*       -1.932544888E+00               0
GRID*               1696               01.6347116296E+007.8229393631E+00+
*       -1.948296726E+00               0
GRID*               1697               01.4788823091E+007.9924602078E+00+
*       -2.295973224E+00               0
GRID*               1698               01.0360757284E+006.2054345556E+00+
*       -1.573719698E+00               0
GRID*               1699               01.0369243198E+006.2802126356E+00+
*       -1.614594656E+00               0
GRID*               1700               01.1853898168E+006.2182912827E+00+
*       -1.632400751E+00               0
GRID*               1701               01.0403919898E+006.1915903403E+00+
*       -1.671183862E+00               0
GRID*               1702               01.0412405812E+006.2663684203E+00+
*       -1.712058820E+00               0
GRID*               1703               01.3081974387E+006.1647341251E+00+
*       -1.605894029E+00               0
GRID*               1704               01.3813664599E+006.1555147477E+00+
*       -1.504657472E+00               0
GRID*               1705               01.2577102466E+006.1342938253E+00+
*       -1.490289236E+00               0
GRID*               1706               01.3594161272E+006.0676438808E+00+
*       -1.573977530E+00               0
GRID*               1707               01.3089289351E+006.0372035810E+00+
*       -1.458372737E+00               0
GRID*               1708               01.2570207282E+006.2047987201E+00+
*       -1.745635006E+00               0
GRID*               1709               01.3090460300E+006.2395122051E+00+
*       -1.646768987E+00               0
GRID*               1710               01.2076240119E+006.2169635448E+00+
*       -1.493614531E+00               0
GRID*               1711               01.2141909514E+006.0308177315E+00+
*       -1.465839933E+00               0
GRID*               1712               01.0699778709E+006.0324070297E+00+
*       -1.506579351E+00               0
GRID*               1713               01.0258524532E+005.9415370317E+00+
*       -1.514343844E+00               0
GRID*               1714               01.1700655336E+005.9399477334E+00+
*       -1.473604427E+00               0
GRID*               1715               01.3004199492E+008.3517445012E+00+
*       -2.341683056E+00               0
GRID*               1716               01.1723491007E+008.3443339626E+00+
*       -2.381622035E+00               0
GRID*               1717               01.2175873743E+008.2987521573E+00+
*       -2.283126976E+00               0
GRID*               1718               08.9565452734E-015.4399368568E+00+
*       -1.610736433E+00               0
GRID*               1719               08.9464607635E-015.3218793674E+00+
*       -1.574560109E+00               0
GRID*               1720               09.8083084822E-015.3705298901E+00+
*       -1.660542965E+00               0
GRID*               1721               09.7692626420E-015.4493618914E+00+
*       -1.559221698E+00               0
GRID*               1722               09.7591781322E-015.3313044020E+00+
*       -1.523045374E+00               0
GRID*               1723               01.1667762995E+005.5863544941E+00+
*       -1.638056278E+00               0
GRID*               1724               01.1169621348E+005.5032734871E+00+
*       -1.667582631E+00               0
GRID*               1725               01.1710373323E+005.5265183816E+00+
*       -1.767625949E+00               0
GRID*               1726               01.0117093430E+005.3874624088E+00+
*       -1.807092428E+00               0
GRID*               1727               01.0927810828E+005.4341142545E+00+
*       -1.831609389E+00               0
GRID*               1728               09.5484275678E-015.4651804283E+00+
*       -1.772245645E+00               0
GRID*               1729               01.0387058854E+005.4108693600E+00+
*       -1.731566072E+00               0
GRID*               1730               01.4918811047E+009.8276169965E+00+
*       -3.161225416E+00               0
GRID*               1731               01.4335929477E+009.7526987263E+00+
*       -3.143088199E+00               0
GRID*               1732               01.3167062331E+008.8743705921E+00+
*       -2.635200921E+00               0
GRID*               1733               01.3313389458E+008.7794815494E+00+
*       -2.671338753E+00               0
GRID*               1734               01.3511388813E+008.9082141331E+00+
*       -2.705535268E+00               0
GRID*               1735               01.3000699449E+006.2226863557E+00+
*       -1.494484705E+00               0
GRID*               1736               01.2084726032E+006.2917416248E+00+
*       -1.534489489E+00               0
GRID*               1737               01.3009185362E+006.2974644357E+00+
*       -1.535359664E+00               0
GRID*               1738               01.2513341568E+006.5411286245E+00+
*       -1.466542662E+00               0
GRID*               1739               01.3206366897E+006.6016540527E+00+
*       -1.587764800E+00               0
GRID*               1740               01.2365922332E+007.3052098751E+00+
*       -1.759442627E+00               0
GRID*               1741               01.2556974205E+007.1910150238E+00+
*       -1.830471037E+00               0
GRID*               1742               01.3574008346E+007.2698216438E+00+
*       -1.769170642E+00               0
GRID*               1743               01.4157667756E+007.2391331196E+00+
*       -1.881322682E+00               0
GRID*               1744               01.3516449928E+007.1767499447E+00+
*       -1.839777410E+00               0
GRID*               1745               01.1748775815E+007.6225728970E+00+
*       -1.868661116E+00               0
GRID*               1746               01.1351424398E+007.6286275186E+00+
*       -1.954265698E+00               0
GRID*               1747               01.2923927307E+006.0274543762E+00+
*       -1.681273997E+00               0
GRID*               1748               01.4160489440E+006.0486752987E+00+
*       -1.695642233E+00               0
GRID*               1749               01.3436114192E+005.9303641319E+00+
*       -1.649357498E+00               0
GRID*               1750               01.4089982510E+005.9624752998E+00+
*       -1.555421054E+00               0
GRID*               1751               01.4656310678E+005.9435067177E+00+
*       -1.677085757E+00               0
GRID*               1752               01.4547806960E+006.0112963533E+00+
*       -1.822510508E+00               0
GRID*               1753               01.5353872455E+003.3800511695E+00+
*       -1.750649713E+00               0
GRID*               1754               01.5420046971E+003.4211471693E+00+
*       -1.836931806E+00               0
GRID*               1755               01.6166236885E+003.3006527118E+00+
*       -1.922488749E+00               0
GRID*               1756               01.8078598722E+008.6566238306E+00+
*       -2.534956263E+00               0
GRID*               1757               01.8432775525E+008.7013216011E+00+
*       -2.566728448E+00               0
GRID*               1758               01.5058259102E+003.5573197414E+00+
*       -1.990491908E+00               0
GRID*               1759               01.6212782152E+003.4398520879E+00+
*       -1.945163369E+00               0
GRID*               1760               01.8414636728E+003.5693450918E+00+
*       -1.969842208E+00               0
GRID*               1761               01.8036423636E+003.5148134449E+00+
*       -1.838956726E+00               0
GRID*               1762               01.7015985297E+003.4959927764E+00+
*       -1.945163369E+00               0
GRID*               1763               01.8486252783E+003.4541815703E+00+
*       -1.969842208E+00               0
GRID*               1764               01.1440295309E+006.2420892972E+00+
*       -1.773662661E+00               0
GRID*               1765               01.3408845663E+006.6595928669E+00+
*       -1.687664866E+00               0
GRID*               1766               01.4223537598E+006.6140438369E+00+
*       -1.517453984E+00               0
GRID*               1767               01.2894967351E+006.6299120239E+00+
*       -1.468487039E+00               0
GRID*               1768               01.4094249010E+006.6886444092E+00+
*       -1.591645420E+00               0
GRID*               1769               01.3782849464E+006.7169023803E+00+
*       -1.472367659E+00               0
GRID*               1770               06.1737281084E-013.1224808693E+00+
*       -1.646348953E+00               0
GRID*               1771               04.4111383869E-013.1841922859E+00+
*       -1.938755393E+00               0
GRID*               1772               05.0744814913E-013.0361757557E+00+
*       -1.971957892E+00               0
GRID*               1773               03.6004128874E-013.3910113068E+00+
*       -1.833066278E+00               0
GRID*               1774               04.5415596905E-013.5231226164E+00+
*       -1.937030077E+00               0
GRID*               1775               03.5443063144E-013.3415583540E+00+
*       -1.972085052E+00               0
GRID*               1776               03.1754063519E-013.4689569968E+00+
*       -1.971995788E+00               0
GRID*               1777               06.0123347104E-013.4893908540E+00+
*       -1.851916392E+00               0
GRID*               1778               06.3797231376E-013.3313455621E+00+
*       -1.853641709E+00               0
GRID*               1779               04.9650546908E-013.4145302773E+00+
*       -1.799736619E+00               0
GRID*               1780               05.9562281373E-013.4399379012E+00+
*       -1.990935167E+00               0
GRID*               1781               04.9089481178E-013.3650773245E+00+
*       -1.938755393E+00               0
GRID*               1782               05.7367615759E-013.5342755217E+00+
*       -1.990790671E+00               0
GRID*               1783               03.9678013147E-013.2329660149E+00+
*       -1.834791594E+00               0
GRID*               1784               07.2868819893E-013.2474249640E+00+
*       -1.908168872E+00               0
GRID*               1785               01.5223897696E+001.0411116123E+01+
*       -2.931103110E+00               0
GRID*               1786               01.4645496081E+001.0400951560E+01+
*       -3.011443980E+00               0
GRID*               1787               01.5724148079E+001.0564782243E+01+
*       -2.924497366E+00               0
GRID*               1788               01.6413827260E+001.0476164034E+01+
*       -2.924497366E+00               0
GRID*               1789               01.3794586658E+006.8143846989E+00+
*       -1.640211642E+00               0
GRID*               1790               01.3401321173E+006.9387354851E+00+
*       -1.714378357E+00               0
GRID*               1791               01.4080749750E+007.0384547710E+00+
*       -1.645938277E+00               0
GRID*               1792               01.4474015236E+006.9141039848E+00+
*       -1.571771562E+00               0
GRID*               1793               01.1671406627E+004.7236301899E+00+
*       -1.773410678E+00               0
GRID*               1794               01.2413114255E+004.7863029567E+00+
*       -1.852573146E+00               0
GRID*               1795               01.1155566519E+004.7465335456E+00+
*       -1.844348301E+00               0
GRID*               1796               01.1434516853E+004.8833495704E+00+
*       -1.848506201E+00               0
GRID*               1797               01.0469954610E+005.1819667816E+00+
*       -1.631280661E+00               0
GRID*               1798               01.0446130893E+005.0932934541E+00+
*       -1.521112657E+00               0
GRID*               1799               01.7891186394E+009.9935204070E+00+
*       -3.031318995E+00               0
GRID*               1800               08.7873702973E-015.3082405750E+00+
*       -1.674766397E+00               0
GRID*               1801               01.0376974344E+005.2928118706E+00+
*       -1.695389748E+00               0
GRID*               1802               01.0018191327E+005.2881052956E+00+
*       -1.808628104E+00               0
GRID*               1803               09.5383430579E-015.3471229389E+00+
*       -1.736069321E+00               0
GRID*               1804               01.0193819659E+005.1918341337E+00+
*       -1.764580349E+00               0
GRID*               1805               01.1048704982E+005.2223062515E+00+
*       -1.702303767E+00               0
GRID*               1806               01.0772570031E+005.2321736036E+00+
*       -1.835603456E+00               0
GRID*               1807               09.8744785359E-015.1102673231E+00+
*       -1.788394372E+00               0
GRID*               1808               01.4329434641E+005.0901955038E+00+
*       -1.487782598E+00               0
GRID*               1809               01.3642289042E+005.1731162071E+00+
*       -1.546920121E+00               0
GRID*               1810               01.4769063600E+005.2118104368E+00+
*       -1.510229051E+00               0
GRID*               1811               01.4590789241E+005.2144857650E+00+
*       -1.769650095E+00               0
GRID*               1812               01.3528496189E+005.1856678729E+00+
*       -1.823891157E+00               0
GRID*               1813               01.2955785394E+004.8801641464E+00+
*       -1.598101318E+00               0
GRID*               1814               06.4934164892E-013.3129124131E+00+
*       -1.680608397E+00               0
GRID*               1815               01.3857934877E+005.2027508313E+00+
*       -1.478018953E+00               0
GRID*               1816               01.3418305919E+005.0811358983E+00+
*       -1.455572499E+00               0
GRID*               1817               01.4302840786E+004.8887501547E+00+
*       -1.530040671E+00               0
GRID*               1818               01.3337062216E+004.8807393357E+00+
*       -1.507232295E+00               0
GRID*               1819               01.3941634255E+005.0007949660E+00+
*       -1.471566190E+00               0
GRID*               1820               01.2975855684E+004.9927841469E+00+
*       -1.448757814E+00               0
GRID*               1821               01.4785686093E+005.0253368208E+00+
*       -1.534218957E+00               0
GRID*               1822               01.3189271526E+005.2600941441E+00+
*       -1.743043450E+00               0
GRID*               1823               01.2531401352E+005.1342031739E+00+
*       -1.837490824E+00               0
GRID*               1824               01.3424047828E+005.1688401699E+00+
*       -1.663813949E+00               0
GRID*               1825               01.1427627504E+004.8291559219E+00+
*       -1.689351082E+00               0
GRID*               1826               01.1517003179E+005.1999480724E+00+
*       -1.591885149E+00               0
GRID*               1827               01.0845272541E+005.2704536915E+00+
*       -1.584971130E+00               0
GRID*               1828               01.0239964159E+005.2508896478E+00+
*       -1.506180430E+00               0
GRID*               1829               01.0911694797E+005.1803840287E+00+
*       -1.513094450E+00               0
GRID*               1830               01.1287012728E+005.2688709386E+00+
*       -1.466784919E+00               0
GRID*               1831               01.0956399143E+004.9139144421E+00+
*       -1.575923324E+00               0
GRID*               1832               01.5234008112E+006.0562780472E+00+
*       -1.500745954E+00               0
GRID*               1833               01.4738186874E+006.1614466283E+00+
*       -1.519302429E+00               0
GRID*               1834               01.4013811626E+006.0431354615E+00+
*       -1.473017694E+00               0
GRID*               1835               01.3402847648E+005.8194732666E+00+
*       -1.555667460E+00               0
GRID*               1836               01.3110723495E+005.7348232269E+00+
*       -1.596982360E+00               0
GRID*               1837               01.3969175816E+005.8005046844E+00+
*       -1.677332163E+00               0
GRID*               1838               01.3143990040E+005.8457140923E+00+
*       -1.690672398E+00               0
GRID*               1839               09.7949505130E-016.0250916369E+00+
*       -1.540138203E+00               0
GRID*               1840               01.2844108499E+005.7800061859E+00+
*       -1.498116440E+00               0
GRID*               1841               01.3136232651E+005.8646562256E+00+
*       -1.456801540E+00               0
GRID*               1842               01.2188979929E+005.8575177144E+00+
*       -1.459270321E+00               0
GRID*               1843               01.0896309453E+004.1925988307E+00+
*       -1.283238292E+00               0
GRID*               1844               01.0437177792E+004.2808108618E+00+
*       -1.283238292E+00               0
GRID*               1845               01.3315942613E+005.6656609015E+00+
*       -1.746786004E+00               0
GRID*               1846               01.2490756837E+005.7108703093E+00+
*       -1.760126239E+00               0
GRID*               1847               01.4141697975E+005.7237274481E+00+
*       -1.737084838E+00               0
GRID*               1848               01.3316512200E+005.7689368559E+00+
*       -1.750425073E+00               0
GRID*               1849               01.3214767944E+005.6462323231E+00+
*       -1.481756228E+00               0
GRID*               1850               01.2389582168E+005.6914417310E+00+
*       -1.495096463E+00               0
GRID*               1851               01.3228379488E+005.6037867069E+00+
*       -1.611044049E+00               0
GRID*               1852               01.2507238160E+005.5604052109E+00+
*       -1.509158152E+00               0
GRID*               1853               01.2403193712E+005.6489961147E+00+
*       -1.624384284E+00               0
GRID*               1854               01.1512433290E+004.1783499718E+00+
*       -1.371364951E+00               0
GRID*               1855               01.1046698093E+004.1014311314E+00+
*       -1.448567867E+00               0
GRID*               1856               01.0430574255E+004.1156799903E+00+
*       -1.360441208E+00               0
GRID*               1857               01.1508950280E+004.2712479177E+00+
*       -1.283238292E+00               0
GRID*               1858               01.1835126281E+004.2865316868E+00+
*       -1.400168657E+00               0
GRID*               1859               01.2727664398E+004.2889636103E+00+
*       -1.332979202E+00               0
GRID*               1860               01.3050062658E+003.9478481057E+00+
*       -1.562276370E+00               0
GRID*               1861               01.2361516358E+004.0001096966E+00+
*       -1.475914366E+00               0
GRID*               1862               01.2252374293E+004.0132665875E+00+
*       -1.574939138E+00               0
GRID*               1863               01.2299312353E+004.1010408401E+00+
*       -1.491326928E+00               0
GRID*               1864               01.3215514245E+004.2070278744E+00+
*       -1.332979202E+00               0
GRID*               1865               01.2184422605E+004.0077406106E+00+
*       -1.304175496E+00               0
GRID*               1866               01.1809911229E+004.0172909823E+00+
*       -1.390105294E+00               0
GRID*               1867               01.1193787391E+004.0315398413E+00+
*       -1.301978634E+00               0
GRID*               1868               01.1700769164E+004.0304478732E+00+
*       -1.489130066E+00               0
GRID*               1869               01.2900231134E+005.1596336354E+00+
*       -1.449843220E+00               0
GRID*               1870               01.3339860092E+005.2812485684E+00+
*       -1.472289673E+00               0
GRID*               1871               01.2547490597E+005.1699681282E+00+
*       -1.535024643E+00               0
GRID*               1872               01.2245061647E+005.2781004895E+00+
*       -1.460394195E+00               0
GRID*               1873               01.2987119555E+005.2915830612E+00+
*       -1.557471097E+00               0
GRID*               1874               01.5631423466E+005.4555310071E+00+
*       -1.725147502E+00               0
GRID*               1875               01.6102142866E+005.4094237931E+00+
*       -1.641735882E+00               0
GRID*               1876               01.4670697147E+004.9119584068E+00+
*       -1.739328560E+00               0
GRID*               1877               01.2206585407E+005.4031972885E+00+
*       -1.592010796E+00               0
GRID*               1878               01.2518821359E+005.3139412403E+00+
*       -1.667889714E+00               0
GRID*               1879               01.1424022913E+005.3107931614E+00+
*       -1.655994236E+00               0
GRID*               1880               01.1738287210E+005.4255554676E+00+
*       -1.702429414E+00               0
GRID*               1881               06.5993259283E-012.9006813702E+00+
*       -1.463794736E+00               0
GRID*               1882               07.7706887890E-012.8534571563E+00+
*       -1.458978528E+00               0
GRID*               1883               07.6182263062E-012.9853064417E+00+
*       -1.353642404E+00               0
GRID*               1884               07.2025391358E-012.8975110587E+00+
*       -1.326201168E+00               0
GRID*               1885               08.3739019964E-012.8502868448E+00+
*       -1.321384961E+00               0
GRID*               1886               01.2705813537E+003.1998710240E+00+
*       -2.005061548E+00               0
GRID*               1887               09.0649570983E-013.1011352104E+00+
*       -1.287038941E+00               0
GRID*               1888               08.4617438909E-013.1043055219E+00+
*       -1.424632508E+00               0
GRID*               1889               07.7157052585E-013.1389371122E+00+
*       -1.436459842E+00               0
GRID*               1890               08.3189184659E-013.1357668007E+00+
*       -1.298866275E+00               0
GRID*               1891               01.0053418874E+003.0577011270E+00+
*       -1.450176794E+00               0
GRID*               1892               01.2616440718E+002.9623821054E+00+
*       -1.352058709E+00               0
GRID*               1893               01.1834972661E+002.8064909374E+00+
*       -1.320974848E+00               0
GRID*               1894               01.3180059298E+002.8745203978E+00+
*       -1.456866168E+00               0
GRID*               1895               01.3109180499E+002.8319126408E+00+
*       -1.320856296E+00               0
GRID*               1896               09.3623637725E-012.8068527614E+00+
*       -1.484522814E+00               0
GRID*               1897               01.0918839465E+002.8657789092E+00+
*       -1.320974848E+00               0
GRID*               1898               01.1700307523E+003.0216700773E+00+
*       -1.352058709E+00               0
GRID*               1899               01.0750025511E+003.0562918186E+00+
*       -1.486686692E+00               0
GRID*               1900               01.4973982057E+004.3816144804E+00+
*       -1.716935972E+00               0
GRID*               1901               01.3568838239E+004.5368077755E+00+
*       -1.541595280E+00               0
GRID*               1902               01.4548447213E+004.5071926454E+00+
*       -1.777626911E+00               0
GRID*               1903               01.5454143341E+004.6149957961E+00+
*       -1.583830275E+00               0
GRID*               1904               01.4795050457E+004.6231701849E+00+
*       -1.517748150E+00               0
GRID*               1905               01.3644919166E+007.3612702453E+00+
*       -1.678847404E+00               0
GRID*               1906               01.3003701338E+007.2988870704E+00+
*       -1.637302132E+00               0
GRID*               1907               01.3974877418E+007.2907711335E+00+
*       -1.635816536E+00               0
GRID*               1908               01.4582529664E+007.1658821106E+00+
*       -1.839833617E+00               0
GRID*               1909               01.7340038639E+007.3440117425E+00+
*       -1.774483237E+00               0
GRID*               1910               01.7613297325E+007.4452905244E+00+
*       -1.831208620E+00               0
GRID*               1911               01.2436833152E+007.3966584766E+00+
*       -1.669119389E+00               0
GRID*               1912               01.0716152346E+006.7674903489E+00+
*       -1.728304966E+00               0
GRID*               1913               01.4208501577E+007.0886957645E+00+
*       -1.858761013E+00               0
GRID*               1914               01.4765965126E+007.1325385036E+00+
*       -1.531411638E+00               0
GRID*               1915               01.3552245281E+007.1342882575E+00+
*       -1.580365886E+00               0
GRID*               1916               01.4340141053E+007.0525359804E+00+
*       -1.508525010E+00               0
GRID*               1917               01.4651205323E+007.2070373954E+00+
*       -1.596788515E+00               0
GRID*               1918               01.3585125587E+007.2179052295E+00+
*       -1.596732308E+00               0
GRID*               1919               01.6353297830E+001.0174523830E+01+
*       -3.001937270E+00               0
GRID*               1920               01.7222123444E+001.0010456324E+01+
*       -3.024575710E+00               0
GRID*               1921               01.3865585800E+009.6532761717E+00+
*       -3.093091841E+00               0
GRID*               1922               01.0171052479E+006.6865838842E+00+
*       -1.699490464E+00               0
GRID*               1923               01.0952995085E+006.6669076757E+00+
*       -1.757074154E+00               0
GRID*               1924               01.4692823609E+006.7312879645E+00+
*       -1.488388437E+00               0
GRID*               1925               01.3263199309E+006.7759049348E+00+
*       -1.474402315E+00               0
GRID*               1926               01.2375317196E+006.6889145784E+00+
*       -1.470521695E+00               0
GRID*               1927               01.2080275416E+006.6754610538E+00+
*       -1.638697922E+00               0
GRID*               1928               01.1792544071E+005.1901018765E+00+
*       -1.458871529E+00               0
GRID*               1929               01.2447713558E+005.0716350224E+00+
*       -1.448320553E+00               0
GRID*               1930               01.1417226140E+005.1016149666E+00+
*       -1.505181060E+00               0
GRID*               1931               01.1839632336E+005.0123427059E+00+
*       -1.463473723E+00               0
GRID*               1932               01.4274169619E+005.2909764106E+00+
*       -1.487833403E+00               0
GRID*               1933               01.0855357051E+005.3885111809E+00+
*       -1.621147454E+00               0
GRID*               1934               01.2685012787E+005.3656765958E+00+
*       -1.465062869E+00               0
GRID*               1935               01.1739077204E+005.3577833423E+00+
*       -1.463064718E+00               0
GRID*               1936               01.2053341502E+005.4725456485E+00+
*       -1.509499895E+00               0
GRID*               1937               01.3289109252E+005.3641568531E+00+
*       -1.741345839E+00               0
GRID*               1938               01.1726012609E+005.3833669532E+00+
*       -1.839868979E+00               0
GRID*               1939               01.2329249382E+005.1656920910E+00+
*       -1.651918471E+00               0
GRID*               1940               01.0702113145E+005.4578595409E+00+
*       -1.538636553E+00               0
GRID*               1941               01.0806226701E+005.3492856928E+00+
*       -1.483649863E+00               0
GRID*               1942               09.0612083673E-014.3454298973E+00+
*       -1.996512175E+00               0
GRID*               1943               01.0314870179E+004.3876287937E+00+
*       -2.018347859E+00               0
GRID*               1944               09.5434501767E-014.2002139091E+00+
*       -1.811600029E+00               0
GRID*               1945               09.6806168556E-014.2487981319E+00+
*       -1.733195484E+00               0
GRID*               1946               06.2373375893E-014.2457103729E+00+
*       -1.764243007E+00               0
GRID*               1947               06.9585511093E-014.1661545226E+00+
*       -1.975578845E+00               0
GRID*               1948               01.5521173991E+005.9326744936E+00+
*       -1.714938697E+00               0
GRID*               1949               01.4867305674E+005.9005633257E+00+
*       -1.808875141E+00               0
GRID*               1950               01.5201675277E+006.0434075213E+00+
*       -1.728574065E+00               0
GRID*               1951               01.4598688771E+005.7401943999E+00+
*       -1.505005117E+00               0
GRID*               1952               01.4065627147E+005.8700538474E+00+
*       -1.477030451E+00               0
GRID*               1953               01.3669294275E+005.7347967781E+00+
*       -1.484776206E+00               0
GRID*               1954               01.2590594563E+005.8149330183E+00+
*       -1.758428628E+00               0
GRID*               1955               01.4174964520E+005.8346183134E+00+
*       -1.830774876E+00               0
GRID*               1956               01.5604480488E+008.2398012987E+00+
*       -2.183282171E+00               0
GRID*               1957               01.3109296189E+008.4236477300E+00+
*       -2.360547568E+00               0
GRID*               1958               01.1332768746E+006.4643322438E+00+
*       -1.773874362E+00               0
GRID*               1959               01.1062820815E+006.5601419287E+00+
*       -1.747266806E+00               0
GRID*               1960               09.8887861742E-016.4278500502E+00+
*       -1.664562490E+00               0
GRID*               1961               09.6188382433E-016.5236597351E+00+
*       -1.637954934E+00               0
GRID*               1962               01.4105154842E+006.8379189117E+00+
*       -1.476066107E+00               0
GRID*               1963               01.4925609201E+006.9605199439E+00+
*       -1.501278574E+00               0
GRID*               1964               01.4479135871E+006.7792706490E+00+
*       -1.604381442E+00               0
GRID*               1965               01.5299590230E+006.9018716812E+00+
*       -1.629593909E+00               0
GRID*               1966               01.0750516318E+006.6089688616E+00+
*       -1.657174087E+00               0
GRID*               1967               01.3109183311E+006.7853331566E+00+
*       -1.736231089E+00               0
GRID*               1968               01.3090989590E+006.8714787960E+00+
*       -1.687291205E+00               0
GRID*               1969               01.4930729836E+006.8256866081E+00+
*       -1.533888454E+00               0
GRID*               1970               01.3367635198E+006.9365102439E+00+
*       -1.815530374E+00               0
GRID*               1971               01.4105461240E+006.9608952999E+00+
*       -1.827575564E+00               0
GRID*               1972               01.3914820552E+006.8638634682E+00+
*       -1.811711371E+00               0
GRID*               1973               01.3142391689E+006.8018855186E+00+
*       -1.807861788E+00               0
GRID*               1974               01.2315962561E+006.7499522300E+00+
*       -1.810228688E+00               0
GRID*               1975               01.2929967063E+006.8729671717E+00+
*       -1.801005827E+00               0
GRID*               1976               01.5944538820E+007.0998604281E+00+
*       -1.784898617E+00               0
GRID*               1977               01.7663625928E+003.2541442240E+00+
*       -1.814291689E+00               0
GRID*               1978               01.7653588588E+003.4806193511E+00+
*       -1.462705381E+00               0
GRID*               1979               01.7434878325E+003.4293553805E+00+
*       -1.352299035E+00               0
GRID*               1980               01.7850387226E+003.8234444684E+00+
*       -1.554561219E+00               0
GRID*               1981               01.8062537791E+003.7177489217E+00+
*       -1.650034077E+00               0
GRID*               1982               01.6472217026E+003.8500862193E+00+
*       -1.321260691E+00               0
GRID*               1983               01.6996544322E+004.0434295631E+00+
*       -1.317382019E+00               0
GRID*               1984               01.7995853019E+003.4630614374E+00+
*       -1.730030082E+00               0
GRID*               1985               01.8116772653E+003.5903233702E+00+
*       -1.739435024E+00               0
GRID*               1986               01.7710171195E+003.3933436001E+00+
*       -1.836966309E+00               0
GRID*               1987               01.6519610882E+003.4174252748E+00+
*       -1.791603267E+00               0
GRID*               1988               08.0397342470E-012.8367517091E+00+
*       -1.969641032E+00               0
GRID*               1989               01.1860951185E+005.1880502701E+00+
*       -1.762337089E+00               0
GRID*               1990               01.9004637986E+009.2555784867E+00+
*       -2.893750565E+00               0
GRID*               1991               09.5196170818E-016.3380760111E+00+
*       -1.692339517E+00               0
GRID*               1992               01.2086216221E+004.7527858647E+00+
*       -1.463246367E+00               0
GRID*               1993               01.1558130048E+004.8314688410E+00+
*       -1.468303766E+00               0
GRID*               1994               01.2553567505E+004.8400641724E+00+
*       -1.466787861E+00               0
GRID*               1995               01.2172290683E+004.8394889832E+00+
*       -1.557656884E+00               0
GRID*               1996               01.1372337006E+004.9248964990E+00+
*       -1.465426888E+00               0
GRID*               1997               01.2367774463E+004.9334918305E+00+
*       -1.463910983E+00               0
GRID*               1998               01.3101462297E+004.7590319731E+00+
*       -1.476820931E+00               0
GRID*               1999               01.1755326119E+005.6482286887E+00+
*       -1.773798233E+00               0
GRID*               2000               01.2608412829E+005.5798337893E+00+
*       -1.774187928E+00               0
GRID*               2001               09.8346058341E-015.8504961815E+00+
*       -1.525956588E+00               0
GRID*               2002               09.4152411926E-015.9322382739E+00+
*       -1.560110030E+00               0
GRID*               2003               09.1039200415E-015.8403621641E+00+
*       -1.584933032E+00               0
GRID*               2004               01.4623044133E+005.8326158524E+00+
*       -1.583395720E+00               0
GRID*               2005               01.5285823633E+005.8831964331E+00+
*       -1.504758711E+00               0
GRID*               2006               01.5503298321E+006.2400637242E+00+
*       -1.512983741E+00               0
GRID*               2007               01.5893667092E+006.3284661222E+00+
*       -1.525609340E+00               0
GRID*               2008               01.5574392822E+005.6429810531E+00+
*       -1.616545442E+00               0
GRID*               2009               01.6187421229E+005.5285060413E+00+
*       -1.644561473E+00               0
GRID*               2010               01.1654151450E+005.6288001103E+00+
*       -1.508768457E+00               0
GRID*               2011               01.1380957210E+007.2649365947E+00+
*       -1.721727155E+00               0
GRID*               2012               01.1131547554E+007.3171431956E+00+
*       -1.827068873E+00               0
GRID*               2013               01.2409881819E+006.9041796393E+00+
*       -1.525246499E+00               0
GRID*               2014               01.0664269914E+007.0612085609E+00+
*       -1.596693563E+00               0
GRID*               2015               01.0859901117E+007.1386735289E+00+
*       -1.606325177E+00               0
GRID*               2016               01.1626174883E+005.2793042443E+00+
*       -1.841566590E+00               0
GRID*               2017               01.0868537090E+005.0040211934E+00+
*       -1.479405320E+00               0
GRID*               2018               01.2117769122E+004.6254146099E+00+
*       -1.794101417E+00               0
GRID*               2019               01.2331725901E+004.9260777560E+00+
*       -1.840886046E+00               0
GRID*               2020               01.1400511871E+004.7272095116E+00+
*       -1.443542263E+00               0
GRID*               2021               09.3625316433E-014.8964299672E+00+
*       -1.514127701E+00               0
GRID*               2022               08.9791521840E-014.9936432355E+00+
*       -1.551591724E+00               0
GRID*               2023               08.1364043889E-014.9799159386E+00+
*       -1.629230316E+00               0
GRID*               2024               08.5197838482E-014.8827026703E+00+
*       -1.591766293E+00               0
GRID*               2025               01.0872425697E+004.8058924879E+00+
*       -1.448599663E+00               0
GRID*               2026               01.0738412290E+006.3699866747E+00+
*       -1.586817629E+00               0
GRID*               2027               01.1012757965E+006.3509327381E+00+
*       -1.751020570E+00               0
GRID*               2028               08.7974548072E-015.4262980644E+00+
*       -1.710942721E+00               0
GRID*               2029               08.8047694973E-015.5204092510E+00+
*       -1.660455604E+00               0
GRID*               2030               01.2024096356E+004.4414313382E+00+
*       -1.353574038E+00               0
GRID*               2031               09.9953061295E-014.4745485356E+00+
*       -1.433754561E+00               0
GRID*               2032               01.1202471848E+004.4628307393E+00+
*       -1.407360253E+00               0
GRID*               2033               09.1126847220E-014.4073807767E+00+
*       -1.418628392E+00               0
GRID*               2034               08.6962016664E-014.4603825482E+00+
*       -1.459493442E+00               0
GRID*               2035               01.0342238508E+004.9058942999E+00+
*       -1.486570205E+00               0
GRID*               2036               08.1266878371E-014.1410054980E+00+
*       -1.996512175E+00               0
GRID*               2037               08.7211425428E-014.0555112181E+00+
*       -1.996243179E+00               0
GRID*               2038               01.0738379489E+004.0447462105E+00+
*       -1.805158726E+00               0
GRID*               2039               01.0061867592E+004.0323818576E+00+
*       -1.532401053E+00               0
GRID*               2040               09.6810099270E-014.0258561803E+00+
*       -1.618461665E+00               0
GRID*               2041               09.1568819209E-014.0017259274E+00+
*       -1.532639004E+00               0
GRID*               2042               09.0728864074E-014.0807228088E+00+
*       -1.622920215E+00               0
GRID*               2043               01.0167965889E+004.1270997524E+00+
*       -1.605529070E+00               0
GRID*               2044               01.0448154904E+004.0308381644E+00+
*       -1.446371005E+00               0
GRID*               2045               01.0222592349E+004.3738793900E+00+
*       -1.337024508E+00               0
GRID*               2046               09.2856669915E-014.3409258631E+00+
*       -1.331737162E+00               0
GRID*               2047               01.0043357979E+004.3858742576E+00+
*       -1.269835053E+00               0
GRID*               2048               09.1064326211E-014.3529207306E+00+
*       -1.264547707E+00               0
GRID*               2049               01.3473534475E+003.2461187518E+00+
*       -2.005061548E+00               0
GRID*               2050               01.1596291661E+004.3577673435E+00+
*       -1.420763493E+00               0
GRID*               2051               01.1044216858E+004.3524799890E+00+
*       -1.283238292E+00               0
GRID*               2052               01.2262930976E+004.3701956815E+00+
*       -1.332979202E+00               0
GRID*               2053               09.9842891539E-014.9981903451E+00+
*       -1.816581789E+00               0
GRID*               2054               09.8384385921E-014.9850189943E+00+
*       -1.500548637E+00               0
GRID*               2055               01.0411613707E+004.7202889607E+00+
*       -1.454323290E+00               0
GRID*               2056               09.8814265173E-014.8202907727E+00+
*       -1.492293833E+00               0
GRID*               2057               01.2431563627E+005.0301404650E+00+
*       -1.839188435E+00               0
GRID*               2058               01.4856994916E+004.8272636746E+00+
*       -1.722709551E+00               0
GRID*               2059               01.5175211001E+004.7270062779E+00+
*       -1.698043897E+00               0
GRID*               2060               01.2331416011E+004.3307571411E+00+
*       -1.910746694E+00               0
GRID*               2061               01.4585428834E+004.2219254971E+00+
*       -1.797204852E+00               0
GRID*               2062               01.3565939069E+004.1794235706E+00+
*       -1.709452033E+00               0
GRID*               2063               01.5093801618E+004.2053356171E+00+
*       -1.668336213E+00               0
GRID*               2064               01.4618403316E+004.0556509495E+00+
*       -1.649294674E+00               0
GRID*               2065               01.4260945320E+004.1330454350E+00+
*       -1.584067702E+00               0
GRID*               2066               01.5669826084E+004.2131603777E+00+
*       -1.813230436E+00               0
GRID*               2067               01.5122840219E+004.1991299212E+00+
*       -1.902591150E+00               0
GRID*               2068               01.4803995305E+004.3071447432E+00+
*       -1.876872103E+00               0
GRID*               2069               01.3895092010E+004.2934887409E+00+
*       -1.526509404E+00               0
GRID*               2070               01.4875296354E+004.1693799496E+00+
*       -1.513374269E+00               0
GRID*               2071               01.6103557896E+004.1854115705E+00+
*       -1.646638758E+00               0
GRID*               2072               01.6090753969E+004.1863639645E+00+
*       -1.737064202E+00               0
GRID*               2073               01.3954356141E+002.8858372157E+00+
*       -1.967555333E+00               0
GRID*               2074               01.5134081390E+003.0005879096E+00+
*       -1.825346069E+00               0
GRID*               2075               01.5090201445E+002.9431727861E+00+
*       -1.967118220E+00               0
GRID*               2076               01.4465609273E+004.3982043604E+00+
*       -1.845804611E+00               0
GRID*               2077               01.3736236183E+004.5469989266E+00+
*       -1.813480346E+00               0
GRID*               2078               01.2446891157E+004.5237705197E+00+
*       -1.854518442E+00               0
GRID*               2079               01.3584828973E+003.0768513680E+00+
*       -1.640286565E+00               0
GRID*               2080               01.4118808233E+005.9212433067E+00+
*       -1.832023024E+00               0
GRID*               2081               08.7107265686E-013.9773270987E+00+
*       -1.822624669E+00               0
GRID*               2082               09.2927209233E-013.9992024801E+00+
*       -1.910339997E+00               0
GRID*               2083               07.5912584561E-014.3624593808E+00+
*       -1.804641114E+00               0
GRID*               2084               09.8267388344E-014.3519897461E+00+
*       -1.860406637E+00               0
GRID*               2085               09.1983750463E-014.3940141201E+00+
*       -1.918107629E+00               0
GRID*               2086               09.1193561422E-014.4769867251E+00+
*       -1.830612226E+00               0
GRID*               2087               01.0235851275E+004.4706013987E+00+
*       -1.930852457E+00               0
GRID*               2088               01.4674894429E+004.3216565463E+00+
*       -1.451064342E+00               0
GRID*               2089               01.4813847161E+004.2083063933E+00+
*       -1.361329370E+00               0
GRID*               2090               01.3833642817E+004.3324151847E+00+
*       -1.374464506E+00               0
GRID*               2091               01.3463256955E+004.1984639168E+00+
*       -1.596730471E+00               0
GRID*               2092               01.3373776946E+004.0212972019E+00+
*       -1.304175496E+00               0
GRID*               2093               01.3654580925E+003.9127796645E+00+
*       -1.301725826E+00               0
GRID*               2094               01.3944184743E+004.2450737600E+00+
*       -1.968447685E+00               0
GRID*               2095               01.5028581993E+004.2363086406E+00+
*       -1.984473269E+00               0
GRID*               2096               01.1610651742E+004.0131941342E+00+
*       -1.859943859E+00               0
GRID*               2097               01.7202647428E+003.2001522953E+00+
*       -1.922488749E+00               0
GRID*               2098               01.7356797198E+003.2765710371E+00+
*       -1.967851791E+00               0
GRID*               2099               01.4195718589E+004.0829190831E+00+
*       -1.319844067E+00               0
GRID*               2100               01.3995316663E+004.2351956798E+00+
*       -1.257534140E+00               0
GRID*               2101               01.5232754350E+004.0919854641E+00+
*       -1.578601241E+00               0
GRID*               2102               01.5885052633E+004.1494559031E+00+
*       -1.491676814E+00               0
GRID*               2103               01.1719480020E+004.4041958944E+00+
*       -1.969768577E+00               0
GRID*               2104               01.1901154978E+004.4751084940E+00+
*       -1.892728799E+00               0
GRID*               2105               01.1199490701E+004.3909489717E+00+
*       -2.018347859E+00               0
GRID*               2106               01.2300613027E+004.3566190918E+00+
*       -2.027469569E+00               0
GRID*               2107               08.3890437106E-013.9644956311E+00+
*       -1.990145669E+00               0
GRID*               2108               01.0992455205E+004.4168060148E+00+
*       -1.968078606E+00               0
GRID*               2109               08.3783082384E-014.3868948071E+00+
*       -1.871295127E+00               0
GRID*               2110               08.2411415595E-014.3383105843E+00+
*       -1.949699673E+00               0
GRID*               2111               01.1314481852E+004.0319915664E+00+
*       -1.575160113E+00               0
GRID*               2112               01.0544891713E+004.0445032966E+00+
*       -1.633096543E+00               0
GRID*               2113               01.1120250215E+004.0391826528E+00+
*       -1.718974786E+00               0
GRID*               2114               01.3507466817E+004.3171314156E+00+
*       -1.257534140E+00               0
GRID*               2115               01.2639786643E+005.9476119192E+00+
*       -1.457173482E+00               0
GRID*               2116               08.1610677924E-014.4473823909E+00+
*       -1.787787069E+00               0
GRID*               2117               07.1487602353E-013.8408300998E+00+
*       -1.302199389E+00               0
GRID*               2118               04.9477877088E-014.0149901521E+00+
*       -1.329345524E+00               0
GRID*               2119               04.5051747284E-013.9710617659E+00+
*       -1.439577004E+00               0
GRID*               2120               03.8094440284E-013.2100763290E+00+
*       -1.595600117E+00               0
GRID*               2121               05.0919430140E-013.0368608206E+00+
*       -1.572162080E+00               0
GRID*               2122               05.7325141132E-013.1616922617E+00+
*       -1.514674008E+00               0
GRID*               2123               04.5238406956E-013.4537416697E+00+
*       -1.668061674E+00               0
GRID*               2124               03.7268716957E-013.9418558830E+00+
*       -1.326280316E+00               0
GRID*               2125               03.1617099745E-013.6474647040E+00+
*       -1.627002918E+00               0
GRID*               2126               06.0194351552E-013.6613133851E+00+
*       -1.302325629E+00               0
GRID*               2127               03.2475374829E-013.3309700091E+00+
*       -1.595694942E+00               0
GRID*               2128               04.8912291229E-013.2956963778E+00+
*       -1.669786990E+00               0
GRID*               2129               04.2506580237E-013.1708649366E+00+
*       -1.727275062E+00               0
GRID*               2130               03.6887514781E-013.2917586167E+00+
*       -1.727369887E+00               0
GRID*               2131               01.1039561212E+002.8771654577E+00+
*       -1.852256714E+00               0
GRID*               2132               01.0424995124E+002.8942826986E+00+
*       -1.962379754E+00               0
GRID*               2133               06.1480895162E-013.8035344757E+00+
*       -1.396311249E+00               0
GRID*               2134               06.3976544620E-013.7492369859E+00+
*       -1.302199389E+00               0
GRID*               2135               09.9873272367E-012.7905467732E+00+
*       -1.592783156E+00               0
GRID*               2136               08.3956522532E-012.8371511681E+00+
*       -1.567238870E+00               0
GRID*               2137               07.9727841375E-013.1760353028E+00+
*       -1.904789788E+00               0
GRID*               2138               07.3347014795E-013.1789082971E+00+
*       -1.525495415E+00               0
GRID*               2139               03.1385668320E-013.5837566370E+00+
*       -1.725678229E+00               0
GRID*               2140               03.3213630508E-013.4498039086E+00+
*       -1.725644571E+00               0
GRID*               2141               04.3835190990E-013.6640509595E+00+
*       -1.937030077E+00               0
GRID*               2142               03.0647412641E-013.4649227375E+00+
*       -1.595728600E+00               0
GRID*               2143               06.7924428227E-013.3448497226E+00+
*       -1.990935167E+00               0
GRID*               2144               03.0429805659E-013.7437689565E+00+
*       -1.971958943E+00               0
GRID*               2145               01.1994503736E+003.1111527681E+00+
*       -1.459558710E+00               0
GRID*               2146               05.7900313730E-013.4069573706E+00+
*       -1.637516989E+00               0
GRID*               2147               06.2312453683E-013.3677459782E+00+
*       -1.769191934E+00               0
GRID*               2148               05.8638569410E-013.5257912701E+00+
*       -1.767466618E+00               0
GRID*               2149               01.4842801658E+003.4186855861E+00+
*       -1.523714093E+00               0
GRID*               2150               01.4394441948E+003.2560127979E+00+
*       -1.427254607E+00               0
GRID*               2151               01.4152994867E+003.2972543893E+00+
*       -1.304546882E+00               0
GRID*               2152               01.4622847543E+003.3859320884E+00+
*       -1.440797080E+00               0
GRID*               2153               01.7155344722E+003.2215524911E+00+
*       -1.444792387E+00               0
GRID*               2154               01.6536896455E+003.1079805895E+00+
*       -1.443406044E+00               0
GRID*               2155               01.8021293282E+003.3056984124E+00+
*       -1.322084663E+00               0
GRID*               2156               01.7402845015E+003.1921265109E+00+
*       -1.320698319E+00               0
GRID*               2157               01.4025943601E+003.2225571246E+00+
*       -1.507873519E+00               0
GRID*               2158               01.3096853600E+003.1744141584E+00+
*       -1.440556754E+00               0
GRID*               2159               01.6059089184E+003.0756000080E+00+
*       -1.338756561E+00               0
GRID*               2160               01.5400417722E+003.5192505456E+00+
*       -1.773324334E+00               0
GRID*               2161               01.5768929604E+002.9913980248E+00+
*       -1.967118220E+00               0
GRID*               2162               01.3990131056E+002.8818333316E+00+
*       -1.320856296E+00               0
GRID*               2163               01.1884685085E+003.0978437467E+00+
*       -1.962379754E+00               0
GRID*               2164               01.2054572032E+003.1754226489E+00+
*       -1.968548849E+00               0
GRID*               2165               06.0522024940E-013.3521238055E+00+
*       -1.548933451E+00               0
GRID*               2166               06.7419057998E-014.2622132233E+00+
*       -1.334014190E+00               0
GRID*               2167               05.7168916209E-014.1840073561E+00+
*       -1.326020000E+00               0
GRID*               2168               01.7703348280E+003.5260239060E+00+
*       -1.576570696E+00               0
GRID*               2169               01.8241398813E+003.6705874617E+00+
*       -1.545532353E+00               0
GRID*               2170               01.8191639121E+003.6251829068E+00+
*       -1.431667037E+00               0
GRID*               2171               01.8527394950E+003.5697689228E+00+
*       -1.326455183E+00               0
GRID*               2172               01.4050415798E+008.9521476154E+00+
*       -2.777230003E+00               0
GRID*               2173               01.7371900228E+008.5802018777E+00+
*       -2.406841056E+00               0
GRID*               2174               01.3302563566E+008.7293716919E+00+
*       -2.598076943E+00               0
GRID*               2175               01.4884274466E+001.1015988765E+01+
*       -3.155616216E+00               0
GRID*               2176               01.5724927979E+001.1069744552E+01+
*       -3.148563325E+00               0
GRID*               2177               01.3849706270E+001.1152659427E+01+
*       -3.058412711E+00               0
GRID*               2178               01.2790571717E+001.0868633395E+01+
*       -3.280252099E+00               0
GRID*               2179               01.2772837886E+001.0926431123E+01+
*       -3.192614297E+00               0
GRID*               2180               01.2959395920E+001.0966199637E+01+
*       -3.280252099E+00               0
GRID*               2181               01.3318458246E+001.1040649161E+01+
*       -2.912744045E+00               0
GRID*               2182               01.7972267612E+008.5914945506E+00+
*       -2.482368516E+00               0
GRID*               2183               01.7395884843E+008.6677018706E+00+
*       -2.456310238E+00               0
GRID*               2184               01.2579984295E+008.8131480473E+00+
*       -2.596502804E+00               0
GRID*               2185               01.3785231537E+003.8925462316E+00+
*       -1.816787036E+00               0
GRID*               2186               01.3284537581E+003.9302604617E+00+
*       -1.989861580E+00               0
GRID*               2187               01.8045640424E+003.7682716743E+00+
*       -1.872985625E+00               0
GRID*               2188               01.8305358548E+003.7754329718E+00+
*       -1.972750628E+00               0
GRID*               2189               01.8028817013E+003.6268229381E+00+
*       -1.841865146E+00               0
GRID*               2190               01.8407030106E+003.6813545850E+00+
*       -1.972750628E+00               0
GRID*               2191               01.6152731776E+003.4923251867E+00+
*       -1.651413560E+00               0
GRID*               2192               01.4986993349E+003.4549510814E+00+
*       -1.610460006E+00               0
GRID*               2193               01.6405129227E+001.1132841172E+01+
*       -3.283481300E+00               0
GRID*               2194               01.5759307869E+001.1289174187E+01+
*       -3.282612149E+00               0
GRID*               2195               01.5666866606E+001.1177908489E+01+
*       -3.187034404E+00               0
GRID*               2196               01.7460618794E+001.1130719569E+01+
*       -3.283481300E+00               0
GRID*               2197               01.5564475714E+001.1079085386E+01+
*       -3.290534190E+00               0
GRID*               2198               01.3113478888E+006.8470855422E+00+
*       -1.478166936E+00               0
GRID*               2199               01.1497150591E+007.3910403800E+00+
*       -1.693789932E+00               0
GRID*               2200               01.2064018777E+007.2932689738E+00+
*       -1.661972674E+00               0
GRID*               2201               01.6969440029E+003.3567934003E+00+
*       -1.922488749E+00               0
GRID*               2202               01.8160000343E+003.3327117255E+00+
*       -1.967851791E+00               0
GRID*               2203               02.1156451750E+001.1099777159E+01+
*       -3.282644888E+00               0
GRID*               2204               01.6442129567E+008.1863367952E+00+
*       -2.163040953E+00               0
GRID*               2205               01.8231139384E+001.1303772456E+01+
*       -3.172123186E+00               0
GRID*               2206               02.0225934678E+001.1107184671E+01+
*       -3.176119012E+00               0
GRID*               2207               01.8795800692E+001.1101460888E+01+
*       -3.161813162E+00               0
GRID*               2208               01.7883187728E+001.1138391460E+01+
*       -3.172771513E+00               0
GRID*               2209               01.8198653905E+001.1136556667E+01+
*       -3.076453010E+00               0
GRID*               2210               01.7248473604E+008.2092024528E+00+
*       -2.212853971E+00               0
GRID*               2211               01.4853756004E+001.1001270395E+01+
*       -3.290534190E+00               0
GRID*               2212               01.5420678005E+005.7444258013E+00+
*       -1.558008808E+00               0
GRID*               2213               01.6334476535E+007.7417008548E+00+
*       -1.907110274E+00               0
GRID*               2214               07.7565593507E-014.7276889402E+00+
*       -1.627492878E+00               0
GRID*               2215               01.2805073861E+008.9871008236E+00+
*       -2.706870414E+00               0
GRID*               2216               01.2766936901E+008.8349184661E+00+
*       -2.724415699E+00               0
GRID*               2217               01.2874434638E+007.7459871579E+00+
*       -2.140072660E+00               0
GRID*               2218               01.3008483137E+009.0673782929E+00+
*       -2.761698965E+00               0
GRID*               2219               01.3023429263E+009.1585844146E+00+
*       -2.820221412E+00               0
GRID*               2220               01.0734243020E+004.9440813238E+00+
*       -1.841668188E+00               0
GRID*               2221               01.5089628025E+001.0664256673E+01+
*       -2.902766466E+00               0
GRID*               2222               01.2153913372E+007.8170714359E+00+
*       -2.141208542E+00               0
GRID*               2223               01.7082596740E+007.7558522645E+00+
*       -1.947523458E+00               0
GRID*               2224               07.5816908439E-013.2798103576E+00+
*       -1.990935167E+00               0
GRID*               2225               07.4415696759E-013.1210291828E+00+
*       -1.993282557E+00               0
GRID*               2226               01.2147125773E+008.2192256145E+00+
*       -2.229333670E+00               0
GRID*               2227               01.1907958914E+008.2183282103E+00+
*       -2.315535984E+00               0
GRID*               2228               01.1158477936E+006.2862322036E+00+
*       -1.556815160E+00               0
GRID*               2229               09.5184959759E-015.6914812055E+00+
*       -1.599180509E+00               0
GRID*               2230               01.0249181769E+005.7016152229E+00+
*       -1.540204065E+00               0
GRID*               2231               01.2272829441E+007.9030923048E+00+
*       -2.191753283E+00               0
GRID*               2232               01.2732222496E+003.0642147050E+00+
*       -1.352058709E+00               0
GRID*               2233               01.7682488275E+008.9243389866E+00+
*       -2.609621036E+00               0
GRID*               2234               01.8293345341E+008.8501303744E+00+
*       -2.634927221E+00               0
GRID*               2235               01.2892013192E+003.1830142736E+00+
*       -1.826776698E+00               0
GRID*               2236               01.2470369556E+006.1007360112E+00+
*       -1.747332616E+00               0
GRID*               2237               09.4739759791E-016.0960893942E+00+
*       -1.680006780E+00               0
GRID*               2238               09.8424375700E-015.6119832019E+00+
*       -1.556725849E+00               0
GRID*               2239               09.3029111437E-015.6034902580E+00+
*       -1.630929251E+00               0
GRID*               2240               01.4834039129E+005.7896724604E+00+
*       -1.715185103E+00               0
GRID*               2241               01.5555855405E+005.7601231570E+00+
*       -1.653005527E+00               0
GRID*               2242               01.0848262190E+005.3339049704E+00+
*       -1.833547943E+00               0
GRID*               2243               09.3442959236E-015.5289021949E+00+
*       -1.586252202E+00               0
GRID*               2244               01.2193034319E+007.9917852083E+00+
*       -2.241903201E+00               0
GRID*               2245               01.6859521094E+003.8466834209E+00+
*       -1.976283848E+00               0
GRID*               2246               09.5053111191E-015.6734971098E+00+
*       -1.685106792E+00               0
GRID*               2247               01.0464370335E+004.7207284377E+00+
*       -1.840377202E+00               0
GRID*               2248               01.0743320669E+004.8575444625E+00+
*       -1.844535103E+00               0
GRID*               2249               01.0712893270E+005.6210408924E+00+
*       -1.519896194E+00               0
GRID*               2250               04.8011410149E-014.1052905494E+00+
*       -1.888326844E+00               0
GRID*               2251               01.1723527114E+004.0180547312E+00+
*       -1.990070871E+00               0
GRID*               2252               01.4883927442E+003.6746821804E+00+
*       -1.990491908E+00               0
GRID*               2253               01.3451722860E+004.3568768501E+00+
*       -1.968447685E+00               0
GRID*               2254               01.4347875868E+004.2692678434E+00+
*       -2.035940348E+00               0
GRID*               2255               01.6857139817E+004.0967615103E+00+
*       -1.700485984E+00               0
GRID*               2256               01.3060273963E+004.7335795255E+00+
*       -1.846718710E+00               0
GRID*               2257               01.3258076397E+004.6617555107E+00+
*       -1.842052548E+00               0
GRID*               2258               01.2313276529E+004.6822402477E+00+
*       -1.854270756E+00               0
GRID*               2259               01.0244029401E+004.0203680769E+00+
*       -1.302094008E+00               0
GRID*               2260               01.3588166644E+005.9540697719E+00+
*       -1.463307403E+00               0
GRID*               2261               01.5628801060E+006.1126804610E+00+
*       -1.696189154E+00               0
GRID*               2262               01.5501886329E+005.2047985887E+00+
*       -1.568656912E+00               0
GRID*               2263               01.5483243063E+004.1752571172E+00+
*       -1.414187898E+00               0
GRID*               2264               01.6617427270E+006.3337342375E+00+
*       -1.577681442E+00               0
GRID*               2265               01.1565979980E+005.5526459930E+00+
*       -1.520285889E+00               0
GRID*               2266               01.5132762282E+004.0755326410E+00+
*       -1.319844067E+00               0
GRID*               2267               01.4932360357E+004.2278092378E+00+
*       -1.257534140E+00               0
GRID*               2268               02.1213472504E+001.0843069002E+01+
*       -3.284229350E+00               0
GRID*               2269               02.1885468002E+001.0916225458E+01+
*       -3.284229350E+00               0
GRID*               2270               01.5191064402E+001.0646585088E+01+
*       -3.287081718E+00               0
GRID*               2271               01.6429754421E+001.0560965638E+01+
*       -3.309276819E+00               0
GRID*               2272               02.0423614132E+001.0837986114E+01+
*       -2.951629637E+00               0
GRID*               2273               02.0283826672E+001.0917031327E+01+
*       -2.896464728E+00               0
GRID*               2274               02.1822991673E+001.1023919962E+01+
*       -3.115002965E+00               0
GRID*               2275               02.1029735385E+001.0742082544E+01+
*       -3.287553164E+00               0
GRID*               2276               01.9898610371E+001.0396326667E+01+
*       -3.134507807E+00               0
GRID*               2277               02.0371617096E+001.0458544356E+01+
*       -3.084837335E+00               0
GRID*               2278               02.0108777338E+001.0414596636E+01+
*       -3.057053695E+00               0
GRID*               2279               01.5191207172E+001.0657890221E+01+
*       -3.048875812E+00               0
GRID*               2280               01.4844271373E+001.0384837762E+01+
*       -3.131624270E+00               0
GRID*               2281               01.4630739035E+001.0442232327E+01+
*       -3.149507926E+00               0
GRID*               2282               01.4340910316E+001.0442314148E+01+
*       -3.069966435E+00               0
GRID*               2283               02.1690390650E+001.1015242586E+01+
*       -3.283110713E+00               0
GRID*               2284               01.5549877715E+001.0381021157E+01+
*       -3.234903741E+00               0
GRID*               2285               01.5958412122E+001.0271791592E+01+
*       -3.166238713E+00               0
GRID*               2286               02.0793487495E+001.0545725984E+01+
*       -3.300121771E+00               0
GRID*               2287               02.0654924817E+001.0487938676E+01+
*       -3.147098529E+00               0
GRID*               2288               01.8507285118E+001.0390114784E+01+
*       -3.215448380E+00               0
GRID*               2289               01.8193664612E+001.0478400929E+01+
*       -3.222054005E+00               0
GRID*               2290               01.8196959557E+001.0582133039E+01+
*       -3.285215497E+00               0
GRID*               2291               01.9075624730E+001.0442962775E+01+
*       -3.319740752E+00               0
GRID*               2292               01.5560621199E+001.0193469795E+01+
*       -3.010843982E+00               0
GRID*               2293               01.6408332763E+001.0247226509E+01+
*       -3.017126193E+00               0
GRID*               2294               01.4840785870E+001.0289475369E+01+
*       -3.081190147E+00               0
GRID*               2295               01.1601340311E+006.3732420841E+00+
*       -1.546167013E+00               0
GRID*               2296               01.4958979017E+003.5185770030E+00+
*       -1.301172010E+00               0
GRID*               2297               01.4808363129E+005.9672123576E+00+
*       -1.491035662E+00               0
GRID*               2298               01.8137653453E+001.1203660430E+01+
*       -3.268339038E+00               0
GRID*               2299               01.7808570450E+001.1296100565E+01+
*       -3.282832973E+00               0
GRID*               2300               02.1666177034E+001.0726902774E+01+
*       -2.913496509E+00               0
GRID*               2301               02.2078197994E+001.0819689706E+01+
*       -2.913496509E+00               0
GRID*               2302               02.1025014163E+001.0985451805E+01+
*       -3.210941076E+00               0
GRID*               2303               01.5616744032E+006.5376554797E+00+
*       -1.557203331E+00               0
GRID*               2304               01.6181443629E+006.5369890052E+00+
*       -1.627381444E+00               0
GRID*               2305               01.2694924408E+001.0850230720E+01+
*       -2.914570967E+00               0
GRID*               2306               01.2919090773E+001.0948053111E+01+
*       -2.912744045E+00               0
GRID*               2307               01.3863190538E+001.1122207064E+01+
*       -2.911830703E+00               0
GRID*               2308               01.7544418025E+001.1133144329E+01+
*       -2.905662814E+00               0
GRID*               2309               01.6814797437E+001.1287052584E+01+
*       -3.282612149E+00               0
GRID*               2310               02.1180851938E+001.1095496537E+01+
*       -2.911647058E+00               0
GRID*               2311               01.4350750292E+001.1205394124E+01+
*       -2.911830703E+00               0
GRID*               2312               01.4523641331E+001.0926503120E+01+
*       -3.198343090E+00               0
GRID*               2313               01.8524188790E+009.0771883064E+00+
*       -2.772771318E+00               0
GRID*               2314               09.0907351847E-015.8223780684E+00+
*       -1.670859314E+00               0
GRID*               2315               09.9031297395E-016.6930768778E+00+
*       -1.607086616E+00               0
GRID*               2316               01.0242659253E+006.7730671738E+00+
*       -1.572309185E+00               0
GRID*               2317               01.1534354578E+004.9874122793E+00+
*       -1.846808591E+00               0
GRID*               2318               01.2025061966E+006.6175233553E+00+
*       -1.472972527E+00               0
GRID*               2319               01.4754438010E+006.5329982217E+00+
*       -1.524121706E+00               0
GRID*               2320               01.4940332595E+003.4405545890E+00+
*       -1.352299035E+00               0
GRID*               2321               01.3141756579E+003.2336390010E+00+
*       -1.304546882E+00               0
GRID*               2322               01.0214751624E+005.5379598854E+00+
*       -1.549422547E+00               0
GRID*               2323               01.6273655166E+006.4163571666E+00+
*       -1.542649903E+00               0
GRID*               2324               09.2834020761E-016.1686697205E+00+
*       -1.610973354E+00               0
GRID*               2325               01.5601756259E+004.1947599616E+00+
*       -1.310392668E+00               0
GRID*               2326               01.7873846585E+009.4849992825E+00+
*       -2.942492629E+00               0
GRID*               2327               08.2675929921E-013.2084206963E+00+
*       -1.987556082E+00               0
GRID*               2328               01.4844647773E+001.0471489195E+01+
*       -3.322559402E+00               0
GRID*               2329               01.5146569355E+009.6720375527E+00+
*       -2.981421945E+00               0
GRID*               2330               01.9414135892E+001.1074577212E+01+
*       -3.272522949E+00               0
GRID*               2331               01.9961896069E+001.0984181942E+01+
*       -3.272522949E+00               0
GRID*               2332               01.4192089937E+001.0330154251E+01+
*       -3.110122379E+00               0
GRID*               2333               01.5294192014E+001.0360272678E+01+
*       -2.982511749E+00               0
GRID*               2334               01.3927901944E+009.0749417260E+00+
*       -2.731581090E+00               0
GRID*               2335               01.8096083186E+009.1971353842E+00+
*       -2.853858788E+00               0
GRID*               2336               01.8618328498E+009.1151254504E+00+
*       -2.909653346E+00               0
GRID*               2337               01.7803877194E+009.1119991396E+00+
*       -2.831972417E+00               0
GRID*               2338               01.3656257391E+004.3647243977E+00+
*       -1.547104239E+00               0
GRID*               2339               01.4097655358E+001.0524035172E+01+
*       -3.230592296E+00               0
GRID*               2340               01.6557669269E+004.0994375036E+00+
*       -1.317382019E+00               0
GRID*               2341               01.5336345377E+001.0438415722E+01+
*       -3.252787397E+00               0
GRID*               2342               01.8189185500E+001.0238833540E+01+
*       -3.023770285E+00               0
GRID*               2343               01.8573306441E+001.0347377413E+01+
*       -3.005212498E+00               0
GRID*               2344               02.0202194915E+001.0891476278E+01+
*       -3.233129619E+00               0
GRID*               2345               01.3930918941E+001.0272393097E+01+
*       -3.099614679E+00               0
GRID*               2346               01.8497397304E+001.0389858246E+01+
*       -2.947159767E+00               0
GRID*               2347               01.9168608799E+001.0410799461E+01+
*       -2.999414057E+00               0
GRID*               2348               01.9788793266E+001.0446870537E+01+
*       -2.874908895E+00               0
GRID*               2349               01.8602356043E+001.1119004174E+01+
*       -3.268339038E+00               0
GRID*               2350               02.0477074707E+001.0471520233E+01+
*       -3.005404016E+00               0
GRID*               2351               01.9948602929E+001.0433359581E+01+
*       -3.003385634E+00               0
GRID*               2352               01.0047275731E+006.6069748796E+00+
*       -1.617710147E+00               0
GRID*               2353               01.4083178135E+007.0273553085E+00+
*       -1.834761887E+00               0
GRID*               2354               01.0563860381E+007.1948517844E+00+
*       -1.685941659E+00               0
GRID*               2355               09.1272082892E-013.1374783703E+00+
*       -1.987556082E+00               0
GRID*               2356               01.2039406715E+003.1703776107E+00+
*       -1.323548838E+00               0
GRID*               2357               01.3942848070E+009.1661478476E+00+
*       -2.790103538E+00               0
GRID*               2358               01.8957167788E+001.0174888003E+01+
*       -3.101339890E+00               0
GRID*               2359               01.2858152336E+004.3578196806E+00+
*       -1.270849592E+00               0
GRID*               2360               01.5539258025E+006.2158373979E+00+
*       -1.709566701E+00               0
GRID*               2361               01.4384561327E+001.0882605559E+01+
*       -3.286857724E+00               0
GRID*               2362               01.4001645081E+009.5092210395E+00+
*       -3.017697250E+00               0
GRID*               2363               01.5390045388E+009.5964812745E+00+
*       -2.975067732E+00               0
GRID*               2364               02.0805584956E+001.0567754993E+01+
*       -2.876927277E+00               0
GRID*               2365               02.0317265044E+001.0485031188E+01+
*       -2.876927277E+00               0
GRID*               2366               01.7680118419E+009.2798752349E+00+
*       -2.846118297E+00               0
GRID*               2367               01.5856854961E+005.4630903673E+00+
*       -1.578867888E+00               0
GRID*               2368               01.1174130163E+004.4877186143E+00+
*       -1.891038828E+00               0
GRID*               2369               01.4832891809E+001.0739524361E+01+
*       -2.923161207E+00               0
GRID*               2370               01.2869749282E+001.0741672586E+01+
*       -2.919680284E+00               0
GRID*               2371               01.5086685114E+007.1003794180E+00+
*       -1.810945278E+00               0
GRID*               2372               01.4365331315E+001.0824040396E+01+
*       -2.923161207E+00               0
GRID*               2373               01.8507698155E+001.1131662890E+01+
*       -2.905662814E+00               0
GRID*               2374               01.3074022293E+009.5357625726E+00+
*       -3.010998156E+00               0
GRID*               2375               01.1676997946E+007.2087583391E+00+
*       -1.642110674E+00               0
GRID*                  1               01.0678308040E+003.5812919874E+00+
*       -1.646048844E+00               0
GRID*                  2               01.7397552786E+001.0850302644E+01+
*       -3.097548842E+00               0
GRID*               5333               09.6865063906E-014.4296531677E+00+
*       -2.076048851E+00               0
GRID*               4912               01.1455747435E+004.4362935236E+00+
*       -2.076048851E+00               0
GRID*               4913               01.2334520374E+004.4236937856E+00+
*       -2.076048851E+00               0
GRID*               4914               01.0568659180E+004.4397365083E+00+
*       -2.076048851E+00               0
GRID*               5334               01.3183847666E+004.3978438377E+00+
*       -2.076048851E+00               0
GRID*               4915               01.4933145645E+004.3269695165E+00+
*       -2.076048851E+00               0
GRID*               4916               01.6618318064E+004.2011577085E+00+
*       -2.076048851E+00               0
GRID*               4917               01.8067862939E+004.0183457517E+00+
*       -2.076048851E+00               0
GRID*               4918               01.8976157874E+003.8015798345E+00+
*       -2.076048851E+00               0
GRID*               4919               01.9262612491E+003.5683168263E+00+
*       -2.076048851E+00               0
GRID*               4920               01.8905651761E+003.3359788083E+00+
*       -2.076048851E+00               0
GRID*               4921               01.7932229241E+003.1220786919E+00+
*       -2.076048851E+00               0
GRID*               4922               01.6414664123E+002.9425324739E+00+
*       -2.076048851E+00               0
GRID*               4923               01.4467805992E+002.8109230432E+00+
*       -2.076048851E+00               0
GRID*               4924               01.2235965506E+002.7370119246E+00+
*       -2.076048851E+00               0
GRID*               4925               01.9199591530E+003.6859256760E+00+
*       -2.076048851E+00               0
GRID*               4926               01.9164050265E+003.4509414487E+00+
*       -2.076048851E+00               0
GRID*               4927               01.4086071026E+004.3692915258E+00+
*       -2.076048851E+00               0
GRID*               4928               01.7405630072E+004.1146788485E+00+
*       -2.076048851E+00               0
GRID*               4929               01.5814211404E+004.2692573666E+00+
*       -2.076048851E+00               0
GRID*               4930               01.8596504691E+003.9130941195E+00+
*       -2.076048851E+00               0
GRID*               4931               01.7235180258E+003.0270862543E+00+
*       -2.076048851E+00               0
GRID*               4932               01.8492437407E+003.2256725833E+00+
*       -2.076048851E+00               0
GRID*               4933               01.5486521253E+002.8700380251E+00+
*       -2.076048851E+00               0
GRID*               4934               01.3376999966E+002.7662813219E+00+
*       -2.076048851E+00               0
GRID*               4935               01.1066020560E+002.7236389134E+00+
*       -2.076048851E+00               0
GRID*               5229               01.4526980305E+004.3642980293E+00+
*       -1.995831846E+00               0
GRID*               5230               01.5888392554E+004.2983796239E+00+
*       -1.892897687E+00               0
GRID*               5231               01.6730248325E+004.2447867974E+00+
*       -1.740565219E+00               0
GRID*               5232               01.6755856179E+004.2428820095E+00+
*       -1.559714330E+00               0
GRID*               5233               01.5952237040E+004.2944844378E+00+
*       -1.404736499E+00               0
GRID*               5234               01.4613445236E+004.3605829900E+00+
*       -1.299019443E+00               0
GRID*               5235               01.3722260134E+004.3927511738E+00+
*       -2.029744809E+00               0
GRID*               5236               01.6392940623E+004.2675688433E+00+
*       -1.822726025E+00               0
GRID*               5237               01.5207686430E+004.3313388266E+00+
*       -1.944364766E+00               0
GRID*               5238               01.3813625499E+004.3892578873E+00+
*       -1.264343053E+00               0
GRID*               5239               01.5333040903E+004.3279464434E+00+
*       -1.345790418E+00               0
GRID*               5240               01.6440028039E+004.2643182267E+00+
*       -1.476352366E+00               0
GRID*               5241               01.6860307850E+004.2353732936E+00+
*       -1.650385192E+00               0
GRID*               5336               09.6079003811E-014.4287810326E+00+
*       -1.216048837E+00               0
GRID*               4955               01.1472021553E+004.4361439837E+00+
*       -1.216048837E+00               0
GRID*               4956               01.2397219903E+004.4223777181E+00+
*       -1.216048837E+00               0
GRID*               4957               01.0537288195E+004.4396571143E+00+
*       -1.216048837E+00               0
GRID*               5242               06.4722732103E-014.3665436892E+00+
*       -1.849115821E+00               0
GRID*               5243               08.0463727749E-014.4154145418E+00+
*       -1.982423848E+00               0
GRID*               5244               08.8664395827E-014.4225338548E+00+
*       -2.029236349E+00               0
GRID*               5245               07.1851283597E-014.3919428490E+00+
*       -1.924138141E+00               0
GRID*               5246               05.9768066426E-014.3455172497E+00+
*       -1.757295825E+00               0
GRID*               5337               01.3290784359E+004.3945960999E+00+
*       -1.216048837E+00               0
GRID*               4958               01.5304593410E+004.3045112949E+00+
*       -1.216048837E+00               0
GRID*               4959               01.7161549373E+004.1440937578E+00+
*       -1.216048837E+00               0
GRID*               4960               01.8523540299E+003.9299954478E+00+
*       -1.216048837E+00               0
GRID*               4961               01.9200872778E+003.6848768283E+00+
*       -1.216048837E+00               0
GRID*               4962               01.9130449247E+003.4306850384E+00+
*       -1.216048837E+00               0
GRID*               4963               01.8318390147E+003.1896764102E+00+
*       -1.216048837E+00               0
GRID*               4964               01.6835682154E+002.9830128746E+00+
*       -1.216048837E+00               0
GRID*               4965               01.4813278890E+002.8289011399E+00+
*       -1.216048837E+00               0
GRID*               4966               01.2427036206E+002.7407616678E+00+
*       -1.216048837E+00               0
GRID*               4967               01.6290478431E+004.2309886463E+00+
*       -1.216048837E+00               0
GRID*               4968               01.4334923358E+004.3580561847E+00+
*       -1.216048837E+00               0
GRID*               4969               01.1163257762E+002.7241337390E+00+
*       -1.216048837E+00               0
GRID*               4970               01.7922154080E+004.0420938332E+00+
*       -1.216048837E+00               0
GRID*               4971               01.8953463514E+003.8099574206E+00+
*       -1.216048837E+00               0
GRID*               4972               01.3652844328E+002.7759401494E+00+
*       -1.216048837E+00               0
GRID*               4973               01.8814065786E+003.3071301383E+00+
*       -1.216048837E+00               0
GRID*               4974               01.5881835495E+002.8984271740E+00+
*       -1.216048837E+00               0
GRID*               4975               01.7654149530E+003.0808448007E+00+
*       -1.216048837E+00               0
GRID*               4976               01.9260304918E+003.5575306374E+00+
*       -1.216048837E+00               0
GRID*               4436               04.4180130784E-014.2129903186E+00+
*       -1.864630381E+00               0
GRID*               4437               01.7556202779E+004.1408542709E+00+
*       -1.890708622E+00               0
GRID*               4438               02.7787536499E-013.9892369927E+00+
*       -1.867547460E+00               0
GRID*               4439               03.4380782849E-014.1158675720E+00+
*       -1.652863112E+00               0
GRID*               4440               04.3457841520E-014.2069127129E+00+
*       -1.435991164E+00               0
GRID*               4441               01.3672799079E+002.7440509332E+00+
*       -1.425663756E+00               0
GRID*               4442               01.4812281654E+002.7818604493E+00+
*       -1.640740396E+00               0
GRID*               4443               01.5785824352E+002.8524629458E+00+
*       -1.858187588E+00               0
GRID*               4444               01.7548399921E+003.0154210998E+00+
*       -1.857405415E+00               0
GRID*               4445               01.6898995538E+002.9308987499E+00+
*       -1.639311560E+00               0
GRID*               4446               01.5957765640E+002.8658662447E+00+
*       -1.425196688E+00               0
GRID*               4447               01.8854186241E+003.2300625493E+00+
*       -1.859654731E+00               0
GRID*               4448               01.8479387178E+003.1324942063E+00+
*       -1.640690996E+00               0
GRID*               4449               01.7791296697E+003.0477740376E+00+
*       -1.425347802E+00               0
GRID*               4450               01.7864063059E+004.1038395217E+00+
*       -1.418715202E+00               0
GRID*               4451               01.8263020022E+004.0655818890E+00+
*       -1.667408782E+00               0
GRID*               4452               01.8814671923E+003.9358318211E+00+
*       -1.882652764E+00               0
GRID*               4453               01.9425549889E+003.3694982237E+00+
*       -1.645782276E+00               0
GRID*               4454               01.9567869773E+003.5332129797E+00+
*       -1.436861529E+00               0
GRID*               4455               01.9028193231E+003.2749178407E+00+
*       -1.428120488E+00               0
GRID*               4456               01.9506691122E+003.4730022388E+00+
*       -1.863635564E+00               0
GRID*               4457               01.9491477878E+003.6970212253E+00+
*       -1.869452404E+00               0
GRID*               4458               01.9667389157E+003.6240220895E+00+
*       -1.664592160E+00               0
GRID*               4459               01.9291147530E+003.8385899818E+00+
*       -1.716535826E+00               0
GRID*               4460               01.9243088029E+003.8354131830E+00+
*       -1.473646445E+00               0
GRID*               4461               01.2372127456E+002.6973832120E+00+
*       -1.640055772E+00               0
GRID*               4462               01.1117208362E+002.6921730461E+00+
*       -1.855802772E+00               0
GRID*               4463               01.3514133744E+002.7377918049E+00+
*       -1.859061815E+00               0
GRID*               4464               04.0669207598E-012.9855090812E+00+
*       -1.433935261E+00               0
GRID*               4465               04.9459882881E-012.8874685913E+00+
*       -1.651794029E+00               0
GRID*               4466               06.0897122366E-012.8197096035E+00+
*       -1.866913198E+00               0
GRID*               4467               09.7762914076E-012.6858255830E+00+
*       -1.643241769E+00               0
GRID*               4468               07.2291261148E-012.7500151079E+00+
*       -1.650971695E+00               0
GRID*               4469               08.5148606734E-012.7185093250E+00+
*       -1.863233214E+00               0
GRID*               4470               06.1836387579E-012.8128859872E+00+
*       -1.436353500E+00               0
GRID*               4471               01.1124383401E+002.6932075263E+00+
*       -1.425900859E+00               0
GRID*               4472               08.5263644792E-012.7184375594E+00+
*       -1.426721085E+00               0
GRID*               4473               01.8545801165E-013.4625945682E+00+
*       -1.437556574E+00               0
GRID*               4474               02.0450598381E-013.3270322480E+00+
*       -1.653277840E+00               0
GRID*               4475               02.6031595113E-013.2094470445E+00+
*       -1.868121253E+00               0
GRID*               4476               04.0563646903E-012.9880874020E+00+
*       -1.867866934E+00               0
GRID*               4477               02.6065015343E-013.2061978543E+00+
*       -1.434961312E+00               0
GRID*               4478               03.1688729292E-013.0852448879E+00+
*       -1.653088189E+00               0
GRID*               4479               02.7165477915E-013.9795404669E+00+
*       -1.436511795E+00               0
GRID*               4480               01.8957737809E-013.7297682442E+00+
*       -1.441841395E+00               0
GRID*               4481               01.6794674005E-013.5949377049E+00+
*       -1.653345155E+00               0
GRID*               4482               01.8653595863E-013.4642443300E+00+
*       -1.867942724E+00               0
GRID*               4483               01.9165891975E-013.7320115632E+00+
*       -1.867869034E+00               0
GRID*               4484               02.1399191255E-013.8657642890E+00+
*       -1.655189623E+00               0
GRID*               4485               07.8152899602E-014.3997608423E+00+
*       -2.029392358E+00               0
GRID*               4486               04.9256093689E-014.2424601860E+00+
*       -1.971038142E+00               0
GRID*               4487               04.0125186958E-014.1502595102E+00+
*       -1.971161587E+00               0
GRID*               4488               07.0137929034E-014.3786283688E+00+
*       -1.963126263E+00               0
GRID*               4489               05.9539578415E-014.3207919582E+00+
*       -1.963221133E+00               0
GRID*               4490               05.3949046238E-014.2974939646E+00+
*       -1.858004431E+00               0
GRID*               4491               05.0554531825E-014.2803772242E+00+
*       -1.759145813E+00               0
GRID*               4492               01.4732609080E+004.3464035644E+00+
*       -2.035806166E+00               0
GRID*               4493               01.7113127360E+004.1734157259E+00+
*       -1.984108880E+00               0
GRID*               4494               01.7851542331E+004.0814744794E+00+
*       -1.983891870E+00               0
GRID*               4495               01.6771354022E+004.2251378444E+00+
*       -1.892568391E+00               0
GRID*               4496               01.7166525358E+004.1957335710E+00+
*       -1.815724950E+00               0
GRID*               4497               01.6276664942E+004.2529036735E+00+
*       -1.984868121E+00               0
GRID*               4498               01.5426535014E+004.3154771180E+00+
*       -1.984742778E+00               0
GRID*               4499               01.4965770495E+004.3339121647E+00+
*       -1.257390772E+00               0
GRID*               4500               07.7053629794E-014.3961594619E+00+
*       -1.264485874E+00               0
GRID*               4501               03.2050159290E-014.0387007728E+00+
*       -1.972438405E+00               0
GRID*               4502               02.6072528181E-013.9223391240E+00+
*       -1.972428578E+00               0
GRID*               4503               03.5112284439E-014.1074927871E+00+
*       -1.866914628E+00               0
GRID*               4504               05.8325859338E-014.3136006243E+00+
*       -1.333020743E+00               0
GRID*               4505               05.3188133849E-014.2928263872E+00+
*       -1.442770086E+00               0
GRID*               4506               04.8129892436E-014.2333289324E+00+
*       -1.325349143E+00               0
GRID*               4507               06.9082511403E-014.3743792692E+00+
*       -1.333358314E+00               0
GRID*               4508               03.8887774114E-014.1677294927E+00+
*       -1.759141130E+00               0
GRID*               4509               04.5155484910E-014.2371725520E+00+
*       -1.653863572E+00               0
GRID*               4510               03.0646685421E-014.0557154251E+00+
*       -1.760624096E+00               0
GRID*               4511               05.0163640484E-014.2780104297E+00+
*       -1.545950397E+00               0
GRID*               4512               03.8539841464E-014.1645259108E+00+
*       -1.544495113E+00               0
GRID*               4513               01.4268096509E+002.7819167503E+00+
*       -1.320233129E+00               0
GRID*               4514               01.4859518982E+002.7966587983E+00+
*       -1.424705980E+00               0
GRID*               4515               01.5407104706E+002.8435993349E+00+
*       -1.319981883E+00               0
GRID*               4516               01.3056983047E+002.7379216227E+00+
*       -1.320188718E+00               0
GRID*               4517               01.5413165946E+002.8192656492E+00+
*       -1.532827027E+00               0
GRID*               4518               01.5909470904E+002.8489431520E+00+
*       -1.640147503E+00               0
GRID*               4519               01.6460620195E+002.8953506724E+00+
*       -1.532761566E+00               0
GRID*               4520               01.4264292566E+002.7589135669E+00+
*       -1.533116467E+00               0
GRID*               4521               01.6980528824E+002.9710435526E+00+
*       -1.965110226E+00               0
GRID*               4522               01.6690597948E+002.9245673125E+00+
*       -1.853970393E+00               0
GRID*               4523               01.6137034715E+002.8950056696E+00+
*       -1.967559786E+00               0
GRID*               4524               01.7778985964E+003.0666608201E+00+
*       -1.967258087E+00               0
GRID*               4525               01.6353549508E+002.8858066216E+00+
*       -1.748715074E+00               0
GRID*               4526               01.5312363623E+002.8125773158E+00+
*       -1.750127770E+00               0
GRID*               4527               01.7267289709E+002.9716384617E+00+
*       -1.748217829E+00               0
GRID*               4528               01.8433500632E+003.1722591021E+00+
*       -1.968468307E+00               0
GRID*               4529               01.8917893513E+003.2816014490E+00+
*       -1.968553663E+00               0
GRID*               4530               01.8275411203E+003.1177785730E+00+
*       -1.858516926E+00               0
GRID*               4531               01.8703169841E+003.1792169016E+00+
*       -1.750350224E+00               0
GRID*               4532               01.8063959165E+003.0711954403E+00+
*       -1.750007108E+00               0
GRID*               4533               01.7761673897E+003.0260944993E+00+
*       -1.640076481E+00               0
GRID*               4534               01.8172726637E+003.0881182458E+00+
*       -1.532944272E+00               0
GRID*               4535               01.7387555861E+002.9857032460E+00+
*       -1.532752977E+00               0
GRID*               4536               01.6437942235E+002.9209796548E+00+
*       -1.319763989E+00               0
GRID*               4537               01.6940435461E+002.9501778065E+00+
*       -1.424551628E+00               0
GRID*               4538               01.7344706362E+003.0126063675E+00+
*       -1.319978994E+00               0
GRID*               4539               01.8469985974E+003.9796448258E+00+
*       -1.979906179E+00               0
GRID*               4540               01.8937953219E+003.8702189809E+00+
*       -1.980252499E+00               0
GRID*               4541               01.6602882974E+004.2247708431E+00+
*       -1.309500411E+00               0
GRID*               4542               01.7536603022E+004.1259125987E+00+
*       -1.316770356E+00               0
GRID*               4543               01.6978938028E+004.2065344034E+00+
*       -1.410541203E+00               0
GRID*               4544               01.5640453824E+004.3017277142E+00+
*       -1.310244036E+00               0
GRID*               4545               01.8254778210E+004.0425846350E+00+
*       -1.887307730E+00               0
GRID*               4546               01.7944935680E+004.1055636524E+00+
*       -1.779360894E+00               0
GRID*               4547               01.8585367804E+004.0033085062E+00+
*       -1.775404878E+00               0
GRID*               4548               01.7345676324E+004.1775616458E+00+
*       -1.488422345E+00               0
GRID*               4549               01.8096369593E+004.0867253006E+00+
*       -1.542823147E+00               0
GRID*               4550               01.7568290347E+004.1599354536E+00+
*       -1.612447333E+00               0
GRID*               4551               01.7555516326E+004.1606559202E+00+
*       -1.704713922E+00               0
GRID*               4552               01.9391406917E+003.4807123739E+00+
*       -1.325841299E+00               0
GRID*               4553               01.9444334429E+003.6094888895E+00+
*       -1.325542280E+00               0
GRID*               4554               01.9136952847E+003.3518539488E+00+
*       -1.321245390E+00               0
GRID*               4555               01.8710137158E+003.2304343126E+00+
*       -1.321531529E+00               0
GRID*               4556               01.9393681441E+003.4020857528E+00+
*       -1.431737657E+00               0
GRID*               4557               01.9266890308E+003.3212810132E+00+
*       -1.536997344E+00               0
GRID*               4558               01.9557690290E+003.4502608767E+00+
*       -1.541210432E+00               0
GRID*               4559               01.9036368065E+003.2474904787E+00+
*       -1.642842759E+00               0
GRID*               4560               01.9189495335E+003.2966094331E+00+
*       -1.752735310E+00               0
GRID*               4561               01.8805723775E+003.2012272897E+00+
*       -1.534218912E+00               0
GRID*               4562               01.8105718377E+003.1163685274E+00+
*       -1.320003412E+00               0
GRID*               4563               01.8492171492E+003.1568638435E+00+
*       -1.426011397E+00               0
GRID*               4564               01.9259816489E+003.4011445762E+00+
*       -1.967948372E+00               0
GRID*               4565               01.9420923637E+003.5207512218E+00+
*       -1.971375649E+00               0
GRID*               4566               01.9269912524E+003.3498761257E+00+
*       -1.860254287E+00               0
GRID*               4567               01.9502134481E+003.4183193271E+00+
*       -1.756061282E+00               0
GRID*               4568               01.8257801685E+004.0200220724E+00+
*       -1.316746532E+00               0
GRID*               4569               01.9276051062E+003.7500934751E+00+
*       -1.972520935E+00               0
GRID*               4570               01.9236434026E+003.8187020444E+00+
*       -1.876851833E+00               0
GRID*               4571               01.9441111079E+003.6245935392E+00+
*       -1.964501722E+00               0
GRID*               4572               01.9574289082E+003.5834448900E+00+
*       -1.862136248E+00               0
GRID*               4573               01.9639734302E+003.5451226568E+00+
*       -1.764597738E+00               0
GRID*               4574               01.9607528312E+003.6636939520E+00+
*       -1.767525915E+00               0
GRID*               4575               01.9637677000E+003.4961471124E+00+
*       -1.656837664E+00               0
GRID*               4576               01.9658929661E+003.5793722775E+00+
*       -1.552771157E+00               0
GRID*               4577               01.9428786704E+003.7694260647E+00+
*       -1.795290712E+00               0
GRID*               4578               01.9545205763E+003.7328776767E+00+
*       -1.690830973E+00               0
GRID*               4579               01.9083216117E+003.8882490118E+00+
*       -1.799077706E+00               0
GRID*               4580               01.8859578791E+003.9552521078E+00+
*       -1.691342649E+00               0
GRID*               4581               01.8849377473E+003.9554715387E+00+
*       -1.569797760E+00               0
GRID*               4582               01.9297260961E+003.8383669571E+00+
*       -1.594860316E+00               0
GRID*               4583               01.8669457964E+003.9754010506E+00+
*       -1.445182489E+00               0
GRID*               4584               01.8934445415E+003.8848427155E+00+
*       -1.344116838E+00               0
GRID*               4585               01.9539705411E+003.7311651519E+00+
*       -1.570307788E+00               0
GRID*               4586               01.9534933875E+003.6858215963E+00+
*       -1.454237037E+00               0
GRID*               4587               01.9290815107E+003.7600816159E+00+
*       -1.343852042E+00               0
GRID*               4588               01.2834133192E+002.7315307346E+00+
*       -1.969125165E+00               0
GRID*               4589               01.4010895966E+002.7702920714E+00+
*       -1.968301161E+00               0
GRID*               4590               01.2271367474E+002.7055185644E+00+
*       -1.856412361E+00               0
GRID*               4591               01.2962338502E+002.7131914146E+00+
*       -1.748923779E+00               0
GRID*               4592               01.1712783831E+002.6896364214E+00+
*       -1.749113823E+00               0
GRID*               4593               01.1684344327E+002.7100451165E+00+
*       -1.966650231E+00               0
GRID*               4594               01.0499491976E+002.7042969164E+00+
*       -1.965677717E+00               0
GRID*               4595               01.3622362299E+002.7308144838E+00+
*       -1.640370571E+00               0
GRID*               4596               01.3036352258E+002.7156689359E+00+
*       -1.533203994E+00               0
GRID*               4597               01.4178396266E+002.7547499638E+00+
*       -1.749996444E+00               0
GRID*               4598               01.5144671731E+002.8266397350E+00+
*       -1.967475168E+00               0
GRID*               4599               01.4687439967E+002.7867104428E+00+
*       -1.857997658E+00               0
GRID*               4600               04.6155853717E-012.9477704990E+00+
*       -1.324322050E+00               0
GRID*               4601               03.7560727020E-013.0428938722E+00+
*       -1.324853783E+00               0
GRID*               4602               07.2650841630E-012.7601711407E+00+
*       -1.865877719E+00               0
GRID*               4603               06.7261607983E-012.7992554060E+00+
*       -1.972217735E+00               0
GRID*               4604               07.9358712390E-012.7487966745E+00+
*       -1.970334297E+00               0
GRID*               4605               06.6338011912E-012.7804201079E+00+
*       -1.758135078E+00               0
GRID*               4606               06.0351245740E-012.8103206737E+00+
*       -1.651318056E+00               0
GRID*               4607               05.4851168356E-012.8497586101E+00+
*       -1.759720288E+00               0
GRID*               4608               07.8494192252E-012.7297532738E+00+
*       -1.756237346E+00               0
GRID*               4609               09.1288355784E-012.6973323412E+00+
*       -1.753370108E+00               0
GRID*               4610               08.4748155579E-012.7086834921E+00+
*       -1.646115130E+00               0
GRID*               4611               09.1913539504E-012.7175013639E+00+
*       -1.970401436E+00               0
GRID*               4612               09.8108828872E-012.6956443472E+00+
*       -1.859152928E+00               0
GRID*               4613               01.0424217934E+002.6841316205E+00+
*       -1.751618328E+00               0
GRID*               4614               01.1077774673E+002.6821835799E+00+
*       -1.641586507E+00               0
GRID*               4615               05.0592857954E-012.8910728999E+00+
*       -1.434379354E+00               0
GRID*               4616               05.6793059369E-012.8604931706E+00+
*       -1.326468122E+00               0
GRID*               4617               05.5180638294E-012.8468801757E+00+
*       -1.541656377E+00               0
GRID*               4618               06.6564759147E-012.7788098973E+00+
*       -1.542705353E+00               0
GRID*               4619               04.4688599332E-012.9330757752E+00+
*       -1.543034727E+00               0
GRID*               4620               01.2417120734E+002.7093398069E+00+
*       -1.425053375E+00               0
GRID*               4621               01.1758237807E+002.6906416562E+00+
*       -1.533351742E+00               0
GRID*               4622               01.1787095551E+002.7120516811E+00+
*       -1.320261545E+00               0
GRID*               4623               01.0503733547E+002.7051754837E+00+
*       -1.320295893E+00               0
GRID*               4624               07.8762288600E-012.7286486737E+00+
*       -1.540177296E+00               0
GRID*               4625               07.3981362077E-012.7530367644E+00+
*       -1.443266946E+00               0
GRID*               4626               09.1452988744E-012.6972460052E+00+
*       -1.534666466E+00               0
GRID*               4627               01.0448114302E+002.6843637129E+00+
*       -1.534350181E+00               0
GRID*               4628               09.8150762755E-012.6963312100E+00+
*       -1.425465016E+00               0
GRID*               4629               09.1995572855E-012.7175275834E+00+
*       -1.320568211E+00               0
GRID*               4630               08.0295071797E-012.7460226800E+00+
*       -1.320119642E+00               0
GRID*               4631               06.9972929029E-012.7847274996E+00+
*       -1.328699601E+00               0
GRID*               4632               05.6150996118E-012.8661678594E+00+
*       -1.972269558E+00               0
GRID*               4633               03.7289768303E-013.0477061278E+00+
*       -1.972740189E+00               0
GRID*               4634               03.2475275791E-013.0933661306E+00+
*       -1.868754643E+00               0
GRID*               4635               03.0068258621E-013.1580756641E+00+
*       -1.972839207E+00               0
GRID*               4636               04.5980889698E-012.9504296004E+00+
*       -1.972635177E+00               0
GRID*               4637               05.0106154375E-012.8963424389E+00+
*       -1.867919473E+00               0
GRID*               4638               02.0978810097E-013.3985019611E+00+
*       -1.327217737E+00               0
GRID*               4639               01.9168647341E-013.5314908835E+00+
*       -1.329058515E+00               0
GRID*               4640               02.1308504009E-013.3320288542E+00+
*       -1.437873655E+00               0
GRID*               4641               01.9089684902E-013.3897227857E+00+
*       -1.542471963E+00               0
GRID*               4642               02.2882668781E-013.2620186325E+00+
*       -1.544325099E+00               0
GRID*               4643               02.4616925423E-013.2738169841E+00+
*       -1.327290559E+00               0
GRID*               4644               03.0210475710E-013.1536899375E+00+
*       -1.325345896E+00               0
GRID*               4645               02.5179421045E-013.2017384190E+00+
*       -1.653480545E+00               0
GRID*               4646               02.8525373761E-013.1415893660E+00+
*       -1.543129543E+00               0
GRID*               4647               02.8415501118E-013.1447289527E+00+
*       -1.760814653E+00               0
GRID*               4648               03.5714440415E-013.0338710767E+00+
*       -1.760701213E+00               0
GRID*               4649               02.2776826704E-013.2665789574E+00+
*       -1.760665104E+00               0
GRID*               4650               04.4660457296E-012.9340956775E+00+
*       -1.760255548E+00               0
GRID*               4651               03.9842550238E-012.9797314561E+00+
*       -1.653187261E+00               0
GRID*               4652               03.2584282671E-013.0897158245E+00+
*       -1.434714736E+00               0
GRID*               4653               03.5830467089E-013.0313958322E+00+
*       -1.543719124E+00               0
GRID*               4654               03.9185803271E-014.1400850972E+00+
*       -1.325389715E+00               0
GRID*               4655               03.1171530892E-014.0258225339E+00+
*       -1.325906814E+00               0
GRID*               4656               03.4402138125E-014.0994134940E+00+
*       -1.435626889E+00               0
GRID*               4657               02.5304780885E-013.9058938855E+00+
*       -1.325587756E+00               0
GRID*               4658               01.9385725910E-013.6614195926E+00+
*       -1.329623517E+00               0
GRID*               4659               01.7752922819E-013.6017968355E+00+
*       -1.439897674E+00               0
GRID*               4660               02.1227059445E-013.7804798203E+00+
*       -1.335321938E+00               0
GRID*               4661               02.1767111723E-013.8474983554E+00+
*       -1.443470557E+00               0
GRID*               4662               02.4649074483E-013.2762074354E+00+
*       -1.972647901E+00               0
GRID*               4663               02.1394193381E-013.3340994873E+00+
*       -1.868793831E+00               0
GRID*               4664               02.0987148158E-013.4034781383E+00+
*       -1.972504604E+00               0
GRID*               4665               01.7196436718E-013.5235889415E+00+
*       -1.544842542E+00               0
GRID*               4666               01.7618762677E-013.4590153808E+00+
*       -1.653048912E+00               0
GRID*               4667               01.7385627203E-013.6619480852E+00+
*       -1.542269895E+00               0
GRID*               4668               01.9047322730E-013.3942112271E+00+
*       -1.760603240E+00               0
GRID*               4669               01.7225080408E-013.5291402668E+00+
*       -1.760306295E+00               0
GRID*               4670               02.1782565784E-013.7938940910E+00+
*       -1.972517753E+00               0
GRID*               4671               01.9572049439E-013.6656584420E+00+
*       -1.972570944E+00               0
GRID*               4672               02.2497343614E-013.8639084822E+00+
*       -1.868506332E+00               0
GRID*               4673               03.0353515198E-014.0520037998E+00+
*       -1.542552780E+00               0
GRID*               4674               02.6908375331E-013.9959974134E+00+
*       -1.653326168E+00               0
GRID*               4675               02.3951864847E-013.9272229796E+00+
*       -1.543169588E+00               0
GRID*               4676               02.4105547536E-013.9294728963E+00+
*       -1.760261694E+00               0
GRID*               4677               01.9792540566E-013.8004696368E+00+
*       -1.760408581E+00               0
GRID*               4678               01.9303008196E-013.5324674016E+00+
*       -1.972702007E+00               0
GRID*               4679               01.7903378556E-013.5983206203E+00+
*       -1.868682815E+00               0
GRID*               4680               01.9525101166E-013.7931106845E+00+
*       -1.549348766E+00               0
GRID*               4681               01.8052830823E-013.7318724463E+00+
*       -1.652884957E+00               0
GRID*               4682               01.7449686022E-013.6633755324E+00+
*       -1.760309548E+00               0
GRID*               5339               01.8700593710E+001.0333086014E+01+
*       -2.829260349E+00               0
GRID*               4992               01.6896006976E+001.0318715758E+01+
*       -2.829260349E+00               0
GRID*               4993               01.7798300343E+001.0325900886E+01+
*       -2.829260349E+00               0
GRID*               4994               01.6001669316E+001.0334923992E+01+
*       -2.829260349E+00               0
GRID*               5252               02.0043016701E+001.0374968445E+01+
*       -2.933768929E+00               0
GRID*               5253               02.0889045034E+001.0425337995E+01+
*       -3.096672332E+00               0
GRID*               5254               02.0058121133E+001.0375754170E+01+
*       -3.260432679E+00               0
GRID*               5255               01.9371805205E+001.0354027229E+01+
*       -2.881514639E+00               0
GRID*               5256               02.0638368040E+001.0408319916E+01+
*       -3.004233624E+00               0
GRID*               5257               01.9389245236E+001.0354676630E+01+
*       -3.313135126E+00               0
GRID*               5258               02.0473583083E+001.0400546082E+01+
*       -3.178552506E+00               0
GRID*               5340               01.5150117874E+001.0366597176E+01+
*       -2.829260349E+00               0
GRID*               4995               01.3624838448E+001.0472459007E+01+
*       -2.829260349E+00               0
GRID*               4996               01.2558050345E+001.0624710393E+01+
*       -2.829260349E+00               0
GRID*               4997               01.2078007554E+001.0804224712E+01+
*       -2.829260349E+00               0
GRID*               4998               01.2242351077E+001.0989365435E+01+
*       -2.829260349E+00               0
GRID*               4999               01.3031383391E+001.1157655003E+01+
*       -2.829260349E+00               0
GRID*               5000               01.4349154240E+001.1288676884E+01+
*       -2.829260349E+00               0
GRID*               5001               01.6036775116E+001.1366619123E+01+
*       -2.829260349E+00               0
GRID*               5002               01.2562979416E+001.1076948180E+01+
*       -2.829260349E+00               0
GRID*               5003               01.2079007378E+001.0897530679E+01+
*       -2.829260349E+00               0
GRID*               5004               01.2239342048E+001.0712360933E+01+
*       -2.829260349E+00               0
GRID*               5005               01.3024758499E+001.0543897596E+01+
*       -2.829260349E+00               0
GRID*               5006               01.4339746091E+001.0412583420E+01+
*       -2.829260349E+00               0
GRID*               5007               01.6955696887E+001.1382418078E+01+
*       -2.829260349E+00               0
GRID*               5008               01.3632965197E+001.1228956491E+01+
*       -2.829260349E+00               0
GRID*               5009               01.5158720715E+001.1335046094E+01+
*       -2.829260349E+00               0
GRID*               5342               01.5143101215E+001.0366845131E+01+
*       -3.365837574E+00               0
GRID*               5259               01.3851322098E+001.0437188846E+01+
*       -2.940034308E+00               0
GRID*               5260               01.4585578851E+001.0389181256E+01+
*       -2.886873798E+00               0
GRID*               5261               01.3337658341E+001.0481417938E+01+
*       -3.016583006E+00               0
GRID*               5341               01.8720369339E+001.0333599091E+01+
*       -3.365837574E+00               0
GRID*               5010               02.0515251796E+001.0416828752E+01+
*       -3.365837574E+00               0
GRID*               5011               02.1880962658E+001.0560319662E+01+
*       -3.365837574E+00               0
GRID*               5012               02.2629455387E+001.0743669394E+01+
*       -3.365837574E+00               0
GRID*               5013               02.2658255507E+001.0941681648E+01+
*       -3.365837574E+00               0
GRID*               5014               02.1963185682E+001.1127159114E+01+
*       -3.365837574E+00               0
GRID*               5015               02.0640145929E+001.1274514482E+01+
*       -3.365837574E+00               0
GRID*               5016               01.8871216241E+001.1363511901E+01+
*       -3.365837574E+00               0
GRID*               5017               01.6898363179E+001.1381912132E+01+
*       -3.365837574E+00               0
GRID*               5018               01.4995138205E+001.1327149725E+01+
*       -3.365837574E+00               0
GRID*               5019               01.3422240031E+001.1206769362E+01+
*       -3.365837574E+00               0
GRID*               5020               01.2396355221E+001.1037332059E+01+
*       -3.365837574E+00               0
GRID*               5021               01.2058706815E+001.0842199574E+01+
*       -3.365837574E+00               0
GRID*               5022               01.2455448747E+001.0648174432E+01+
*       -3.365837574E+00               0
GRID*               5023               01.3532583683E+001.0481902040E+01+
*       -3.365837574E+00               0
GRID*               5024               01.7893403934E+001.1381943087E+01+
*       -3.365837574E+00               0
GRID*               5025               01.9797050368E+001.1327297162E+01+
*       -3.365837574E+00               0
GRID*               5026               01.2830085796E+001.1126855124E+01+
*       -3.365837574E+00               0
GRID*               5027               01.5921534029E+001.1363443461E+01+
*       -3.365837574E+00               0
GRID*               5028               01.4152046352E+001.1274291383E+01+
*       -3.365837574E+00               0
GRID*               5029               02.1370728563E+001.1207008265E+01+
*       -3.365837574E+00               0
GRID*               5030               02.2397450596E+001.1037677525E+01+
*       -3.365837574E+00               0
GRID*               5031               02.2736460587E+001.0842545930E+01+
*       -3.365837574E+00               0
GRID*               5032               02.2340911992E+001.0648481362E+01+
*       -3.365837574E+00               0
GRID*               5033               01.2916075358E+001.0560025274E+01+
*       -3.365837574E+00               0
GRID*               5034               02.1265282093E+001.0482194217E+01+
*       -3.365837574E+00               0
GRID*               5035               01.4282660645E+001.0416627269E+01+
*       -3.365837574E+00               0
GRID*               5036               01.9657563584E+001.0366542990E+01+
*       -3.365837574E+00               0
GRID*               5037               01.2136282144E+001.0941349942E+01+
*       -3.365837574E+00               0
GRID*               5038               01.2166376509E+001.0743309868E+01+
*       -3.365837574E+00               0
GRID*               5347               01.1301687956E+003.2173156738E+00+
*       -2.076048851E+00               0
GRID*               5348               01.1301687956E+003.2173156738E+00+
*       -1.216048837E+00               0
GRID*               5343               01.1697598696E+004.6010808945E+00+
*       -1.926905990E+00               0
GRID*               5345               01.3894028664E+006.8904604912E+00+
*       -1.889558554E+00               0
GRID*               5344               06.5381944180E-014.4594545364E+00+
*       -1.649456978E+00               0
GRID*               5346               01.4100109339E+007.1460614204E+00+
*       -1.951929450E+00               0
GRID*               5349               01.6161191463E+009.5208206177E+00+
*       -2.826547146E+00               0
GRID*               5350               01.6140340567E+009.3232526779E+00+
*       -3.167624712E+00               0
GRID*               5351               01.6416058540E+009.7960386276E+00+
*       -2.907106876E+00               0
GRID*               5352               01.6876059771E+001.0227018356E+01+
*       -2.914264202E+00               0
GRID*               5353               01.3384143114E+001.0428993225E+01+
*       -3.106987000E+00               0
GRID*               5355               01.8300790787E+001.0654094696E+01+
*       -3.379048824E+00               0
GRID*               5354               01.8300790787E+001.0654094696E+01+
*       -2.816048861E+00               0
GRID*               5356               05.7756519318E-014.3360233307E+00+
*       -1.653377175E+00               0
GRID*               5357               01.3184241056E+001.0496875763E+01+
*       -3.115410089E+00               0
GRID*               5044               07.3750647751E-014.5233799927E+00+
*       -1.493326736E+00               0
GRID*               5045               08.9958064242E-014.5849463289E+00+
*       -1.405351368E+00               0
GRID*               5046               01.0893900371E+004.6050750946E+00+
*       -1.366239952E+00               0
GRID*               5047               01.2827792871E+004.5816368700E+00+
*       -1.372199153E+00               0
GRID*               5048               01.4590944679E+004.5171351742E+00+
*       -1.424022154E+00               0
GRID*               5049               01.5925038879E+004.4209851000E+00+
*       -1.527183453E+00               0
GRID*               5050               01.6247969676E+004.3832305341E+00+
*       -1.700292845E+00               0
GRID*               5051               01.5211620492E+004.4804988582E+00+
*       -1.830762703E+00               0
GRID*               5052               01.3587198432E+004.5601114205E+00+
*       -1.902469573E+00               0
GRID*               5053               06.7902802577E-014.4827960434E+00+
*       -1.559988042E+00               0
GRID*               5054               09.9269930817E-014.6004256233E+00+
*       -1.379958516E+00               0
GRID*               5055               08.1854355997E-014.5541631608E+00+
*       -1.449339052E+00               0
GRID*               5056               01.1860846621E+004.5933559823E+00+
*       -1.369219553E+00               0
GRID*               5057               01.4399409462E+004.5203051393E+00+
*       -1.866616138E+00               0
GRID*               5058               01.3744687799E+004.5541892661E+00+
*       -1.392153909E+00               0
GRID*               5059               01.5834044483E+004.4303092711E+00+
*       -1.774672153E+00               0
GRID*               5060               01.6086504277E+004.4021078170E+00+
*       -1.613738149E+00               0
GRID*               5061               01.5333378334E+004.4715956705E+00+
*       -1.468322721E+00               0
GRID*               5062               01.2660987815E+004.5857927448E+00+
*       -1.920368356E+00               0
GRID*               5160               01.7948360759E+009.3205809389E+00+
*       -3.143406846E+00               0
GRID*               5161               01.9534945903E+009.3523979935E+00+
*       -3.063238599E+00               0
GRID*               5162               01.9504194343E+009.4353489972E+00+
*       -2.920664262E+00               0
GRID*               5163               01.7951864589E+009.4924270776E+00+
*       -2.846969177E+00               0
GRID*               5164               01.7067180373E+009.5095662286E+00+
*       -2.831513249E+00               0
GRID*               5165               01.8787282590E+009.4684006135E+00+
*       -2.875088710E+00               0
GRID*               5166               01.9519570123E+009.3938734954E+00+
*       -2.991951431E+00               0
GRID*               5167               01.8802688798E+009.3305160625E+00+
*       -3.112652435E+00               0
GRID*               5168               01.7051089103E+009.3187395566E+00+
*       -3.160887845E+00               0
GRID*               5191               01.4390865230E+001.0314040452E+01+
*       -3.230302668E+00               0
GRID*               5192               01.6186586181E+001.0237276281E+01+
*       -3.278391647E+00               0
GRID*               5193               01.8196028097E+001.0232547996E+01+
*       -3.267516893E+00               0
GRID*               5194               01.9943031585E+001.0300902617E+01+
*       -3.196013276E+00               0
GRID*               5195               02.0363365519E+001.0337442555E+01+
*       -3.041105051E+00               0
GRID*               5196               01.8852411984E+001.0248124348E+01+
*       -2.945365811E+00               0
GRID*               5197               01.5233053251E+001.0267386101E+01+
*       -3.261911407E+00               0
GRID*               5198               01.3732592602E+001.0373924137E+01+
*       -3.182042791E+00               0
GRID*               5199               01.7192932263E+001.0225427119E+01+
*       -3.280227930E+00               0
GRID*               5200               02.0153198552E+001.0319172586E+01+
*       -3.118559163E+00               0
GRID*               5201               01.9709947907E+001.0285799892E+01+
*       -2.983833874E+00               0
GRID*               5202               01.7886017262E+001.0228232089E+01+
*       -2.922372681E+00               0
GRID*               5203               01.9136464847E+001.0258159032E+01+
*       -3.239786267E+00               0
GRID*               5247               07.9549218202E-014.4130357319E+00+
*       -1.313046576E+00               0
GRID*               5248               06.3958125099E-014.3633244473E+00+
*       -1.451979543E+00               0
GRID*               5249               08.9222644580E-014.4311143151E+00+
*       -1.268417795E+00               0
GRID*               5250               07.0958487114E-014.3888257591E+00+
*       -1.373849432E+00               0
GRID*               5251               05.9286267182E-014.3432284877E+00+
*       -1.547052496E+00               0
GRID*               5262               01.3963800554E+001.0428829583E+01+
*       -3.266069980E+00               0
GRID*               5263               01.4553450884E+001.0397837357E+01+
*       -3.315953777E+00               0
GRID*               5264               01.3442306487E+001.0471580335E+01+
*       -3.201134277E+00               0
GRID*               5265               01.6646059155E+001.0011528492E+01+
*       -2.910685539E+00               0
GRID*               5266               01.6761059463E+001.0119273424E+01+
*       -2.912474871E+00               0
GRID*               5267               01.6531058848E+009.9037835598E+00+
*       -2.908896208E+00               0
GRID*               5268               01.6283744579E+009.6531499256E+00+
*       -2.885012028E+00               0
GRID*               5269               01.6349236818E+009.7238752819E+00+
*       -2.900753366E+00               0
GRID*               5270               01.6220708931E+009.5850828149E+00+
*       -2.860119770E+00               0
GRID*               5271               01.5974150778E+009.1459066257E+00+
*       -3.068598614E+00               0
GRID*               5272               01.5807708248E+008.9682908646E+00+
*       -2.969421916E+00               0
GRID*               5273               01.5640775321E+008.7901517869E+00+
*       -2.869953010E+00               0
GRID*               5274               01.5473144025E+008.6112674588E+00+
*       -2.770067973E+00               0
GRID*               5275               01.5304649582E+008.4314620414E+00+
*       -2.669668619E+00               0
GRID*               5276               01.5135182118E+008.2506182838E+00+
*       -2.568689480E+00               0
GRID*               5277               01.4964695671E+008.0686871395E+00+
*       -2.467103168E+00               0
GRID*               5278               01.4793213533E+007.8856934640E+00+
*       -2.364923562E+00               0
GRID*               5279               01.4620828978E+007.7017367923E+00+
*       -2.262206241E+00               0
GRID*               5280               01.4447700698E+007.5169864694E+00+
*       -2.159045762E+00               0
GRID*               5281               01.4274042733E+007.3316709042E+00+
*       -2.055569665E+00               0
GRID*               5282               01.5556959673E+008.7007096228E+00+
*       -2.820010491E+00               0
GRID*               5283               01.5388896803E+008.5213647501E+00+
*       -2.719868296E+00               0
GRID*               5284               01.5219915850E+008.3410401626E+00+
*       -2.619179050E+00               0
GRID*               5285               01.5724241784E+008.8792213258E+00+
*       -2.919687463E+00               0
GRID*               5286               01.5890929513E+009.0570987451E+00+
*       -3.019010265E+00               0
GRID*               5287               01.6057245673E+009.2345796518E+00+
*       -3.118111663E+00               0
GRID*               5288               01.4707021256E+007.7937151281E+00+
*       -2.313564902E+00               0
GRID*               5289               01.4878954602E+007.9771903017E+00+
*       -2.416013365E+00               0
GRID*               5290               01.5049938894E+008.1596527116E+00+
*       -2.517896324E+00               0
GRID*               5291               01.4534264838E+007.6093616308E+00+
*       -2.210626002E+00               0
GRID*               5292               01.4360871715E+007.4243286868E+00+
*       -2.107307714E+00               0
GRID*               5293               01.4187076036E+007.2388661623E+00+
*       -2.003749558E+00               0
GRID*               5294               01.3849462454E+007.0233805083E+00+
*       -1.903931199E+00               0
GRID*               5295               01.3789978621E+006.9571259775E+00+
*       -1.892445296E+00               0
GRID*               5296               01.3909670234E+007.0875165884E+00+
*       -1.924167667E+00               0
GRID*               5297               01.1897274147E+004.8092063124E+00+
*       -1.923510768E+00               0
GRID*               5298               01.2096949599E+005.0173317302E+00+
*       -1.920115547E+00               0
GRID*               5299               01.2296625051E+005.2254571481E+00+
*       -1.916720325E+00               0
GRID*               5300               01.2496300502E+005.4335825660E+00+
*       -1.913325104E+00               0
GRID*               5301               01.2695975954E+005.6417079839E+00+
*       -1.909929882E+00               0
GRID*               5302               01.2895651406E+005.8498334018E+00+
*       -1.906534661E+00               0
GRID*               5303               01.3095326857E+006.0579588196E+00+
*       -1.903139439E+00               0
GRID*               5304               01.3295002309E+006.2660842375E+00+
*       -1.899744218E+00               0
GRID*               5305               01.3494677760E+006.4742096554E+00+
*       -1.896348997E+00               0
GRID*               5306               01.3694353212E+006.6823350733E+00+
*       -1.892953775E+00               0
GRID*               5307               01.1997111873E+004.9132690213E+00+
*       -1.921813157E+00               0
GRID*               5308               01.1797436422E+004.7051436034E+00+
*       -1.925208379E+00               0
GRID*               5309               01.2196787325E+005.1213944392E+00+
*       -1.918417936E+00               0
GRID*               5310               01.2396462776E+005.3295198571E+00+
*       -1.915022715E+00               0
GRID*               5311               01.2596138228E+005.5376452749E+00+
*       -1.911627493E+00               0
GRID*               5312               01.2795813680E+005.7457706928E+00+
*       -1.908232272E+00               0
GRID*               5313               01.2995489131E+005.9538961107E+00+
*       -1.904837050E+00               0
GRID*               5314               01.3195164583E+006.1620215286E+00+
*       -1.901441829E+00               0
GRID*               5315               01.3394840035E+006.3701469465E+00+
*       -1.898046607E+00               0
GRID*               5316               01.3594515486E+006.5782723644E+00+
*       -1.894651386E+00               0
GRID*               5317               01.3794190938E+006.7863977822E+00+
*       -1.891256164E+00               0
GRID*               5318               06.2796546528E-014.3901490034E+00+
*       -1.651181192E+00               0
GRID*               5319               01.3346555988E+001.0464819981E+01+
*       -3.110809300E+00               0
GRID*               5320               01.1301687956E+003.2173156738E+00+
*       -1.861048847E+00               0
GRID*               5321               01.1301687956E+003.2173156738E+00+
*       -1.646048844E+00               0
GRID*               5322               01.1301687956E+003.2173156738E+00+
*       -1.431048840E+00               0
GRID*               5323               01.1301687956E+003.2173156738E+00+
*       -1.753548846E+00               0
GRID*               5324               01.1301687956E+003.2173156738E+00+
*       -1.968548849E+00               0
GRID*               5325               01.1301687956E+003.2173156738E+00+
*       -1.538548842E+00               0
GRID*               5326               01.1301687956E+003.2173156738E+00+
*       -1.323548838E+00               0
GRID*               5327               01.8300790787E+001.0654094696E+01+
*       -3.191382170E+00               0
GRID*               5328               01.8300790787E+001.0654094696E+01+
*       -3.003715515E+00               0
GRID*               5329               01.8300790787E+001.0654094696E+01+
*       -3.097548842E+00               0
GRID*               5330               01.8300790787E+001.0654094696E+01+
*       -3.285215497E+00               0
GRID*               5331               01.8300790787E+001.0654094696E+01+
*       -2.909882188E+00               0
$*
$* ELEMENT CARDS
$*
$*  NX mesh: connection_recipe_1_mesh
RBE2        2815       1  123456    2376    2377    2378    2379    2380+
+           2381    2382    2383    2384    2385    2386    2387    2388+
+           2389    2390    2391    2392    2393    2394    2395    2396+
+           2397    2398    2399    2400    2401    2402    2403    2404+
+           2405    2406    2407    2408    2409    2410    2411    2412+
+           2413    2414    2415    2416    2417    2418    2419    2420+
+           2421    2422    2423    2424    2425    2426    2427    2428+
+           2429    2430    2431    2432    2433    2434    2435    2436+
+           2437    2438    2439    2440    2441    2442    2443    2444+
+           2445    2446    2447    2448    2449    2450    2451    2452+
+           2453    2454    2455    2456    2457    2458    2459    2460+
+           2461    2462    2463    2464    2465    2466    2467    2468+
+           2469    2470    2471    2472    2473    2474    2475    2476+
+           2477    2478    2479    2480    2481    2482    2483    2484+
+           2485    2486    2487    2488    2489    2490    2491    2492+
+           2493    2494    2495    2496    2497    2498    2499    2500+
+           2501    2502    2503    2504    2505    2506    2507    2508+
+           2509    2510    2511    2512    2513    2514    2515    2516+
+           2517    2518    2519    2520    2521    2522    2523    2524+
+           2525    2526    2527    2528    2529    2530    2531    2532+
+           2533    2534    2535    2536    2537    2538    2539    2540+
+           2541    2542    2543    2544    2545    2546    2547    2548+
+           2549    2550    2551    2552    2553    2554    2555    2556+
+           2557    2558    2559    2560    2561    2562    2563    2564+
+           2565    2566    2567    2568    2569    2570    2571    2572+
+           2573    2574    2575    2576    2577    2578    2579    2580+
+           5105    5106    5107    5108    5109    5110    5111    5112+
+           5113    5114    5115    5116    5117    5118    5119    5120+
+           5121    5122    5123    5124    5125    5126    5127    5128+
+           5129    5130    5131    5132    5133    5134    5135    5136+
+           5137    5138    5139    5140    5141    5142    5143    5144+
+           5145    5146    5147    5148    5149    5150    5320    5321+
+           5322    5323    5324    5325    5326    5347    5348
$*  NX mesh: connection_recipe_2_mesh
RBE2        2816       2  123456    4250    4251    4252    4253    4254+
+           4255    4256    4257    4258    4259    4260    4261    4262+
+           4263    4264    4265    4266    4267    4268    4269    4270+
+           4271    4272    4273    4274    4275    4276    4277    4278+
+           4279    4280    4281    4282    4283    4284    4285    4286+
+           4287    4288    4289    4290    4291    4292    4293    4294+
+           4295    4296    4297    4298    4299    4300    4301    4302+
+           4303    4304    5204    5205    5206    5207    5208    5209+
+           5210    5211    5212    5213    5214    5215    5216    5217+
+           5218    5219    5220    5221    5222    5223    5224    5225+
+           5327    5328    5329    5330    5331    5354    5355
$*  NX mesh: 3d_mesh(1)
CTETRA         1       1       3    4438       4    4439     156     157+
+            158     159    4510     160
CTETRA         2       1       3    2600       5    2601     161     162+
+            163     164    2689     165
CTETRA         3       1       3       6    2598    2601     166     167+
+            168     164     169    2685
CTETRA         4       1    4898    4438    2598    4899    4502     170+
+           2687    4903    4501    2686
CTETRA         5       1    4438    2598    4899       3     170    2686+
+           4501     156     168     171
CTETRA         6       1       3       4       6       5     158     172+
+            166     163     173     174
CTETRA         7       1       7    2384       8    2381     175     176+
+            177     178    2432     179
CTETRA         8       1       9      10    2400      11     180     181+
+            182     183     184     185
CTETRA         9       1       9    4480      10    4473     186     187+
+            180     188    4659     189
CTETRA        10       1       9    4480    2752    4941     186     190+
+            191     192    4660    2787
CTETRA        11       1       9      12    2756    2754     193     194+
+            195     196     197    2790
CTETRA        12       1       9    4484      10    4480     198     199+
+            180     186    4680     187
CTETRA        13       1       9    4479    4480    4941     200    4661+
+            186     192    4657    4660
CTETRA        14       1       9      10    4484       4     180     199+
+            198     201     202     203
CTETRA        15       1       4       9    2401      12     201     204+
+            205     206     193     207
CTETRA        16       1      13      14      15      16     208     209+
+            210     211     212     213
CTETRA        17       1      13      15      17      16     210     214+
+            215     211     213     216
CTETRA        18       1       6       5       4    2402     174     173+
+            172     217     218     219
CTETRA        19       1       6       4    4438    4483     172     157+
+            220     221     222    4672
CTETRA        20       1       3       6    4438    2598     166     220+
+            156     168     167     170
CTETRA        21       1       6    2411    2409    5108     223    2545+
+            224     225    2541    2526
CTETRA        22       1       6    2411    5108    2601     223    2541+
+            225     169     226    2683
CTETRA        23       1       7      18    4450       8     227     228+
+            229     177     230     231
CTETRA        24       1       7    4961    4460    4960     232    4587+
+            233     234    4971    4584
CTETRA        25       1       7    2769      19    2770     235     236+
+            237     238    2863     239
CTETRA        26       1       7      18       8    2384     227     230+
+            177     175     240     176
CTETRA        27       1       7    2383    5130    2762     241    2420+
+            242     243     244    2846
CTETRA        28       1      20       8    4451      21     245     246+
+            247     248     249     250
CTETRA        29       1    2388    2386    5114    2595    2456    2453+
+           2455     251     252    2671
CTETRA        30       1      20    4437      22      23     253     254+
+            255     256     257     258
CTETRA        31       1      24      21      18      20     259     260+
+            261     262     248     263
CTETRA        32       1      20      23      22      25     256     258+
+            255     264     265     266
CTETRA        33       1      26    5049    5233    5232     267    4869+
+            268     269    4863    5240
CTETRA        34       1      27      28    2415      29     270     271+
+            272     273     274     275
CTETRA        35       1      27      28    4466    4469     270     276+
+            277     278     279    4602
CTETRA        36       1      27    2606    4466    4894     280     281+
+            277     282    2742    4632
CTETRA        37       1      27    2613      29    2611     283     284+
+            273     285    2740     286
CTETRA        38       1      27      28    4465    4466     270     287+
+            288     277     276    4607
CTETRA        39       1      27    4894    4466    4476     282    4632+
+            277     289    4636    4637
CTETRA        40       1      27    4465      28      29     288     287+
+            270     273     290     274
CTETRA        41       1      30    3495    5066      31     291    3540+
+            292     293     294     295
CTETRA        42       1      31      32    5065    5066     296     297+
+            298     295     299    5075
CTETRA        43       1      31      30    3495    3499     293     291+
+            294     300     301    3562
CTETRA        44       1      31    5065    3498    3495     298    3553+
+            302     294    3541    3554
CTETRA        45       1      31      32    5063    5064     296     303+
+            304     305     306    5073
CTETRA        46       1      33      34      35      36     307     308+
+            309     310     311     312
CTETRA        47       1      36      34      35    5047     311     308+
+            312     313     314     315
CTETRA        48       1      36    5047    5046      37     313    5056+
+            316     317     318     319
CTETRA        49       1      36      38      39      40     320     321+
+            322     323     324     325
CTETRA        50       1      36      39      41      40     322     326+
+            327     323     325     328
CTETRA        51       1      36      15      37      42     329     330+
+            317     331     332     333
CTETRA        52       1      36      37    5046      42     317     319+
+            316     331     333     334
CTETRA        53       1      41      36    5047    5046     327     313+
+            335     336     316    5056
CTETRA        54       1      41      40      35      36     328     337+
+            338     327     323     312
CTETRA        55       1      36      43      35      33     339     340+
+            312     310     341     309
CTETRA        56       1      44      45    3678    3665     342     343+
+            344     345     346    4030
CTETRA        57       1      11    2761    2414    2760     347     348+
+            349     350    2828     351
CTETRA        58       1      44    3678      45    5093     344     343+
+            342     352    4032     353
CTETRA        59       1      44    3679    5091    3676     354    4037+
+            355     356    4038    4022
CTETRA        60       1    2381       7      46       8     178     357+
+            358     179     177     359
CTETRA        61       1      44    3675    3677    3679     360     361+
+            362     354    4042    4040
CTETRA        62       1       3       4      47    4439     158     363+
+            364     159     160     365
CTETRA        63       1      48    2943      49    2942     366     367+
+            368     369    3183     370
CTETRA        64       1    4901    5242    2604      50    4488     371+
+           2703     372     373     374
CTETRA        65       1      47       5      51      52     375     376+
+            377     378     379     380
CTETRA        66       1      47      50      53      52     381     382+
+            383     378     384     385
CTETRA        67       1      52      47      54      53     378     386+
+            387     385     383     388
CTETRA        68       1      47       5    2600    2602     375     162+
+            389     390     391    2698
CTETRA        69       1      47    4436    5242    4900     392    4490+
+            393     394    4486    4489
CTETRA        70       1      47    2600    4436    4900     389     395+
+            392     394    2681    4486
CTETRA        71       1       7    2381    2383    2384     178    2425+
+            241     175    2432    2433
CTETRA        72       1      15      55      42      53     396     397+
+            332     398     399     400
CTETRA        73       1      15      56      55      57     401     402+
+            396     403     404     405
CTETRA        74       1      57      58      14      15     406     407+
+            408     403     409     209
CTETRA        75       1      59    5259      60    4311     410     411+
+            412     413     414     415
CTETRA        76       1      59    5357      61      60     416     417+
+            418     412     419     420
CTETRA        77       1      59      62    4251      61     421     422+
+            423     418     424     425
CTETRA        78       1    4707    4307    5259      59     426     427+
+           4803     428     429     410
CTETRA        79       1      63    3009    3006    3008     430    3416+
+            431     432    3417    3412
CTETRA        80       1      59    4996    4307    4308     433    4328+
+            429     434    4326    4327
CTETRA        81       1      59      61    5357    4706     418     417+
+            416     435     436    4808
CTETRA        82       1      59    4707    4307    4996     428     426+
+            429     433    4802    4328
CTETRA        83       1      64      65    4178    4183     437     438+
+            439     440     441    4239
CTETRA        84       1      64      65    4183    4179     437     441+
+            440     442     443    4242
CTETRA        85       1      64      66    5352    4181     444     445+
+            446     447     448    4237
CTETRA        86       1    4184      66    4176      64     449     450+
+           4245     451     444     452
CTETRA        87       1      20    2589      22      67     453     454+
+            255     455     456     457
CTETRA        88       1    5022    4708    4381    5021    4811     458+
+           4416    5038    4812    4435
CTETRA        89       1    4705      62    4702      68     459     460+
+           4799     461     462     463
CTETRA        90       1      62      68    4705    4251     462     461+
+            459     422     464     465
CTETRA        91       1      62    4708      61    4706     466     467+
+            424     468    4814     436
CTETRA        92       1      59      62      61    4706     421     424+
+            418     435     468     436
CTETRA        93       1      62      61    4381    4250     424     469+
+            470     471     472     473
CTETRA        94       1      65    4179    5175    4183     443    4240+
+            474     441    4242    4241
CTETRA        95       1    4464      11    2760    2761     475     350+
+            476     477     347    2828
CTETRA        96       1      65    5175      69    5174     474     478+
+            479     480    5181     481
CTETRA        97       1      65      69    5173    5174     479     482+
+            483     480     481    5178
CTETRA        98       1      65    5173      70    4178     483     484+
+            485     438    4218     486
CTETRA        99       1      65    4182      70    5176     487     488+
+            485     489    4230     490
CTETRA       100       1    4686      71    4316    4314     491     492+
+            493     494     495    4376
CTETRA       101       1    4699      72    4685    4686     496     497+
+           4775    4770     498    4725
CTETRA       102       1      72    5001    4701    4315     499    4779+
+            500     501    4369     502
CTETRA       103       1      72    4254    5206    4315     503    4273+
+            504     501     505    4366
CTETRA       104       1      72    4701    5001    4699     500    4779+
+            499     496    4778    4777
CTETRA       105       1      72    4254    4256    5206     503    4282+
+            506     504    4273    4280
CTETRA       106       1      66      73      60      74     507     508+
+            509     510     511     512
CTETRA       107       1      66      75    5192    4176     513     514+
+            515     450     516    4211
CTETRA       108       1      66    5193      73      74     517     518+
+            507     510     519     511
CTETRA       109       1      76    5052    5229    4827     520    4841+
+            521     522    4839    4842
CTETRA       110       1      74      66    5194    5195     510     523+
+            524     525     526    5200
CTETRA       111       1      72      68    4254    4315     527     528+
+            503     501     529     505
CTETRA       112       1      68    4254    4315    4305     528     505+
+            529     530     531    4365
CTETRA       113       1      68    4254    4305    4251     528     531+
+            530     464    4274     532
CTETRA       114       1    4378    4700    5019    4702     533    4782+
+           4394     534    4789    4788
CTETRA       115       1    4702      68    4378    4700     463     535+
+            534    4789     536     533
CTETRA       116       1    2894      77    2914      78     537     538+
+           3056     539     540     541
CTETRA       117       1    4700      68    4378    4380     536     535+
+            533     542     543    4400
CTETRA       118       1      73    5226    4385    5341     544    4428+
+            545     546    5227    4426
CTETRA       119       1      73      74    5327    4252     511     547+
+            548     549     550    4262
CTETRA       120       1      66    5192      73    5193     515     551+
+            507     517    5199     518
CTETRA       121       1      73    4252      61      60     549     552+
+            553     508     554     420
CTETRA       122       1      73    5342    4384    5226     555    4422+
+            556     544    5228    4430
CTETRA       123       1      79    4697    4695    4259     557    4763+
+            558     559     560     561
CTETRA       124       1      79    4979    4696    4690     562    4758+
+            563     564    4757    4759
CTETRA       125       1      79    4979    4313    4696     562    4357+
+            565     563    4758     566
CTETRA       126       1    4312      79    4979    4313     567     562+
+           4359    4358     565    4357
CTETRA       127       1      79    4312    4687    4258     567     568+
+            569     570     571     572
CTETRA       128       1      80    4306    5328    4310     573     574+
+            575     576    4334     577
CTETRA       129       1    4310      80      74    5328     576     578+
+            579     577     575     580
CTETRA       130       1    4259      80    4693    4306     581     582+
+            583     584     573     585
CTETRA       131       1      80    5254    5327    4382     586     587+
+            588     589     590     591
CTETRA       132       1      80    5254      74    5327     586     592+
+            578     588     587     547
CTETRA       133       1    4694      80    4693    4259     593     582+
+           4752     594     581     583
CTETRA       134       1      80    4259    4694    4382     581     594+
+            593     589     595     596
CTETRA       135       1      81      82    5087    5088     597     598+
+            599     600     601    5098
CTETRA       136       1      81    3690      83    3691     602     603+
+            604     605    4089     606
CTETRA       137       1      45      82    5084      81     607     608+
+            609     610     597     611
CTETRA       138       1      81      45    3687    5084     610     612+
+            613     611     609    4069
CTETRA       139       1      81    3687      83    3686     613     614+
+            604     615    4070     616
CTETRA       140       1    5085      81    3496    3499     617     618+
+           3545     619     620     621
CTETRA       141       1      81      82    3499    5087     597     622+
+            620     599     598    3559
CTETRA       142       1      84      85    5349      86     623     624+
+            625     626     627     628
CTETRA       143       1      84      86    5349    4099     626     628+
+            625     629     630    4128
CTETRA       144       1      84    4099      69      86     629     631+
+            632     626     630     633
CTETRA       145       1      84    4101      69    4098     634     635+
+            632     636     637     638
CTETRA       146       1      84    4100    4101    4098     639    4135+
+            634     636    4130     637
CTETRA       147       1      84      69    4096    4094     632     640+
+            641     642     643    4111
CTETRA       148       1      84    5350      86    4094     644     645+
+            626     642    4140     646
CTETRA       149       1      87      88    5280      89     647     648+
+            649     650     651     652
CTETRA       150       1      87      88      89    3680     647     651+
+            650     653     654     655
CTETRA       151       1      87    3673      90    3667     656     657+
+            658     659    4007     660
CTETRA       152       1      87    3672      90    3673     661     662+
+            658     656    4010     657
CTETRA       153       1    5023      61    4384    4381     663     664+
+           4421    4415     469    4418
CTETRA       154       1      61    4683    4381    5023     665     666+
+            469     663    4826    4415
CTETRA       155       1      59      62    4709    4251     421     667+
+            668     423     422     669
CTETRA       156       1      62      68    4378    4702     462     535+
+            670     460     463     534
CTETRA       157       1    5230      26    5231    5050     671     672+
+           5236    4834     673    4835
CTETRA       158       1    4683    4381    4708      61     666     458+
+           4813     665     469     467
CTETRA       159       1      10    2410       4    2401     674     675+
+            202     676    2534     205
CTETRA       160       1       6      91      10    4483     677     678+
+            679     221     680     681
CTETRA       161       1       9       4    4484    4479     201     203+
+            198     200     682    4675
CTETRA       162       1       6    2410      10      91     683     674+
+            679     677     684     678
CTETRA       163       1      92    3585    3593      93     685     686+
+            687     688     689     690
CTETRA       164       1      94      92    3585    3593     691     685+
+            692     693     687     686
CTETRA       165       1      93    3585    3590    3586     689     694+
+            695     696    3711    3729
CTETRA       166       1      93    3583      95    3582     697     698+
+            699     700    3697     701
CTETRA       167       1      93      95    3578    3577     699     702+
+            703     704     705    3725
CTETRA       168       1      93    3576      92      96     706     707+
+            688     708     709     710
CTETRA       169       1      93      92    3599    3593     688     711+
+            712     690     687    3763
CTETRA       170       1      93      92    3585    5273     688     685+
+            689     713     714    3707
CTETRA       171       1      93      92    5273      96     688     714+
+            713     708     710     715
CTETRA       172       1      97    2896    2910    2895     716    3074+
+            717     718    3073    3072
CTETRA       173       1      97    3023      98    3024     719     720+
+            721     722    3483     723
CTETRA       174       1      97    2917      98      78     724     725+
+            721     726     727     728
CTETRA       175       1      97    2917    2912      98     724    3066+
+            729     721     725     730
CTETRA       176       1      97      78    2894    2914     726     539+
+            731     732     541    3056
CTETRA       177       1      59    4706    5357    4707     435    4808+
+            416     428    4807    4804
CTETRA       178       1      97    3022    2895    2894     733    3469+
+            718     731    3468    3070
CTETRA       179       1      97      98    3023      78     721     720+
+            719     726     728     734
CTETRA       180       1      99      94    3598      92     735     736+
+            737     738     691     739
CTETRA       181       1      99    3604    3573    3603     740    3788+
+            741     742    3791    3784
CTETRA       182       1      99      94    3600    3598     735     743+
+            744     737     736    3771
CTETRA       183       1      85      99    3572      94     745     746+
+            747     748     735     749
CTETRA       184       1    3604      99    3572      85     740     746+
+           3789     750     745     747
CTETRA       185       1      99      85    3602    3600     745     751+
+            752     744     753    3777
CTETRA       186       1      99    3602    3604    3603     752     754+
+            740     742    3782    3791
CTETRA       187       1      70    4095      69     100     755     756+
+            757     758     759     760
CTETRA       188       1      65      69      70    5173     479     757+
+            485     483     482     484
CTETRA       189       1      70    5169    5170     100     761    5185+
+            762     758     763     764
CTETRA       190       1      70      69    5176    5351     757     765+
+            490     766     767    5179
CTETRA       191       1      70     100    5351    5169     758     768+
+            766     761     763    5183
CTETRA       192       1     101    5070     102    5069     769     770+
+            771     772    5076     773
CTETRA       193       1     101     102     103    2926     771     774+
+            775     776     777     778
CTETRA       194       1     101    5072     104     105     779     780+
+            781     782     783     784
CTETRA       195       1     101     102     106     103     771     785+
+            786     775     774     787
CTETRA       196       1     101     105    3488     103     782     788+
+            789     775     790     791
CTETRA       197       1     101     105    3490    3488     782     792+
+            793     789     788    3517
CTETRA       198       1     101    5072     106    2945     779     794+
+            786     795    3208     796
CTETRA       199       1     102     107    2926    2904     797     798+
+            777     799     800    3123
CTETRA       200       1     102     107     103    2926     797     801+
+            774     777     798     778
CTETRA       201       1     102    2933    5070    5071     802    3158+
+            770     803    3159    5080
CTETRA       202       1     101    5070     104    5071     769     804+
+            781     805    5080     806
CTETRA       203       1     108    2951     109     110     807     808+
+            809     810     811     812
CTETRA       204       1     108     110    2981    2982     810     813+
+            814     815     816    3317
CTETRA       205       1     108    2981     109    2980     814     817+
+            809     818    3310     819
CTETRA       206       1     108    2983    2979    2978     820    3319+
+            821     822    3320    3305
CTETRA       207       1     108     111     112    2982     823     824+
+            825     815     826     827
CTETRA       208       1      26    5231    5050    5232     672    4835+
+            673     269    5241    4862
CTETRA       209       1    2985     111    2983    2982     828     829+
+           3329    3327     826    3322
CTETRA       210       1     111    2983    2982     108     829    3322+
+            826     823     820     815
CTETRA       211       1     112    2982     110     108     827     816+
+            830     825     815     810
CTETRA       212       1    5051    5050    3001      34    5059    3394+
+           3383     831     832     833
CTETRA       213       1    3616    3631    3626    3620     834    3888+
+           3838    3814     835     836
CTETRA       214       1     113    3618     114    3622     837     838+
+            839     840    3827     841
CTETRA       215       1    5275    3630    3631     113    3868    3870+
+           3872     842     843     844
CTETRA       216       1    3631     115    5276     113     845     846+
+           3873     844     847     848
CTETRA       217       1     116    2749    2764    2748     849    2843+
+            850     851    2778    2842
CTETRA       218       1       7    2762    2770    4960     243    2864+
+            238     234    2867    2865
CTETRA       219       1     113    3630    3631    3625     843    3870+
+            844     852    3869    3871
CTETRA       220       1    3622     113    3625     114     840     852+
+            853     841     839     854
CTETRA       221       1     117    3644     118    3639     855     856+
+            857     858    3912     859
CTETRA       222       1     117     118    3637    3638     857     860+
+            861     862     863    3906
CTETRA       223       1     117     119    3647     120     864     865+
+            866     867     868     869
CTETRA       224       1     117     120    3646    3641     867     870+
+            871     872     873    3924
CTETRA       225       1    3645    3644    3637     117    3915     874+
+           3914     875     855     861
CTETRA       226       1      13      15      58      37     210     409+
+            876     877     330     878
CTETRA       227       1      18    2385      24    2384     879     880+
+            261     240    2443     881
CTETRA       228       1       7      19    2382    2381     237     882+
+            883     178     884    2426
CTETRA       229       1    2765      21    2763      18     885     886+
+           2830     887     260     888
CTETRA       230       1     121    5302    2982    5303     889    3315+
+            890     891    5313    3316
CTETRA       231       1      18    5131    2385    2383     892    2438+
+            879     893    2421    2442
CTETRA       232       1      18       8      21    4450     230     249+
+            260     228     231     894
CTETRA       233       1      18    2383    2762    5131     893     244+
+            895     892    2421    2845
CTETRA       234       1       7      18    2384    2383     227     240+
+            175     241     893    2433
CTETRA       235       1      63     122      43    3009     896     897+
+            898     430     899     900
CTETRA       236       1      35      34      33     122     308     307+
+            309     901     902     903
CTETRA       237       1     122    2990      43    3009     904     905+
+            897     899    3420     900
CTETRA       238       1     122      34    3000    2999     902     906+
+            907     908     909    3376
CTETRA       239       1     122      34    2999    2998     902     909+
+            908     910     911    3370
CTETRA       240       1     122      34      33    2990     902     307+
+            903     904     912     913
CTETRA       241       1      39      42    5045    5044     914     915+
+            916     917     918    5055
CTETRA       242       1      53    5344      55      39     919     920+
+            399     921     922     923
CTETRA       243       1      42      38      39      36     924     321+
+            914     331     320     322
CTETRA       244       1      39      40    5039    2899     325     925+
+            926     927     928    3037
CTETRA       245       1      39    5040    5344    2898     929    5041+
+            922     930    3029    3027
CTETRA       246       1     119     123     124    3632     931     932+
+            933     934     935     936
CTETRA       247       1     119     123     125    3659     931     937+
+            938     939     940     941
CTETRA       248       1     119     123    3658     124     931     942+
+            943     933     932     944
CTETRA       249       1     117     120    3641    3650     867     873+
+            872     945     946    3945
CTETRA       250       1     119     124    3658    3648     933     944+
+            943     947     948    3959
CTETRA       251       1     119    3659     120    3649     939     949+
+            868     950    3972     951
CTETRA       252       1    5272    3572      99      94    3854     746+
+            952     953     749     735
CTETRA       253       1      94      92    5272    3585     691     954+
+            953     692     685    3708
CTETRA       254       1      94      85    5160    5271     748     955+
+            956     957     958    3755
CTETRA       255       1      78    3020    5303    5304     959    3459+
+            960     961    3460    5314
CTETRA       256       1    3636    3612    3580     118    3899     962+
+           3898     963     964     965
CTETRA       257       1     113     115    5276     118     847     846+
+            848     966     967     968
CTETRA       258       1     126     114    3584    5275     969     970+
+            971     972     973    3695
CTETRA       259       1     113     118    5276    3581     966     968+
+            848     974     975    3700
CTETRA       260       1     126    3580     118    3581     976     965+
+            977     978    3706     975
CTETRA       261       1     127     128    3010    3005     979     980+
+            981     982     983    3428
CTETRA       262       1     127    2993    3005    3010     984    3410+
+            982     981    3427    3428
CTETRA       263       1     122     127    2996    2992     985     986+
+            987     988     989    3361
CTETRA       264       1     127    2996    2993    2997     986    3360+
+            984     990    3355    3364
CTETRA       265       1     129     120    3642    3643     991     992+
+            993     994     995    3931
CTETRA       266       1     129     130      89    3653     996     997+
+            998     999    1000    1001
CTETRA       267       1     129     130    3652    3662     996    1002+
+           1003    1004    1005    3981
CTETRA       268       1     129     125    3660     120    1006    1007+
+           1008     991    1009    1010
CTETRA       269       1     129    3642     120    3651     993     992+
+            991    1011    3948    1012
CTETRA       270       1     129    3651     120    3661    1011    1012+
+            991    1013    3977    1014
CTETRA       271       1    5152    3602    5153    5151    3780    1015+
+           5157    5156    3779    1016
CTETRA       272       1      99    3623    3573    3628    1017    3845+
+            741    1018    3859    3858
CTETRA       273       1      99      85    3604    3602     745     750+
+            740     752     751     754
CTETRA       274       1    3604      85    5154    3602     750    1019+
+           3793     754     751    1020
CTETRA       275       1      94    3592    3600    3598    1021    3770+
+            743     736    3758    3771
CTETRA       276       1     111    2936    2949    2937    1022    3196+
+           1023    1024    3168    3195
CTETRA       277       1    5154      86    5151      85    1025    1026+
+           1027    1019     627    1028
CTETRA       278       1      84    5160      85    5350    1029     955+
+            623     644    5168    1030
CTETRA       279       1      86    5154    5350      85    1025    5159+
+            645     627    1019    1030
CTETRA       280       1    4102      86    5154    5350    1031    1025+
+           4144    4143     645    5159
CTETRA       281       1    3614     114    3625    3630    1032     854+
+           3848    1033    1034    3869
CTETRA       282       1     114      96    3621    3617    1035    1036+
+           1037    1038    1039    3830
CTETRA       283       1     114      95    3584    5274    1040    1041+
+            970    1042    1043    3694
CTETRA       284       1     114      95    3617    3619    1040    1044+
+           1038    1045    1046    3801
CTETRA       285       1     113     118    3611    3610     966    1047+
+           1048    1049    1050    3809
CTETRA       286       1    3625     114     113    3630     854     839+
+            852    3869    1034     843
CTETRA       287       1     113     126    5275     114    1051     972+
+            842     839     969     973
CTETRA       288       1     113    3611     126    3618    1048    1052+
+           1051     837    3806    1053
CTETRA       289       1     113    3581     126     118     974     978+
+           1051     966     975     977
CTETRA       290       1     113     126    3581    5275    1051     978+
+            974     842     972    3699
CTETRA       291       1     114      96    5274    3630    1035    1054+
+           1042    1034    1055    3867
CTETRA       292       1      90     125    3682      89    1056    1057+
+           1058    1059    1060    1061
CTETRA       293       1      90    5279     125      89    1062    1063+
+           1056    1059    1064    1060
CTETRA       294       1      90     123    3656    3668    1065    1066+
+           1067    1068    1069    3995
CTETRA       295       1      90    3669     123    3668    1070    1071+
+           1065    1068    3992    1069
CTETRA       296       1     123     124    3632    3633     932     936+
+            935    1072    1073    3884
CTETRA       297       1     123    3658     124    3657     942     944+
+            932    1074    3957    1075
CTETRA       298       1     123     124    3633    3607     932    1073+
+           1072    1076    1077    3881
CTETRA       299       1     123     124    3607    3657     932    1077+
+           1076    1074    1075    3960
CTETRA       300       1    5049      26    5048      34     267    1078+
+           5061    1079    1080    1081
CTETRA       301       1      13      33      26      76    1082    1083+
+           1084    1085    1086    1087
CTETRA       302       1      36      42    5046      41     331     334+
+            316     327    1088     336
CTETRA       303       1      13      15      38      17     210    1089+
+           1090     215     214    1091
CTETRA       304       1      36      15      42      38     329     332+
+            331     320    1089     924
CTETRA       305       1      13      25      16      17    1092    1093+
+            211     215    1094     216
CTETRA       306       1      13      33      76      38    1082    1086+
+           1085    1090    1095    1096
CTETRA       307       1    2760    2414    2400    5136     351    2550+
+           1097    2814    2551    2505
CTETRA       308       1      37      58    5048    4830     878    1098+
+           1099    1100    1101    4865
CTETRA       309       1      75    5191    4175    4172    1102    4207+
+           1103    1104    1105    1106
CTETRA       310       1    2751    2418    5348    5322    1107    2572+
+           2812    1108    2569    5326
CTETRA       311       1      64      65      70    4178     437     485+
+           1109     439     438     486
CTETRA       312       1      64    4177    4176    4178    1110    4217+
+            452     439    4220    4221
CTETRA       313       1      75    4173    4175    4174    1111    1112+
+           1103    1113    4200    4205
CTETRA       314       1      75    5171    4173    4174    1114    1115+
+           1111    1113    4201    4200
CTETRA       315       1     125    5279    3605    5278    1063    3875+
+           1116    1117    5288    3874
CTETRA       316       1    4171    4175    4172    4173    4187    1106+
+           4193    4209    1112    4198
CTETRA       317       1      70      75    4177    4170    1118    1119+
+           1120    1121    1122    4214
CTETRA       318       1      70    5265      75    4173    1123    1124+
+           1118    1125    4197    1111
CTETRA       319       1     130    3653    3652    3663    1000    3952+
+           1002    1126    3986    3985
CTETRA       320       1     130      88      89    5280    1127     651+
+            997    1128     648     652
CTETRA       321       1     130      83    3664    3663    1129    1130+
+           1131    1126    1132    3989
CTETRA       322       1     130    3688      83    3663    1133    1134+
+           1129    1126    4073    1132
CTETRA       323       1     130      83    3688    3685    1129    1134+
+           1133    1135    1136    4076
CTETRA       324       1     104     105    3489    3490     784    1137+
+           1138    1139     792    3518
CTETRA       325       1     104    3489     105     131    1138    1137+
+            784    1140    1141    1142
CTETRA       326       1     101    5069     104    5070     772    1143+
+            781     769    5076     804
CTETRA       327       1     104     131    3485    5092    1140    1144+
+           1145    1146    1147    3527
CTETRA       328       1     104     105    5072    3485     784     783+
+            780    1145    1148    3502
CTETRA       329       1     104    5071    5070    3492     806    5080+
+            804    1149    3523    3524
CTETRA       330       1      31     132     133      30    1150    1151+
+           1152     293    1153    1154
CTETRA       331       1    3486      30    3495    5066    1155     291+
+           3542    3504     292    3540
CTETRA       332       1      32     134    2897    2920    1156    1157+
+           1158    1159    1160    3089
CTETRA       333       1      32     134    2921    2922    1156    1161+
+           1162    1163    1164    3098
CTETRA       334       1      32    5306     133    5063    1165    1166+
+           1167     303    3478    1168
CTETRA       335       1      32    5306     134     133    1165    1169+
+           1156    1167    1166    1170
CTETRA       336       1      20      24      25    2378     262    1171+
+            264    1172    1173    1174
CTETRA       337       1      20       8    2384    2380     245     176+
+           1175    1176    1177    2428
CTETRA       338       1      20      67    2379    2589     455    1178+
+           1179     453     456    1180
CTETRA       339       1      22    4916    2591    2588    1181    2636+
+           1182    1183    2640    2638
CTETRA       340       1      22    4437      67    2591     254    1184+
+            457    1182    1185    1186
CTETRA       341       1      22    2581      25      76    1187    1188+
+            266    1189    1190    1191
CTETRA       342       1      22    2590      25    2581    1192    1193+
+            266    1187    2627    1188
CTETRA       343       1      22      25    2590    2399     266    1193+
+           1192    1194    1195    1196
CTETRA       344       1    2972    2971    2977     135    3296    3295+
+           3294    1197    1198    1199
CTETRA       345       1     109     135    2972    2973    1200    1197+
+           1201    1202    1203    3289
CTETRA       346       1     108     110     109    2981     810     812+
+            809     814     813     817
CTETRA       347       1      90      89    3682    3672    1059    1061+
+           1058     662    1204    4044
CTETRA       348       1      87    3666    3667    3655    1205    4002+
+            659    1206    4001    3998
CTETRA       349       1     123    3669     125    3659    1071    1207+
+            937     940    3994     941
CTETRA       350       1     119    3658     123    3659     943     942+
+            931     939    3973     940
CTETRA       351       1      90     125     123    3669    1056     937+
+           1065    1070    1207    1071
CTETRA       352       1     117    5277     119     115    1208    1209+
+            864    1210    1211    1212
CTETRA       353       1     123    3669    3657    3668    1071    3990+
+           1074    1069    3992    3991
CTETRA       354       1      90     123     125    3605    1065     937+
+           1056    1213    1214    1116
CTETRA       355       1      90    3605     125    5279    1213    1116+
+           1056    1062    3875    1063
CTETRA       356       1     125     120    3659    3660    1009     949+
+            941    1007    1010    3979
CTETRA       357       1      44      87    3671      88    1215    1216+
+           1217    1218     647    1219
CTETRA       358       1      88    3670      45    3683    1220    1221+
+           1222    1223    4055    1224
CTETRA       359       1      44    3670      88    3671    1225    1220+
+           1218    1217    4015    1219
CTETRA       360       1      87      88    3680    3671     647     654+
+            653    1216    1219    4051
CTETRA       361       1    3684    3691    3683      88    4092    4093+
+           4057    1226    1227    1223
CTETRA       362       1      87      89    5280    3654     650     652+
+            649    1228    1229    3967
CTETRA       363       1      83    3684    3685     130    1230    4063+
+           1136    1129    1231    1135
CTETRA       364       1     130    5280      89    3653    1128     652+
+            997    1000    3937    1001
CTETRA       365       1      88      45    3665    5281    1222     346+
+           1232    1233    1234    4000
CTETRA       366       1      88    3687    5281    3664    1235    4066+
+           1233    1236    4067    3984
CTETRA       367       1     115    3634     124    3635    1237    1238+
+           1239    1240    3892    1241
CTETRA       368       1     113     126     114    3618    1051     969+
+            839     837    1053     838
CTETRA       369       1     113    3618    3620    3610     837    3818+
+           1242    1049    3808    3817
CTETRA       370       1     115     124    3634    5277    1239    1238+
+           1237    1211    1243    3887
CTETRA       371       1     115    5276     118    3638     846     968+
+            967    1244    3900     863
CTETRA       372       1     115    3609     124    3648    1245    1246+
+           1239    1247    3940     948
CTETRA       373       1     115    3639     118    3610    1248     859+
+            967    1249    3911    1050
CTETRA       374       1     113    3609     115    3610    1250    1245+
+            847    1049    3819    1249
CTETRA       375       1     136     137    2594    2386    1251    1252+
+           1253    1254    1255    1256
CTETRA       376       1     136    2594    2583    2584    1253    2653+
+           1257    1258    2655    2654
CTETRA       377       1     136     138    2584    2605    1259    1260+
+           1258    1261    1262    2708
CTETRA       378       1     136     137    4445    4444    1251    1263+
+           1264    1265    1266    4527
CTETRA       379       1     136     138    2605    4463    1259    1262+
+           1261    1267    1268    1269
CTETRA       380       1     136     138    4463    4442    1259    1268+
+           1267    1270    1271    4597
CTETRA       381       1     136    2596     137    4444    1272    1273+
+           1251    1265    1274    1266
CTETRA       382       1     136     137    2596    2594    1251    1273+
+           1272    1253    1252    2659
CTETRA       383       1      48      49     139     140     368    1275+
+           1276    1277    1278    1279
CTETRA       384       1      48     141    2975    2956    1280    1281+
+           1282    1283    1284    3281
CTETRA       385       1      48     141    2954    2959    1280    1285+
+           1286    1287    1288    3218
CTETRA       386       1      48     141    2955    2954    1280    1289+
+           1290    1286    1285    3225
CTETRA       387       1      48    2957    2955    2960    1291    3226+
+           1290    1292    3235    3234
CTETRA       388       1      69      86    4099    5268     633     630+
+            631    1293    1294    4126
CTETRA       389       1      69      86    5268     100     633    1294+
+           1293     760    1295    1296
CTETRA       390       1      70     100    5172    4095     758    1297+
+           1298     755     759    4109
CTETRA       391       1    4183      64    4180    4184     440    1299+
+           4243    4249     451    4247
CTETRA       392       1      69      86    4095    4094     633    1300+
+            756     643     646    4112
CTETRA       393       1       3       5       6    2601     163     174+
+            166     164     165     169
CTETRA       394       1       5    5109    2396    2411    1301    2485+
+           1302    1303    2540    2542
CTETRA       395       1       5    5109    2411    2601    1301    2540+
+           1303     165    2692     226
CTETRA       396       1      77    3019    3018    2893    1304    3451+
+           1305    1306    3450    3448
CTETRA       397       1      77    2892    2893    2916    1307    3048+
+           1306    1308    3047    3049
CTETRA       398       1      63     140    2944     139    1309    1310+
+           1311    1312    1279    1313
CTETRA       399       1      63     142     140     143    1314    1315+
+           1309    1316    1317    1318
CTETRA       400       1      43      63     139     143     898    1312+
+           1319    1320    1316    1321
CTETRA       401       1     122     127      63     142     985    1322+
+            896    1323    1324    1314
CTETRA       402       1     127    3008      63    3006    1325     432+
+           1322    1326    3412     431
CTETRA       403       1     144      98    3024     134    1327     723+
+           1328    1329    1330    1331
CTETRA       404       1     144    2987      98     145    1332    1333+
+           1327    1334    1335    1336
CTETRA       405       1     144     106    5306    2988    1337    1338+
+           1339    1340    1341    3345
CTETRA       406       1      44      87    3665    3677    1215    1342+
+            345     362    1343    4027
CTETRA       407       1     130      88    3664      83    1127    1236+
+           1131    1129    1344    1130
CTETRA       408       1      44      88      45    3665    1218    1222+
+            342     345    1232     346
CTETRA       409       1     130      88      83    3684    1127    1344+
+           1129    1231    1226    1230
CTETRA       410       1     129      89     125    5279     998    1060+
+           1006    1345    1064    1063
CTETRA       411       1     129     125    3682    3660    1006    1057+
+           1346    1008    1007    4046
CTETRA       412       1     123     125    3605    5278     937    1116+
+           1214    1347    1117    3874
CTETRA       413       1     129     120    3660    3661     991    1010+
+           1008    1013    1014    3976
CTETRA       414       1     130      89      88    3680     997     651+
+           1127    1348     655     654
CTETRA       415       1     113    3618    3610    3611     837    3808+
+           1049    1048    3806    3809
CTETRA       416       1     125    5278     120    3643    1117    1349+
+           1009    1350    3925     995
CTETRA       417       1      32    2897     134    5306    1158    1157+
+           1156    1165    3479    1169
CTETRA       418       1      74    5328    4309    4310     580    1351+
+           1352     579     577    4338
CTETRA       419       1      66      74      60    5352     510     512+
+            509     445    1353    1354
CTETRA       420       1      74      60    5352    4992     512    1354+
+           1353    1355    1356    4891
CTETRA       421       1     100    4095    4103    5172     759    4145+
+           1357    1297    4109    4147
CTETRA       422       1      74      60    5328    4252     512    1358+
+            580     550     554    4263
CTETRA       423       1      99    5272      92    3628     952     954+
+            738    1018    3855    1359
CTETRA       424       1      93    3599      92    3576     712     711+
+            688     706    3760     707
CTETRA       425       1    4940    4473    4480    2752    4639    4659+
+           4658    2813    1360     190
CTETRA       426       1      92      96    3576    3575     710     709+
+            707    1361    1362    3766
CTETRA       427       1      92      96    3629    5273     710    1363+
+           1364     714     715    3862
CTETRA       428       1      94      85    5271    3572     748     958+
+            957     749     747    3796
CTETRA       429       1     146     147    3016    5300    1365    1366+
+           1367    1368    1369    3437
CTETRA       430       1     146    3005     128    3004    1370     983+
+           1371    1372    3399    1373
CTETRA       431       1     146     128    2994    2890    1371    1374+
+           1375    1376    1377    3359
CTETRA       432       1     146     148    2927    2891    1378    1379+
+           1380    1381    1382    3140
CTETRA       433       1     146     147    2928    2927    1365    1383+
+           1384    1380    1385    3143
CTETRA       434       1     146    3016     148    3015    1367    1386+
+           1378    1387    3443    1388
CTETRA       435       1     146     128    2928     147    1371    1389+
+           1384    1365    1390    1383
CTETRA       436       1    4452      67    4459    4451    1391    1392+
+           4579    4547    1393    4580
CTETRA       437       1    4452    4437    4917    2592    4545    4494+
+           4539    1394    1395    2643
CTETRA       438       1    2592    4437    4917    2591    1395    4494+
+           2643    2644    1185    2637
CTETRA       439       1      67      46    4459       8    1396    1397+
+           1392    1398     359    1399
CTETRA       440       1      67    2380      46       8    1400    1401+
+           1396    1398    1177     359
CTETRA       441       1    2388      67    2380      46    1402    1400+
+           2447    1403    1396    1401
CTETRA       442       1      67      46    2586    2587    1396    1404+
+           1405    1406    1407    2620
CTETRA       443       1      67    2593    2379    2589    1408    1409+
+           1178     456    2647    1180
CTETRA       444       1      65    5176      69    5175     489     765+
+            479     474    5180     478
CTETRA       445       1    3498    3499    3496      31    3564     621+
+           3557     302     300    1410
CTETRA       446       1      81    3499    5085    5086     620     619+
+            617    1411    3560    5102
CTETRA       447       1      81    5087    3499    5086     599    3559+
+            620    1411    5101    3560
CTETRA       448       1      81    5085    3496    5084     617    3545+
+            618     611    5099    3544
CTETRA       449       1      81      45    5088    3691     610    1412+
+            600     605    1413    4091
CTETRA       450       1    2905     107     144    2935    1414    1415+
+           1416    3151    1417    1418
CTETRA       451       1      81      45    3691      83     610    1413+
+            605     604    1419     606
CTETRA       452       1      82      30    3499    3494    1420     301+
+            622    1421    1422    3561
CTETRA       453       1      97     134    2896    3024    1423    1424+
+            716     722    1331    3484
CTETRA       454       1      98     145    2987    5304    1336    1335+
+           1333    1425    1426    3338
CTETRA       455       1     144    5305      98    2987    1427    1428+
+           1327    1332    3343    1333
CTETRA       456       1      69    5351    5268    4099     767    5269+
+           1293     631    4125    4126
CTETRA       457       1    4452    4917    4918    2592    4539    4930+
+           4540    1394    2643    2641
CTETRA       458       1     144     134    3024    5306    1329    1331+
+           1328    1339    1169    3481
CTETRA       459       1     144      98    2913     145    1327    1429+
+           1430    1334    1336    1431
CTETRA       460       1     144      98     134    2913    1327    1330+
+           1329    1430    1429    1432
CTETRA       461       1      98      78    5304    3023     728     961+
+           1425     720     734    3472
CTETRA       462       1     144    3024      98    5305    1328     723+
+           1327    1427    3482    1428
CTETRA       463       1      31     132    3497    5063    1150    1433+
+           1434     304    1435    3546
CTETRA       464       1     132     105     131    3500    1436    1142+
+           1437    1438    1439    1440
CTETRA       465       1     132      82     131      30    1441    1442+
+           1437    1153    1420    1443
CTETRA       466       1      31      82     132      30    1444    1441+
+           1150     293    1420    1153
CTETRA       467       1      69    4096    4095    5173     640    4110+
+            756     482    4113    4108
CTETRA       468       1       6      10    2410       4     679     674+
+            683     172     202     675
CTETRA       469       1       6       4    2410    2402     172     675+
+            683     217     219    2539
CTETRA       470       1    4439    5356      54       4    4509    1445+
+           1446     160    1447    1448
CTETRA       471       1       5      52       4    2402     379    1449+
+            173     218    1450     219
CTETRA       472       1      10       4    4483    4484     202     222+
+            681     199     203    4677
CTETRA       473       1      10      91    2410    2406     678     684+
+            674    1451    1452    2533
CTETRA       474       1       4    2402      12    2401     219    1453+
+            206     205    2513     207
CTETRA       475       1      40      49      41      35    1454    1455+
+            328     337    1456     338
CTETRA       476       1      40      49     139    2900    1454    1275+
+           1457    1458    1459    1460
CTETRA       477       1      39      49    2940      41    1461    1462+
+           1463     326    1455    1464
CTETRA       478       1      40      49    2900    2899    1454    1459+
+           1458     928    1465    3040
CTETRA       479       1      13      33      36      37    1082     310+
+           1466     877    1467     317
CTETRA       480       1      40      38    5039    5343     324    1468+
+            925    1469    1470    5042
CTETRA       481       1     136     138    2393    2391    1259    1471+
+           1472    1473    1474    2475
CTETRA       482       1     138     149    2393    5321    1475    1476+
+           1471    1477    1478    2477
CTETRA       483       1     138     149     150    4461    1475    1479+
+           1480    1481    1482    1483
CTETRA       484       1     138     149    4461    4442    1475    1482+
+           1481    1271    1484    4595
CTETRA       485       1    4462    4467    4461     138    4613    4614+
+           4592    1485    1486    1481
CTETRA       486       1     138     151    5321    5320    1487    1488+
+           1477    1489    1490    5323
CTETRA       487       1      54      52    2404    2402     387    1491+
+           1492    1493    1450    2514
CTETRA       488       1      54    4439      12    4440    1446    1494+
+           1495    1496    4512    1497
CTETRA       489       1      54      57    2758    2405    1498    1499+
+           1500    1501    1502    1503
CTETRA       490       1    2757    2405    2403      12    1504    2521+
+           1505    1506    1507    1508
CTETRA       491       1      54      12    2755    4440    1495    1509+
+           1510    1496    1497    1511
CTETRA       492       1    2758      55      57      54    1512     405+
+           1499    1500    1513    1498
CTETRA       493       1      69    5176    5351    4099     765    5179+
+            767     631    4122    4125
CTETRA       494       1      54    5247      55    5248    1514    1515+
+           1513    1516    5250    1517
CTETRA       495       1      54    5247    2758      55    1514    1518+
+           1500    1513    1515    1512
CTETRA       496       1      54      12    2757    2755    1495    1506+
+           1519    1510    1509    2794
CTETRA       497       1    4462    5332    2609    4924    4594    2716+
+           1520    4593    4935    2717
CTETRA       498       1      55    5344      53    5356     920     919+
+            399    1521    5318    1522
CTETRA       499       1      56    2758      55      57    1523    1512+
+            402     404    1499     405
CTETRA       500       1    5344      55      39    5044     920     923+
+            922    5053    1524     917
CTETRA       501       1      15      42      55      56     332     397+
+            396     401    1525     402
CTETRA       502       1    2581      17    2582      25    1526    1527+
+           2626    1188    1094    1528
CTETRA       503       1      84    4100    5162    5161     639    4129+
+           1529    1530    4131    5166
CTETRA       504       1      51      52    2395      16     380    1531+
+           1532    1533    1534    1535
CTETRA       505       1      51    2599      50      17    1536    1537+
+           1538    1539    1540    1541
CTETRA       506       1      51      50    2599    2603    1538    1537+
+           1536    1542    1543    2691
CTETRA       507       1      51    2397    5110    2582    1544    2482+
+           1545    1546    1547    2615
CTETRA       508       1      51      16      25      17    1533    1093+
+           1548    1539     216    1094
CTETRA       509       1      10    2400      11    2406     181     185+
+            184    1451    2535    1549
CTETRA       510       1      11    4473    2760    2752    1550    1551+
+            350    1552    1360    2816
CTETRA       511       1      11    2760    2414    2400     350     351+
+            349     185    1097    2550
CTETRA       512       1     150    2751    2750    5335    1553    2824+
+           1554    1555    2858    2852
CTETRA       513       1    2760    4477    4473      11    1556    4640+
+           1551     350    1557    1550
CTETRA       514       1     149     152    4446    4445    1558    1559+
+           1560    1561    1562    4519
CTETRA       515       1     149     152    2773    4446    1558    1563+
+           1564    1560    1559    1565
CTETRA       516       1     149    4471     150    4461    1566    1567+
+           1479    1482    4621    1483
CTETRA       517       1    4465     153    4468      28    1568    1569+
+           4606     287    1570    1571
CTETRA       518       1      85    5163    3592    3594    1572    3732+
+           1573    1574    3737    3734
CTETRA       519       1      28     153     150    2417    1570    1575+
+           1576    1577    1578    1579
CTETRA       520       1      27      29    4476    4465     273    1580+
+            289     288     290    4650
CTETRA       521       1      69      86     100    4095     633    1295+
+            760     756    1300     759
CTETRA       522       1    2608      27    4469     151    1581     278+
+           1582    1583    1584    1585
CTETRA       523       1    4469      28    4467     151     279    1586+
+           4609    1585    1587    1588
CTETRA       524       1    2417    2413    2415      28    2565    2559+
+           2573    1577    1589     271
CTETRA       525       1      28     151    2416    2419    1587    1590+
+           1591    1592    1593    2578
CTETRA       526       1      42      41    5045    5046    1088    1594+
+            915     334     336    5054
CTETRA       527       1      39      41    2940    5045     326    1464+
+           1463     916    1594    3174
CTETRA       528       1    2759      54    5247    2758    1595    1514+
+           1596    2800    1500    1518
CTETRA       529       1      12    2405    2403    2404    1507    2521+
+           1508    1597    2522    2512
CTETRA       530       1      13      38      36      33    1090     320+
+           1466    1082    1095     310
CTETRA       531       1      15      55      53      57     396     399+
+            398     403     405    1598
CTETRA       532       1      84    4096    4101    4097     641    4136+
+            634    1599    4116    4134
CTETRA       533       1      13      37      36      15     877     317+
+           1466     210     330     329
CTETRA       534       1      13      15      14      58     210     209+
+            208     876     409     407
CTETRA       535       1      53      38      39      42    1600     321+
+            921     400     924     914
CTETRA       536       1      39      40      38    5039     325     324+
+            321     926     925    1468
CTETRA       537       1     116      58      21      24    1601    1602+
+           1603    1604    1605     259
CTETRA       538       1      20      21      18       8     248     260+
+            263     245     249     230
CTETRA       539       1      24     116    2385      18    1604    1606+
+            880     261    1607     879
CTETRA       540       1      20    2379      67    2380    1179    1178+
+            455    1176    2431    1400
CTETRA       541       1      24      25    2398      14    1171    1608+
+           1609    1610    1611    1612
CTETRA       542       1      24    2398      25    2378    1609    1608+
+           1171    1173    2503    1174
CTETRA       543       1    5016      71    4377    4689    1613    1614+
+           4391    4731    1615    1616
CTETRA       544       1    4703      72    4700    4701    1617    1618+
+           4791    4786     500    4784
CTETRA       545       1      72    4685    4255    4698     497    1619+
+           1620    1621    4773    1622
CTETRA       546       1      71    4689    4688    4377    1615    4722+
+           1623    1614    1616    1624
CTETRA       547       1      79    4690    4688    4687     564    4738+
+           1625     569    4734    4721
CTETRA       548       1    4258      79    4257    4687     570    1626+
+           4296     572     569    1627
CTETRA       549       1    4312    4687    4258    4316     568     572+
+            571    4371    1628    1629
CTETRA       550       1    4687    4258    4316      71     572    1629+
+           1628    1630    1631     492
CTETRA       551       1      72    4314    4686    4699    1632     494+
+            498     496    1633    4770
CTETRA       552       1      71      72    4314    4686    1634    1632+
+            495     491     498     494
CTETRA       553       1     153    4464    4937    2761    1635    4600+
+           1636    1637     477    2821
CTETRA       554       1    2761      11    2414    2412     347     349+
+            348    1638    1639    2555
CTETRA       555       1    4106    4102    4103     100    4158    4146+
+           4159    1640    1641    1357
CTETRA       556       1      86     100    4106    4104    1295    1640+
+           1642    1643    1644    1645
CTETRA       557       1     100    4102    4103    4095    1641    4146+
+           1357     759    4142    4145
CTETRA       558       1      69     100    5268    5351     760    1296+
+           1293     767     768    5269
CTETRA       559       1      64    4177      70      75    1110    1120+
+           1109    1646    1119    1118
CTETRA       560       1      84    5160    5161    3594    1029    5167+
+           1530    1647    1648    1649
CTETRA       561       1      84    5350      85      86     644    1030+
+            623     626     645     627
CTETRA       562       1      94    3588    5160    3597    1650    3756+
+            956    1651    3750    3754
CTETRA       563       1    2609    4463     138    4462    1652    1268+
+           1653    1520    4590    1485
CTETRA       564       1     151    2605    2609    2610    1654    2722+
+           1655    1656    2724    2725
CTETRA       565       1     151    5320    2416    2419    1490    2580+
+           1590    1593    2577    2578
CTETRA       566       1     151    5105    5320    2610    1657    2579+
+           1490    1656    2729    1658
CTETRA       567       1     151     150    5321    2419    1659    1660+
+           1488    1593    1661    2576
CTETRA       568       1      91    4483    4897    4482     680    4671+
+           1662    1663    4679    4678
CTETRA       569       1     126     114    3618    3619     969     838+
+           1053    1664    1045    3803
CTETRA       570       1    3625    3615    3620    3622    3847    3835+
+           1665     853    3833    3828
CTETRA       571       1     114      95      96    3617    1040    1666+
+           1035    1038    1044    1039
CTETRA       572       1     126    3584      95    3580     971    1041+
+           1667     976    3705    1668
CTETRA       573       1      95    5274      96    3582    1043    1054+
+           1666     701    3692    1669
CTETRA       574       1     114      95    5274      96    1040    1043+
+           1042    1035    1666    1054
CTETRA       575       1      95      96    3617    3577    1666    1039+
+           1044     705    1670    3797
CTETRA       576       1      93      95    3577      96     699     705+
+            704     708    1666    1670
CTETRA       577       1     152    2768    2773    2772    1671    2868+
+           1563    1672    2870    2869
CTETRA       578       1       6    2409      91    2597     224    1673+
+            677    1674    1675    1676
CTETRA       579       1     152    4445     137    4448    1562    1263+
+           1677    1678    4533    1679
CTETRA       580       1     136    2387    2391    2389    1680    2466+
+           1473    1681    2460    2474
CTETRA       581       1     152    2771      19    2772    1682    1683+
+           1684    1672    2879    1685
CTETRA       582       1    2389     152     136     137    1686    1687+
+           1681    1688    1677    1251
CTETRA       583       1     136    2392    2391    2386    1689    2469+
+           1473    1254    2471    2465
CTETRA       584       1     137      19    4455    4453    1690    1691+
+           1692    1693    1694    4557
CTETRA       585       1     138    2609     151    2605    1653    1655+
+           1487    1262    2722    1654
CTETRA       586       1     119    3659     125     120     939     941+
+            938     868     949    1009
CTETRA       587       1     129      89    3681    3682     998    1695+
+           1696    1346    1061    4049
CTETRA       588       1     117     115    3638    5277    1210    1244+
+            862    1208    1211    3901
CTETRA       589       1     119     120    5278    3647     868    1349+
+           1697     865     869    3927
CTETRA       590       1     111    2948     145    2984    1698    1699+
+           1700    1701    3325    1702
CTETRA       591       1     111      78    2907     112    1703    1704+
+           1705     824    1706    1707
CTETRA       592       1     111    5304     145      78    1708    1426+
+           1700    1703     961    1709
CTETRA       593       1    2936     111    2906    2937    1022    1710+
+           3167    3168    1024    3169
CTETRA       594       1     108     112    2937    2950     825    1711+
+           1712    1713    1714    3198
CTETRA       595       1     129    3660    3682    3681    1008    4046+
+           1346    1696    4047    4049
CTETRA       596       1     119    5277    5278    3632    1209    5289+
+           1697     934    3880    3879
CTETRA       597       1     119     115    5277     124    1212    1211+
+           1209     933    1239    1243
CTETRA       598       1     115    3635     124    3616    1240    1241+
+           1239    1715    1716    1717
CTETRA       599       1     117     115     118    3638    1210     967+
+            857     862    1244     863
CTETRA       600       1     129    3643    3642    3652     994    3931+
+            993    1003    3951    3953
CTETRA       601       1     120    3647    3646    3642     869    3934+
+            870     992    3930    3932
CTETRA       602       1     135    2963     141    2965    1718    1719+
+           1720    1721    3251    1722
CTETRA       603       1     109     147     135    2973    1723    1724+
+           1200    1202    1725    1203
CTETRA       604       1    2976     154    2973     135    1726    1727+
+           3287    1728    1729    1203
CTETRA       605       1      70    5172     100    5171    1298    1297+
+            758    1730    5182    1731
CTETRA       606       1    3613      96    3575    3621    1732    1362+
+           3820    3824    1036    3822
CTETRA       607       1      96    3629    3630    3624    1363    3865+
+           1055    1733    3864    3866
CTETRA       608       1      93    3582    5273    3585     700    3693+
+            713     689    3709    3707
CTETRA       609       1      84    4098      69    4099     636     638+
+            632     629    4123     631
CTETRA       610       1      92    3575    3576    3598    1361    3766+
+            707     739    3765    3764
CTETRA       611       1    3575      96    3629      92    1362    1363+
+           1734    1361     710    1364
CTETRA       612       1      93      96    3577    3576     708    1670+
+            704     706     709    3761
CTETRA       613       1     111    2906    2917     145    1710    3059+
+           1735    1700    1736    1737
CTETRA       614       1    2907    2906    2917     111    3060    3059+
+           3061    1705    1710    1735
CTETRA       615       1      98     145      78    2917    1336    1709+
+            728     725    1737     727
CTETRA       616       1     144    2913     134     107    1430    1432+
+           1329    1415    1738    1739
CTETRA       617       1     145     111      78    2917    1700    1703+
+           1709    1737    1735     727
CTETRA       618       1      44    5093      45     131     352     353+
+            342    1740    1741    1742
CTETRA       619       1      45     131    5093    5346    1742    1741+
+            353    1743    1744    5104
CTETRA       620       1      45    3687    5281      88     612    4066+
+           1234    1222    1235    1233
CTETRA       621       1      44    3675      87    3677     360    1745+
+           1215     362     361    1343
CTETRA       622       1      87    3674    3667    3666    1746    4017+
+            659    1205    4018    4002
CTETRA       623       1    3687      83      88      45     614    1344+
+           1235     612    1419    1222
CTETRA       624       1     111      78     112     121    1703    1706+
+            824    1747    1748    1749
CTETRA       625       1     111     112    2907    2937     824    1707+
+           1705    1024    1711    3171
CTETRA       626       1      77     112      78     121    1750    1706+
+            540    1751    1749    1748
CTETRA       627       1      78     121    5303    3020    1748     891+
+            960     959    1752    3459
CTETRA       628       1     137    2387    2388    2386    1753    2448+
+           1754    1255    2457    2456
CTETRA       629       1     137    2594    2595    2596    1252    2660+
+           1755    1273    2659    2661
CTETRA       630       1      95    3578    3579    3583     702    3714+
+           1756     698    1757    3702
CTETRA       631       1      46    2388    2586    2595    1403    1758+
+           1404    1759     251    2666
CTETRA       632       1      46    2587    4456    2585    1407    1760+
+           1761    1762    2618    1763
CTETRA       633       1     111    2985     145    5304     828    1764+
+           1700    1708    3337    1426
CTETRA       634       1     144     134    5306     106    1329    1169+
+           1339    1337    1765    1338
CTETRA       635       1     134     107    2913    2923    1739    1738+
+           1432    1766    1767    3100
CTETRA       636       1     134     107    2923     103    1739    1767+
+           1766    1768     801    1769
CTETRA       637       1      28     153      29    4465    1570    1770+
+            274     287    1568     290
CTETRA       638       1      29    4476    4895    2613    1580    4633+
+           1771     284    1772    2745
CTETRA       639       1      91    4475    4482    2612    1773    4663+
+           1663    1774    1775    1776
CTETRA       640       1      91    2408      29    2612    1777    1778+
+           1779    1774    1780    1781
CTETRA       641       1      91    2612    2409    2408    1774    1782+
+           1673    1777    1780    2529
CTETRA       642       1      29    4895    4476    4475    1771    4633+
+           1580    1783    4635    4634
CTETRA       643       1     108    2980    2982    2981     818    3318+
+            815     814    3310    3317
CTETRA       644       1      29    2415      27    2408     275     272+
+            273    1778    2558    1784
CTETRA       645       1      60    5340    5259    5187    1785    5260+
+            411    1786    4888    4887
CTETRA       646       1      60    4252    5208    5328     554    4269+
+           1787    1358    4263    4268
CTETRA       647       1      74      60    4992    4309     512    1356+
+           1355    1352    1788    4331
CTETRA       648       1      60    4311    5340    4992     415    4345+
+           1785    1356    4346    4994
CTETRA       649       1     105     103     133      30     790    1789+
+           1790    1791    1792    1154
CTETRA       650       1      36      41      39      42     327     326+
+            322     331    1088     914
CTETRA       651       1      40      43    5297     139    1793    1794+
+           1795    1457    1319    1796
CTETRA       652       1      48     140     141    2959    1277    1797+
+           1280    1287    1798    1288
CTETRA       653       1      64    4179    4181    4182     442    4228+
+            447    1799    4232    4235
CTETRA       654       1     141    2975    2956    2970    1281    3281+
+           1284    1800    3284    3271
CTETRA       655       1    5328    5354    4306    5204    5331    4335+
+            574    4299    5214    4348
CTETRA       656       1     141    2963    2955    2954    1719    3253+
+           1289    1285    3252    3225
CTETRA       657       1     141     154    2975    2976    1801    1802+
+           1281    1803    1726    3286
CTETRA       658       1     141     140    2944     154    1797    1310+
+           1804    1801    1805    1806
CTETRA       659       1    2944     141      48     140    1804    1280+
+           1807    1310    1797    1277
CTETRA       660       1       8      21    4450    4451     249     894+
+            231     246     250    4549
CTETRA       661       1     127     142    2997     128    1324    1808+
+            990     979    1809    1810
CTETRA       662       1    3004     127      63    3006    1811    1322+
+           1812    3398    1326     431
CTETRA       663       1     122      63     143     142     896    1316+
+           1813    1323    1314    1317
CTETRA       664       1     127     128    3005    3004     979     983+
+            982    1811    1373    3399
CTETRA       665       1      28    2413    2415      29    1589    2559+
+            271     274    1814     275
CTETRA       666       1     142     128    2888    2997    1809    1815+
+           1816    1808    1810    3356
CTETRA       667       1    2995     122    2887     142    1817    1818+
+           3352    1819    1323    1820
CTETRA       668       1     122     127    2995    2996     985    1821+
+           1817     987     986    3354
CTETRA       669       1    5299    3004     128      63    3401    1373+
+           1822    1823    1812    1824
CTETRA       670       1      43      49     139      40    1825    1275+
+           1319    1793    1454    1457
CTETRA       671       1     141     140     155    2953    1797    1826+
+           1827    1828    1829    1830
CTETRA       672       1      49     140     143     139    1278    1318+
+           1831    1275    1279    1321
CTETRA       673       1      77      78     112    2915     540    1706+
+           1750    1832    1833    1834
CTETRA       674       1     112     148     110     121    1835    1836+
+            830    1749    1837    1838
CTETRA       675       1     108     111    2949    2937     823    1023+
+           1839    1712    1024    3195
CTETRA       676       1     111    2937    2907    2906    1024    3171+
+           1705    1710    3169    3060
CTETRA       677       1    2761    4464    4938    2760     477    4601+
+           2829    2828     476    2819
CTETRA       678       1      78    2907     112    2915    1704    1707+
+           1706    1833    3051    1834
CTETRA       679       1     112     110    2939    2951     830    1840+
+           1841    1842     811    3191
CTETRA       680       1      56    2749    2753    2758    1843    2777+
+           1844    1523    2805    2804
CTETRA       681       1    2950    2951     108     112    3200     807+
+           1713    1714    1842     825
CTETRA       682       1     148    5301     110    3014    1845    1846+
+           1836    1847    3444    1848
CTETRA       683       1     148    2952     110     147    1849    1850+
+           1836    1851    1852    1853
CTETRA       684       1     148     147    2927    2952    1851    1385+
+           1379    1849    1852    3189
CTETRA       685       1     146     148     147    2927    1378    1851+
+           1365    1380    1379    1385
CTETRA       686       1     116      56      57    2749    1854     404+
+           1855     849    1843    1856
CTETRA       687       1     116      56    2748      58    1854    1857+
+            851    1601    1858    1859
CTETRA       688       1      24    2377     116      14    1860    1861+
+           1604    1610    1862    1863
CTETRA       689       1     116      58    2748    2764    1601    1859+
+            851     850    1864    2842
CTETRA       690       1     116    5132    2749    2376    1865    2844+
+            849    1866    2435    1867
CTETRA       691       1     116    2376      14    2377    1866    1868+
+           1863    1861    2440    1862
CTETRA       692       1     116    5132    2376    2385    1865    2435+
+           1866    1606    2437    2439
CTETRA       693       1      70    5351    5176    4182     766    5179+
+            490     488    4233    4230
CTETRA       694       1     142    2929     128     155    1869    1870+
+           1809    1871    1872    1873
CTETRA       695       1     142    2888     128    2929    1816    1815+
+           1809    1869    3137    1870
CTETRA       696       1     146    3012    3010    3005    1874    3433+
+           1875    1370    3429    3428
CTETRA       697       1     122      63     127    3008     896    1322+
+            985    1876     432    1325
CTETRA       698       1     127      63     142     128    1322    1314+
+           1324     979    1824    1809
CTETRA       699       1     128     155     147     154    1873    1877+
+           1390    1878    1879    1880
CTETRA       700       1     153    4470    4472    2750    1881    4625+
+           1882    1883    1884    1885
CTETRA       701       1    2392    2584    5347    5115    1886    2669+
+           2473    2472    2667    5118
CTETRA       702       1    2760    4464    4938    4477     476    4601+
+           2819    1556    4652    4644
CTETRA       703       1     153    2750    2418    2412    1883    1887+
+           1888    1889    1890    2570
CTETRA       704       1     153     150    2418    2750    1575    1891+
+           1888    1883    1554    1887
CTETRA       705       1     149    2767    4471    4441    1892    1893+
+           1566    1894    1895    4620
CTETRA       706       1     150    4472    5335    2750    1896    4629+
+           1555    1554    1885    2852
CTETRA       707       1    4471    2751     149     150    1897    1898+
+           1566    1567    1553    1479
CTETRA       708       1     150    2418    2751    5322    1891    1107+
+           1553    1899    2569    1108
CTETRA       709       1     150    4472    4471    5335    1896    4628+
+           1567    1555    4629    4623
CTETRA       710       1      26    5050    5051      34     673    5059+
+           1900    1080     832     831
CTETRA       711       1      34      37      36      33    1901     317+
+            311     307    1467     310
CTETRA       712       1    2990     122      43      33     904     897+
+            905     913     903     341
CTETRA       713       1    5051      34    2990      33     831     912+
+           3378    1902     307     913
CTETRA       714       1      34    3003    3002    5049    1903    3393+
+           1904    1079    3396    3397
CTETRA       715       1      45    5089     131    5088    1905    1906+
+           1742    1412    5097    1907
CTETRA       716       1      82      45    5346     131     607    1743+
+           1908    1442    1742    1744
CTETRA       717       1      81      83    3690    3689     604     603+
+            602    1909    1910    4082
CTETRA       718       1      44      45    3670    5089     342    1221+
+           1225    1911    1905    4024
CTETRA       719       1     101     102    2945     106     771    1912+
+            795     786     785     796
CTETRA       720       1    3500     132    5346     131    1438    1913+
+           3571    1440    1437    1744
CTETRA       721       1     105      30    3487    3488    1791    1914+
+           1915     788    1916    3509
CTETRA       722       1      82    5088     131    3487     601    1907+
+           1442    1917    3535    1918
CTETRA       723       1      70    4173    5169    5265    1125    4194+
+            761    1123    4197    4196
CTETRA       724       1      64    5352      66      75     446     445+
+            444    1646    1919     513
CTETRA       725       1      86    4102    4095    4094    1031    4142+
+           1300     646    4141    4112
CTETRA       726       1      70    5173    5172    4177     484    5177+
+           1298    1120    4222    4215
CTETRA       727       1      64    5265      70    4182    1920    1123+
+           1109    1799    4234     488
CTETRA       728       1     100      70    5171    5170     758    1730+
+           1731     764     762    5184
CTETRA       729       1     100    4107    4103    4106    1921    4162+
+           1357    1640    4163    4159
CTETRA       730       1    4102      86     100    4106    1031    1295+
+           1641    4158    1642    1640
CTETRA       731       1      77    2916    2893    2914    1308    3049+
+           1306     538    3054    3053
CTETRA       732       1     102    2945     106    2946    1912     796+
+            785    1922    3213    1923
CTETRA       733       1     134     103    2923    2922    1768    1769+
+           1766    1164    1924    3103
CTETRA       734       1    2906    2917     145    2913    3059    1737+
+           1736    3062    3065    1431
CTETRA       735       1     101    5071     102    5070     805     803+
+            771     769    5080     770
CTETRA       736       1     107     103    2925    2923     801    1925+
+           1926    1767    1769    3117
CTETRA       737       1     102     103     107     106     774     801+
+            797     785     787    1927
CTETRA       738       1     107     103    2926    2925     801     778+
+            798    1926    1925    3122
CTETRA       739       1     142     155    2930    2929    1871    1928+
+           1929    1869    1872    3138
CTETRA       740       1     142     140     143    2930    1315    1318+
+           1317    1929    1930    1931
CTETRA       741       1     128    2888    2997    2889    1815    3356+
+           1810    1932    3149    3357
CTETRA       742       1     135     155     154     147    1933    1879+
+           1729    1724    1877    1880
CTETRA       743       1     155    2928     147    2966    1934    1383+
+           1877    1935    3257    1936
CTETRA       744       1     128    5300     154     147    1937    1938+
+           1878    1390    1369    1880
CTETRA       745       1     128     155    2928     147    1873    1934+
+           1389    1390    1877    1383
CTETRA       746       1      63     140     142     155    1309    1315+
+           1314    1939    1826    1871
CTETRA       747       1     141     140     154     155    1797    1805+
+           1801    1827    1826    1879
CTETRA       748       1     147     146     128    5300    1365    1371+
+           1390    1369    1368    1937
CTETRA       749       1     154    2973     147    5300    1727    1725+
+           1880    1938    3279    1369
CTETRA       750       1     135     155    2966    2965    1933    1935+
+           1940    1721    1941    3259
CTETRA       751       1      50      17    2599    5333    1541    1540+
+           1537    1942    1943    2677
CTETRA       752       1      51      17    2582    2599    1539    1527+
+           1546    1536    1540    2675
CTETRA       753       1      50      52      16      53     384    1534+
+           1944     382     385    1945
CTETRA       754       1       3      47       4       5     364     363+
+            158     163     375     173
CTETRA       755       1    4098    5175    4100    4101    4133    4139+
+           4130     637    4138    4135
CTETRA       756       1      47       4    5356    4439     363    1447+
+           1946     365     160    4509
CTETRA       757       1      50    2603    4901    2599    1543    2705+
+            372    1537    2691    2704
CTETRA       758       1    5242    2604      50      47     371     374+
+            373     393    1947     381
CTETRA       759       1      97    3022    2896    2895     733    3476+
+            716     718    3469    3073
CTETRA       760       1      77    3017     121    3020    1948    1949+
+           1751    1950    3466    1752
CTETRA       761       1     112     148    2909    2939    1835    1951+
+           1952    1841    1953    3162
CTETRA       762       1     121     110    2982    5302    1838     816+
+            890     889    1954    3315
CTETRA       763       1     121     110    5302    3014    1838    1954+
+            889    1955    1848    3445
CTETRA       764       1     117     115     119    3648    1210    1212+
+            864    1956    1247     947
CTETRA       765       1     126    5275    3584    3581     972    3695+
+            971     978    3699    3704
CTETRA       766       1     113    3631    5275    5276     844    3872+
+            842     848    3873    5284
CTETRA       767       1    3622    3625     113    3620     853     852+
+            840    3828    1665    1242
CTETRA       768       1     113    3616     115    3609    1957    1715+
+            847    1250    3812    1245
CTETRA       769       1     117     115    3648    3639    1210    1247+
+           1956     858    1248    3939
CTETRA       770       1    2913     107     144    2905    1738    1415+
+           1430    3063    1414    1416
CTETRA       771       1    2904     107    2905    2935     800    1414+
+           3095    3154    1417    3151
CTETRA       772       1    2986     144    2946    2935    1958    1959+
+           3334    1960    1418    1961
CTETRA       773       1     103    5067      30    3488    1962    1963+
+           1792     791    3505    1916
CTETRA       774       1      32     133     103      30    1167    1789+
+           1964    1965    1154    1792
CTETRA       775       1     134     107     103     106    1739     801+
+           1768    1765    1927     787
CTETRA       776       1     102     106     107    2946     785    1927+
+            797    1922    1923    1966
CTETRA       777       1      32     134     103     133    1156    1768+
+           1964    1167    1170    1789
CTETRA       778       1     134     103     133     106    1768    1789+
+           1170    1765     787    1967
CTETRA       779       1     101     105     103     133     782     790+
+            775    1968    1790    1789
CTETRA       780       1      32      30    5067    5066    1965    1963+
+           1969     299     292    5077
CTETRA       781       1     101     103     106     133     775     787+
+            786    1968    1789    1967
CTETRA       782       1     132     105     133      30    1436    1790+
+           1151    1153    1791    1154
CTETRA       783       1     134     106     133    5306    1765    1967+
+           1170    1169    1338    1166
CTETRA       784       1     132     133    3500    5345    1151    1970+
+           1438    1971    1972    3568
CTETRA       785       1     133    2989     106    5072    1973    1974+
+           1967    1975    3349     794
CTETRA       786       1     133     106    2989    5306    1967    1974+
+           1973    1166    1338    3347
CTETRA       787       1      31     133     132    5063    1152    1151+
+           1150     304    1168    1435
CTETRA       788       1      81    3496    3499      82     618     621+
+            620     597    1976     622
CTETRA       789       1      81    3689    5087    5086    1909    4085+
+            599    1411    4080    5101
CTETRA       790       1      81      82    5088      45     597     601+
+            600     610     607    1412
CTETRA       791       1      83    3664    3663    3686    1130    3989+
+           1132     616    4064    4065
CTETRA       792       1      83    3689    3686    3688    1910    4077+
+            616    1134    4078    4074
CTETRA       793       1      81    3686    5085    3687     615    4072+
+            617     613    4070    4071
CTETRA       794       1      81    3691    5087    3690     605    4090+
+            599     602    4089    4086
CTETRA       795       1      82     132     131    5346    1441    1437+
+           1442    1908    1913    1744
CTETRA       796       1     137    4448    4447    4453    1679    4531+
+           1977    1693    4559    4560
CTETRA       797       1      19    4454    4962    4455    1978    4552+
+           1979    1691    4556    4554
CTETRA       798       1       7    2383    2381    2382     241    2425+
+            178     883    2424    2426
CTETRA       799       1       8    4459    4460    4458    1399    4582+
+           1980    1981    4578    4585
CTETRA       800       1       7    4450      18    2763     229     228+
+            227    1982    1983     888
CTETRA       801       1      46    4453    4456    4458    1984    4567+
+           1761    1985    4575    4573
CTETRA       802       1     137    4447      46    4453    1977    1986+
+           1987    1693    4560    1984
CTETRA       803       1      46    2381       8    2380     358     179+
+            359    1401    2434    1177
CTETRA       804       1    2606    2608      27    4469    2713    1581+
+            280    1988    1582     278
CTETRA       805       1      63     140     155     154    1309    1826+
+           1939    1989    1805    1879
CTETRA       806       1    3594    5161    3597    5160    1649    3753+
+           1990    1648    5167    3754
CTETRA       807       1      63    2944     140     154    1311    1310+
+           1309    1989    1806    1805
CTETRA       808       1     144    2987    2986    2988    1332    3336+
+           1958    1340    3342    3341
CTETRA       809       1     142    2995    2997    2888    1819    3353+
+           1808    1816    3351    3356
CTETRA       810       1      40      35      43      49     337     340+
+           1793    1454    1456    1825
CTETRA       811       1    2935    2948    2947    2986    3203    3205+
+           3204    1960    1991    3333
CTETRA       812       1    2886      35    2931    2887    1992    1993+
+           3127    3128    1994    3126
CTETRA       813       1      35    2931    2887     143    1993    3126+
+           1994    1995    1996    1997
CTETRA       814       1     143     122      43      63    1813     897+
+           1320    1316     896     898
CTETRA       815       1    2998      35    2887     122    1998    1994+
+           3366     910     901    1818
CTETRA       816       1      35    2887     122     143    1994    1818+
+            901    1995    1997    1813
CTETRA       817       1    2982     111     112     121     826     824+
+            827     890    1747    1749
CTETRA       818       1     109     147    2973    5301    1723    1725+
+           1202    1999    2000    3311
CTETRA       819       1     108    2961    2967    2968    2001    3264+
+           2002    2003    3266    3265
CTETRA       820       1      77     112     148    2909    1750    1835+
+           2004    2005    1952    1951
CTETRA       821       1    2914    2915    2919      97    3058    3077+
+           3079     732    2006    2007
CTETRA       822       1     146     148    3013    3015    1378    2008+
+           2009    1387    1388    3442
CTETRA       823       1     109     110    5301    2981     812    1846+
+           1999     817     813    3313
CTETRA       824       1     148     147     110    5301    1851    1853+
+           1836    1845    2000    1846
CTETRA       825       1     109    2952     110    2951    2010    1850+
+            812     808    3194     811
CTETRA       826       1     148    2939     110    2952    1953    1840+
+           1836    1849    3193    1850
CTETRA       827       1     105     133    5072    3500    1790    1975+
+            783    1439    1970    3566
CTETRA       828       1     105     131    3489    3487    1142    1141+
+           1137    1915    1918    3512
CTETRA       829       1      44     131    5091    5092    1740    2011+
+            355    2012    1147    5096
CTETRA       830       1      31      82      30    3499    1444    1420+
+            293     300     622     301
CTETRA       831       1      32    5066    5067    2922     299    5077+
+           1969    1163    3112    3113
CTETRA       832       1     105     131    3500    3485    1142    1440+
+           1439    1148    1144    3567
CTETRA       833       1     101    3488    3490    5068     789    3517+
+            793    2013    3506    3515
CTETRA       834       1     104    3493    3491    3492    2014    3530+
+           2015    1149    3533    3534
CTETRA       835       1    5300     146     128    3004    1368    1371+
+           1937    3402    1372    1373
CTETRA       836       1     146    2994     128    3010    1375    1374+
+           1371    1875    3425     980
CTETRA       837       1      63     154    5299    2944    1989    2016+
+           1823    1311    1806    3185
CTETRA       838       1     140    2959     143    2930    1798    2017+
+           1318    1930    3219    1931
CTETRA       839       1     143      49     139      43    1831    1275+
+           1321    1320    1825    1319
CTETRA       840       1      40      35      36      43     337     312+
+            323    1793     340     339
CTETRA       841       1      36      40      43      38     323    1793+
+            339     320     324    2018
CTETRA       842       1    5297    3009      63      43    3415     430+
+           2019    1794     900     898
CTETRA       843       1      41    2886    5047      35    2020    3377+
+            335     338    1992     315
CTETRA       844       1    5046      41    2886    5047     336    2020+
+           3135    5056     335    3377
CTETRA       845       1      34    3003    3000    2999    1903    3390+
+            906     909    3392    3376
CTETRA       846       1     122      34    2998      35     902     911+
+            910     901     308    1998
CTETRA       847       1      37    5048      34    5047    1099    1081+
+           1901     318    5058     314
CTETRA       848       1      48      49    2958    2941     368    2021+
+           2022    2023    2024    3233
CTETRA       849       1      34      26      33    5051    1080    1083+
+            307     831    1900    1902
CTETRA       850       1      35    2931      41    2886    1993    2025+
+            338    1992    3127    2020
CTETRA       851       1     144    2987    2988    5305    1332    3342+
+           1340    1427    3343    3344
CTETRA       852       1     101     102    2926    5069     771     777+
+            776     772     773    3119
CTETRA       853       1     133    5072    5345    2989    1975    5082+
+           1972    1973    3349    3350
CTETRA       854       1    3487      30     105     131    1914    1791+
+           1915    1918    1443    1142
CTETRA       855       1     106    2988    2946    2945    1341    3339+
+           1923     796    3340    3213
CTETRA       856       1     144     145    2935    2986    1334    2026+
+           1418    1958    2027    1960
CTETRA       857       1     135    2977    2970    2969    1199    3290+
+           2028    2029    3291    3274
CTETRA       858       1      37    5046    4955    5047     319    4856+
+           2030     318    5056    4857
CTETRA       859       1      37      42    4829    5046     333    2031+
+           2032     319     334    4858
CTETRA       860       1      55    4829      42    5045    2033    2031+
+            397    2034    4860     915
CTETRA       861       1      49      41      35    2931    1455     338+
+           1456    2035    2025    1993
CTETRA       862       1      50    2602    2603      51    2036    2697+
+           1543    1538    2037    1542
CTETRA       863       1      51    2397      16    2395    1544    2038+
+           1533    1532    2487    1535
CTETRA       864       1    2394      57    2395    2404    2039    2040+
+           2495    2518    2041    2517
CTETRA       865       1      57    2395    2404      52    2040    2517+
+           2041    2042    1531    1491
CTETRA       866       1      54      52      57    2404     387    2042+
+           1498    1492    1491    2041
CTETRA       867       1      16      53      57      15    1945    1598+
+           2043     213     398     403
CTETRA       868       1     116    2749      57    2376     849    1856+
+           1855    1866    1867    2044
CTETRA       869       1      55      42    4829      56     397    2031+
+           2033     402    1525    2045
CTETRA       870       1      56    2758      57    2749    1523    1499+
+            404    1843    2805    1856
CTETRA       871       1     116    2748      56    2749     851    1857+
+           1854     849    2778    1843
CTETRA       872       1      55    2758      56    5247    1512    1523+
+            402    1515    1518    2046
CTETRA       873       1    4829    2753    5247      56    2047    2048+
+           4861    2045    1844    2046
CTETRA       874       1     136    2584    2392    2594    1258    1886+
+           1689    1253    2655    2049
CTETRA       875       1      37      56      58    4955    2050    1858+
+            878    2030    2051    2052
CTETRA       876       1      56    2748      58    4955    1857    1859+
+           1858    2051    2774    2052
CTETRA       877       1     128    2928     155    2929    1389    1934+
+           1873    1870    3150    1872
CTETRA       878       1      48     139      49    2943    1276    1275+
+            368     366    2053     367
CTETRA       879       1     143     140      49    2959    1318    1278+
+           1831    2017    1798    2054
CTETRA       880       1      49      41    2932    2940    1455    2055+
+           2056    1462    1464    3231
CTETRA       881       1      63    5299    3006    5298    1823    3403+
+            431    2057    5309    3404
CTETRA       882       1     122    3000      34    2991     907     906+
+            902    2058    3372    2059
CTETRA       883       1     122    2998    2995    2887     910    3368+
+           1817    1818    3366    3352
CTETRA       884       1      24      14    2398    2377    1610    1612+
+           1609    1860    1862    2491
CTETRA       885       1      13      76      25      17    1085    1191+
+           1092     215    2060    1094
CTETRA       886       1      25      23      76      26     265    2061+
+           1191    2062    2063    1087
CTETRA       887       1      24      23      25      26    2064     265+
+           1171    2065    2063    2062
CTETRA       888       1      22      23    5230      76     258    2066+
+           2067    1189    2061    2068
CTETRA       889       1      22    5230      23    4437    2067    2066+
+            258     254    4495     257
CTETRA       890       1      24      58      21      26    1605    1602+
+            259    2065    2069    2070
CTETRA       891       1      23      26    5232    5231    2063     269+
+           2071    2072     672    5241
CTETRA       892       1     136    4463    2583    4443    1267    2073+
+           1257    2074    4599    2075
CTETRA       893       1      26      76    5230      23    1087    2068+
+            671    2063    2061    2066
CTETRA       894       1      13      36      38      15    1466     320+
+           1090     210     329    1089
CTETRA       895       1      26    5051    5230      76    1900    4836+
+            671    1087    2076    2068
CTETRA       896       1     122      63    3008    3009     896     432+
+           1876     899     430    3417
CTETRA       897       1      33    5052      76      38    2077     520+
+           1086    1095    2078    1096
CTETRA       898       1     136     149    4442    4445    2079    1484+
+           1270    1264    1561    4518
CTETRA       899       1     121    3021    3020    3017    2080    3465+
+           1752    1949    3462    3466
CTETRA       900       1      52    2396    2395    2402    2081    2488+
+           1531    1450    2516    2515
CTETRA       901       1      51      52    2396    2395     380    2081+
+           2082    1532    1531    2488
CTETRA       902       1      47      53      50    5242     383     382+
+            381     393    2083     373
CTETRA       903       1      53      17    5333    5039    2084    1943+
+           2085    2086    2087    4847
CTETRA       904       1      34    2999    2998    3002     909    3370+
+            911    1904    3387    3386
CTETRA       905       1    5051      26      33      76    1900    1083+
+           1902    2076    1087    1086
CTETRA       906       1    5234      26      21      58    2088    2070+
+           2089    2090    2069    1602
CTETRA       907       1      22      25      23      76     266     265+
+            258    1189    1191    2061
CTETRA       908       1    5050      26    5051    5230     673    1900+
+           5059    4834     671    4836
CTETRA       909       1      13      25      26      14    1092    2062+
+           1084     208    1611    2091
CTETRA       910       1     116    2765    5132    2385    2092    2849+
+           1865    1606    2093    2437
CTETRA       911       1    2595    5114    2594    2386    2671    2672+
+           2660     252    2453    1256
CTETRA       912       1      39    2940    2898    5044    1463    3175+
+            930     917    3173    3028
CTETRA       913       1      15      56      57      58     401     404+
+            403     409    1858     406
CTETRA       914       1      56    4955    2753    2748    2051    2779+
+           1844    1857    2774    2776
CTETRA       915       1      37    5046    4829    4955     319    4858+
+           2032    2030    4856    4854
CTETRA       916       1      58    5048    4830    5234    1098    4865+
+           1101    2090    4871    4868
CTETRA       917       1      25      17      76    2581    1094    2060+
+           1191    1188    1526    1190
CTETRA       918       1      22      76    2588    2581    1189    2094+
+           1183    1187    1190    2634
CTETRA       919       1      76    2588    5230      22    2094    2095+
+           2068    1189    1183    2067
CTETRA       920       1      25    2399    2398    2397    1195    2502+
+           1608    2096    2501    2494
CTETRA       921       1     137    4447    4921    2595    1977    4528+
+           2097    1755    2098    2664
CTETRA       922       1      21      58    2764    5234    1602    1864+
+           2099    2089    2090    2100
CTETRA       923       1      49      41    2931    2932    1455    2025+
+           2035    2056    2055    3134
CTETRA       924       1      33    5051      76    5052    1902    2076+
+           1086    2077    5057     520
CTETRA       925       1      76    5051    5229    5052    2076    4837+
+            521     520    5057    4841
CTETRA       926       1      21      23      26    5232    2101    2063+
+           2070    2102    2071     269
CTETRA       927       1      54      12    2402    2404    1495    1453+
+           1493    1492    1597    2514
CTETRA       928       1      76      17      38    4827    2060    1091+
+           1096     522    2103    2104
CTETRA       929       1      17    2581    4912    4827    1526    2673+
+           2105    2103    2106    4844
CTETRA       930       1      51    2602    5110    2396    2037    2696+
+           1545    2082    2107    2484
CTETRA       931       1      52      16      53      57    1534    1945+
+            385    2042    2043    1598
CTETRA       932       1      39      53    5039      38     921    2086+
+            926     321    1600    1468
CTETRA       933       1      17    2581    2599    4912    1526    2674+
+           1540    2105    2673    2676
CTETRA       934       1      17    5333    5039    4828    1943    4847+
+           2087    2108    4848    4845
CTETRA       935       1      53      17    5039      38    2084    2087+
+           2086    1600    1091    1468
CTETRA       936       1    5333      53    5243      50    2085    2109+
+           5244    1942     382    2110
CTETRA       937       1      51      50      16      17    1538    1944+
+           1533    1539    1541     216
CTETRA       938       1    5333      17    4912    4828    1943    2105+
+           4914    4848    2108    4850
CTETRA       939       1      16      14    2394    2398     212    2111+
+           2112    2113    1612    2490
CTETRA       940       1      57      16    2394    2395    2043    2112+
+           2039    2040    1535    2495
CTETRA       941       1    2765      21      18     116     885     260+
+            887    2092    1603    1607
CTETRA       942       1       5    2602      51    2396     391    2037+
+            376    1302    2107    2082
CTETRA       943       1      54    2402       4      52    1493     219+
+           1448     387    1450    1449
CTETRA       944       1      13      25      76      26    1092    1191+
+           1085    1084    2062    1087
CTETRA       945       1    5049    5233    5048      26    4869    4870+
+           5061     267     268    1078
CTETRA       946       1      58    2764    5234    2748    1864    2100+
+           2090    1859    2842    2114
CTETRA       947       1      15      58      37      56     409     878+
+            330     401    1858    2050
CTETRA       948       1      26      14      24      58    2091    1610+
+           2065    2069     407    1605
CTETRA       949       1     112    2937    2950    2938    1711    3198+
+           1714    2115    3172    3199
CTETRA       950       1     116      21      18      24    1603     260+
+           1607    1604     259     261
CTETRA       951       1      24      26      21      23    2065    2070+
+            259    2064    2063    2101
CTETRA       952       1      13      76      17      38    1085    2060+
+            215    1090    1096    1091
CTETRA       953       1      41    2932    5045    5046    2055    3132+
+           1594     336    3131    5054
CTETRA       954       1      39    5040      53    5344     929    2116+
+            921     922    5041     919
CTETRA       955       1      39      40    2899      49     325     928+
+            927    1461    1454    1465
CTETRA       956       1      53    5040    5039    5243    2116    5043+
+           2086    2109    4832    4838
CTETRA       957       1      14    2398    2377    2394    1612    2491+
+           1862    2111    2490    2489
CTETRA       958       1      12    2754    2403    2757     197    2117+
+           1508    1506    2795    1505
CTETRA       959       1      12    4440    4942    2755    1497    4654+
+           2118    1509    1511    2781
CTETRA       960       1       9    4480    4479    4484     186    4661+
+            200     198    4680    4675
CTETRA       961       1      12    4479    4942    4440    2119    4655+
+           2118    1497    4656    4654
CTETRA       962       1    4940    2752    4480    4941    2813     190+
+           4658    4949    2787    4660
CTETRA       963       1      11    4478     153    4464    2120    2121+
+           2122     475    4653    1635
CTETRA       964       1      10      11      91    2406     184    2123+
+            678    1451    1549    1452
CTETRA       965       1       4    4479      12    4439     682    2119+
+            206     160    4673    1494
CTETRA       966       1    4440    5356      54    4439    4511    1445+
+           1496    4512    4509    1446
CTETRA       967       1       9    2756      12    4479     195     194+
+            193     200    2124    2119
CTETRA       968       1      10       4       9    2401     202     201+
+            180     676     205     204
CTETRA       969       1      10    4481    4480    4484    2125    4667+
+            187     199    4681    4680
CTETRA       970       1      11    2752    2760    2400    1552    2816+
+            350     185    2126    1097
CTETRA       971       1      11    4477    4473    4474    1557    4640+
+           1550    2127    4642    4641
CTETRA       972       1    4477      11    2760    4464    1557     350+
+           1556    4652     475     476
CTETRA       973       1      11    4477    4474    4478    1557    4642+
+           2127    2120    4646    4645
CTETRA       974       1    4477    4938    2760    4939    4644    2819+
+           1556    4643    4951    2818
CTETRA       975       1     110    5301    5302    3014    1846    5312+
+           1954    1848    3444    3445
CTETRA       976       1      27      29    2613    4476     273     284+
+            283     289    1580    1772
CTETRA       977       1      10    4481    4484    4483    2125    4681+
+            199     681    4682    4677
CTETRA       978       1      11      29    4478    4474    2128    2129+
+           2120    2127    2130    4645
CTETRA       979       1     151    2609    4462    5332    1655    1520+
+           2131    2132    2716    4594
CTETRA       980       1     151    4467    4469    4462    1588    4609+
+           1585    2131    4613    4612
CTETRA       981       1      91    2612    4482    4897    1774    1776+
+           1663    1662    2732    4678
CTETRA       982       1       9      11    2752    4473     183    1552+
+            191     188    1550    1360
CTETRA       983       1      47      54      53    5356     386     388+
+            383    1946    1445    1522
CTETRA       984       1       4    4484    4438    4483     203    4676+
+            157     222    4677    4672
CTETRA       985       1      12    4942    4479    2756    2118    4655+
+           2119     194    2791    2124
CTETRA       986       1       9    2400    2403    2752     182    2508+
+           2133     191    2126    2134
CTETRA       987       1      11     153    4478      29    2122    2121+
+           2120    2128    1770    2129
CTETRA       988       1      29    4478    4474    4475    2129    4645+
+           2130    1783    4647    4649
CTETRA       989       1    4470    4465     153    4468    4617    1568+
+           1881    4618    4606    1569
CTETRA       990       1       6    2410    2409    2411     683    2537+
+            224     223    2544    2545
CTETRA       991       1    4470    4472    2750    4936    4625    1885+
+           1884    4631    4630    2823
CTETRA       992       1     150    4472    4467    4471    1896    4626+
+           2135    1567    4628    4627
CTETRA       993       1     150     151     138    4467    1659    1487+
+           1480    2135    1588    1486
CTETRA       994       1    4467      28     153     150    1586    1570+
+           2136    2135    1576    1575
CTETRA       995       1     153    2418     150    2417    1888    1891+
+           1575    1578    2568    1579
CTETRA       996       1      27    2606    4469    4466     280    1988+
+            278     277     281    4602
CTETRA       997       1      27      28     151    2416     270    1587+
+           1584    2137    1591    1590
CTETRA       998       1      27    4466    4465    4476     277    4607+
+            288     289    4637    4650
CTETRA       999       1     153    4470    2750    4937    1881    1884+
+           1883    1636    4616    2822
CTETRA      1000       1      29    4478    4476    4465    2129    4648+
+           1580     290    4651    4650
CTETRA      1001       1      27    4476    2613    4894     289    1772+
+            283     282    4636    2743
CTETRA      1002       1      29     153      28    2413    1770    1570+
+            274    1814    2138    1589
CTETRA      1003       1    4469    2606    4893    4466    1988    2719+
+           4604    4602     281    4603
CTETRA      1004       1      28     151    2419     150    1587    1593+
+           1592    1576    1659    1661
CTETRA      1005       1      91    4481    4482    4474    2139    4669+
+           1663    2140    4666    4668
CTETRA      1006       1    4938    4937    4464    2761    4953    4600+
+           4601    2829    2821     477
CTETRA      1007       1      91    2598    2597    2612    2141    2684+
+           1676    1774    2731    2738
CTETRA      1008       1    4476    4894    4895    2613    4636    4910+
+           4633    1772    2743    2745
CTETRA      1009       1    4475    4482    2612    4896    4663    1776+
+           1775    4662    4664    2744
CTETRA      1010       1      10      11    4481      91     184    2142+
+           2125     678    2123    2139
CTETRA      1011       1      27      29    2408    2611     273    1778+
+           1784     285     286    2143
CTETRA      1012       1      12    4439    4479    4440    1494    4673+
+           2119    1497    4512    4656
CTETRA      1013       1    4483    4897    4898    2598    4671    4907+
+           4670    2144    2730    2687
CTETRA      1014       1      10    4481      11    4473    2125    2142+
+            184     189    4665    1550
CTETRA      1015       1      28    2415    2417    2419     271    2573+
+           1577    1592    2575    2574
CTETRA      1016       1     150    4467    4472     153    2135    4626+
+           1896    1575    2136    1882
CTETRA      1017       1      28    4469    4468    4466     279    4608+
+           1571     276    4602    4605
CTETRA      1018       1     149     150    5322    5321    1479    1899+
+           2145    1478    1660    5325
CTETRA      1019       1     149    4461    4441    4471    1482    4596+
+           1894    1566    4621    4620
CTETRA      1020       1     149    4461    4442    4441    1482    4595+
+           1484    1894    4596    4520
CTETRA      1021       1    4471    4441    2767    4966    4620    1895+
+           1893    4622    4516    2857
CTETRA      1022       1    2611    4895      29    2612    2747    1771+
+            286    2737    2746    1781
CTETRA      1023       1      11      29      91    2407    2128    1779+
+           2123    2146    2147    2148
CTETRA      1024       1    4483    4438    2598    4898    4672     170+
+           2144    4670    4502    2687
CTETRA      1025       1     149    4442    4446    4441    1484    4517+
+           1560    1894    4520    4514
CTETRA      1026       1     150    5322    5321    2417    1899    5325+
+           1660    1579    2566    2567
CTETRA      1027       1     152     137    2389      19    1677    1688+
+           1686    1684    1690    2149
CTETRA      1028       1      19    4454    4455    4453    1978    4556+
+           1691    1694    4558    4557
CTETRA      1029       1     152    2772      19    2390    1672    1685+
+           1684    2150    2151    2152
CTETRA      1030       1     152    4448    4455    4449    1678    4561+
+           2153    2154    4534    4563
CTETRA      1031       1      19    4455    4962    2771    1691    4554+
+           1979    1683    2155    2875
CTETRA      1032       1      20      67      22    4437     455     457+
+            255     253    1184     254
CTETRA      1033       1     138    4461    4462    4463    1481    4592+
+           1485    1268    4591    4590
CTETRA      1034       1     137    4444    4921    4447    1266    4524+
+           2097    1977    4530    4528
CTETRA      1035       1    4453     137    4448    4455    1693    1679+
+           4559    4557    1692    4561
CTETRA      1036       1     136    4442    4463    4443    1270    4597+
+           1267    2074    4526    4599
CTETRA      1037       1    4455    2771    4449    4963    2155    2156+
+           4563    4555    2874    4562
CTETRA      1038       1     136    4444    4445    4443    1265    4527+
+           1264    2074    4522    4525
CTETRA      1039       1     149     152    2393    2390    1558    2157+
+           1476    2158    2150    2479
CTETRA      1040       1    4468    4469      28    4467    4608     279+
+           1571    4610    4609    1586
CTETRA      1041       1     152    4446    4964    2773    1559    4536+
+           2159    1563    1565    2876
CTETRA      1042       1     137    2388      46    2595    1754    1403+
+           1987    1755     251    1759
CTETRA      1043       1     152    4445    4449    4446    1562    4535+
+           2154    1559    4519    4537
CTETRA      1044       1    2772    4964     152    2771    2878    2159+
+           1672    2879    2877    1682
CTETRA      1045       1     149    4442    4445    4446    1484    4518+
+           1561    1560    4517    4519
CTETRA      1046       1    2605    4463     138    2609    1269    1268+
+           1262    2722    1652    1653
CTETRA      1047       1    4463    4462    2609    4924    4590    1520+
+           1652    4588    4593    2717
CTETRA      1048       1    4462    2609     151     138    1520    1655+
+           2131    1485    1653    1487
CTETRA      1049       1    4463    2583    4443    4923    2073    2075+
+           4599    4589    2706    4598
CTETRA      1050       1    4455     137    4448     152    1692    1679+
+           4561    2153    1677    1678
CTETRA      1051       1     149    2390    2393    5322    2158    2479+
+           1476    2145    2481    2478
CTETRA      1052       1     152      19    4455     137    1684    1691+
+           2153    1677    1690    1692
CTETRA      1053       1     152    4446    4449    4964    1559    4537+
+           2154    2159    4536    4538
CTETRA      1054       1     137      46    2388    2387    1987    1403+
+           1754    1753    2160    2448
CTETRA      1055       1     137    4448    4444    4447    1679    4532+
+           1266    1977    4531    4530
CTETRA      1056       1     136    2389    2391    2393    1681    2474+
+           1473    1472    2476    2475
CTETRA      1057       1    4444    4443    2596    4922    4522    2161+
+           1274    4521    4523    2657
CTETRA      1058       1    4468      28     153    4467    1571    1570+
+           1569    4610    1586    2136
CTETRA      1059       1    4472    5335    2750    4936    4629    2852+
+           1885    4630    4954    2823
CTETRA      1060       1     150    4467    4461    4471    2135    4614+
+           1483    1567    4627    4621
CTETRA      1061       1     153    2750    2412    2761    1883    1890+
+           1889    1637    2820    1638
CTETRA      1062       1     150    2417    5321    2419    1579    2567+
+           1660    1661    2574    2576
CTETRA      1063       1    4441    2773    2767    4965    2162    2871+
+           1895    4513    2873    2872
CTETRA      1064       1     136     138    4442     149    1259    1271+
+           1270    2079    1475    1484
CTETRA      1065       1       7    2763    4960    4450    1982    2861+
+            234     229    1983    4568
CTETRA      1066       1       7    4960    2763    2762     234    2861+
+           1982     243    2867    2832
CTETRA      1067       1      18      20    2384      24     263    1175+
+            240     261     262     881
CTETRA      1068       1     151    2584    2610    5320    2163    2726+
+           1656    1490    2164    1658
CTETRA      1069       1       9    2756    4941    2752     195    2789+
+            192     191    2788    2787
CTETRA      1070       1    4939    2760    4473    4940    2818    1551+
+           4638    4950    2817    4639
CTETRA      1071       1    2750    2761    5138    2412    2820    2826+
+           2825    1890    1638    2553
CTETRA      1072       1    2386    2387    2391     136    2457    2466+
+           2465    1254    1680    1473
CTETRA      1073       1    4466    4893    4894    2606    4603    4908+
+           4632     281    2719    2742
CTETRA      1074       1    4470    4937    4936    2750    4616    4952+
+           4631    1884    2822    2823
CTETRA      1075       1      29    4478    4475    4476    2129    4647+
+           1783    1580    4648    4634
CTETRA      1076       1       9      11    2400    2752     183     185+
+            182     191    1552    2126
CTETRA      1077       1      11      29    2407    2413    2128    2147+
+           2146    2165    1814    2549
CTETRA      1078       1      54    5248    4440    2759    1516    4505+
+           1496    1595    2166    2167
CTETRA      1079       1       7      19    4458    4454     237    2168+
+           2169    2170    1978    4576
CTETRA      1080       1       7    4961    4454    4460     232    4553+
+           2170     233    4587    4586
CTETRA      1081       1      19    4454    2770    4962    1978    2171+
+            239    1979    4552    2880
CTETRA      1082       1     146    2928     128    2890    1384    1389+
+           1371    1376    3144    1377
CTETRA      1083       1    2917      78      97    2915     727     726+
+            724    3076    1833    2006
CTETRA      1084       1      92    3629    3623    3628    1364    3861+
+           2172    1359    3860    3859
CTETRA      1085       1      96    3575    3621    3576    1362    3822+
+           1036     709    3766    3823
CTETRA      1086       1     126     118    3612    3611     977     964+
+           2173    1052    1047    3811
CTETRA      1087       1     113    5275    3581    5276     842    3699+
+            974     848    5284    3700
CTETRA      1088       1      93    3582    3586    3583     700    3710+
+            696     697    3697    3716
CTETRA      1089       1     126    3581    3584    3580     978    3704+
+            971     976    3706    3705
CTETRA      1090       1    3614     114    3630    3621    1032    1034+
+           1033    3826    1037    2174
CTETRA      1091       1      91      29    2408    2407    1779    1778+
+           1777    2148    2147    2531
CTETRA      1092       1      11      91      29    4474    2123    1779+
+           2128    2127    2140    2130
CTETRA      1093       1       9    2400      10    2401     182     181+
+            180     204    2509     676
CTETRA      1094       1      72    4254    4255    4256     503    4283+
+           1620     506    4282    4284
CTETRA      1095       1      68    4254    4253    4255     528    4276+
+           2175    2176    4283    4286
CTETRA      1096       1    2760    5136    2400    2752    2814    2505+
+           1097    2816    2784    2126
CTETRA      1097       1      68    4702    4705    4703     463    4799+
+            461    2177    4792    4794
CTETRA      1098       1      62    5021    4704    5020    2178    4798+
+           2179    2180    5037    4796
CTETRA      1099       1      62    4705    4704    4709     459    4800+
+           2179     667    4823    4821
CTETRA      1100       1      72    4314    4315    5206    1632    4367+
+            501     504    4368    4366
CTETRA      1101       1      68    4705    4251    4305     461     465+
+            464     530    2181     532
CTETRA      1102       1    4254    4305    4251    5207     531     532+
+           4274    4272    4323    4261
CTETRA      1103       1      96    5274    3629    5273    1054    3863+
+           1363     715    5282    3862
CTETRA      1104       1      95    3580    3584    3583    1668    3705+
+           1041     698    3701    3698
CTETRA      1105       1     117    3646    3638    3637     871    3920+
+            862     861    3919    3906
CTETRA      1106       1     114    3630    5274    5275    1034    3867+
+           1042     973    3868    5283
CTETRA      1107       1     126    3579    3578    3612    2182    3714+
+           2183    2173    3805    3804
CTETRA      1108       1    3630    3621    3624    3614    2174    2184+
+           3866    1033    3826    3850
CTETRA      1109       1      20      22    2589    2399     255     454+
+            453    2185    1194    2186
CTETRA      1110       1      67    4457    4452    4459    2187    4570+
+           1391    1392    4577    4579
CTETRA      1111       1      46    4459       8    4458    1397    1399+
+            359    1985    4578    1981
CTETRA      1112       1      67    4459    4451       8    1392    4580+
+           1393    1398    1399     246
CTETRA      1113       1    2592    4457    4918    4452    2188    4569+
+           2641    1394    4570    4540
CTETRA      1114       1      67      46    2587    4457    1396    1407+
+           1406    2187    2189    2190
CTETRA      1115       1    4457    4918    4919    2587    4569    4925+
+           4571    2190    2617    2616
CTETRA      1116       1    4455    4963    4962    2771    4555    4973+
+           4554    2155    2874    2875
CTETRA      1117       1     137      19      46    2387    1690    2191+
+           1987    1753    2192    2160
CTETRA      1118       1    4454    4961    2770    4962    4553    2866+
+           2171    4552    4976    2880
CTETRA      1119       1      20      24      21      23     262     259+
+            248     256    2064    2101
CTETRA      1120       1    4380    4255    4698    4700    2193    1622+
+           2194     542    2195    4781
CTETRA      1121       1      72    4699    4698    4701     496    4776+
+           1621     500    4778    4783
CTETRA      1122       1      72    4701    4698    4700     500    4783+
+           1621    1618    4784    4781
CTETRA      1123       1      72    4698    4699    4685    1621    4776+
+            496     497    4773    4775
CTETRA      1124       1    4255    5218    5217    4379    4290    5224+
+           4287    2196    4390    4393
CTETRA      1125       1    4255    4380    5217    4253    2193    4397+
+           4287    4286    2197    4285
CTETRA      1126       1     130    3662    3688    3663    1005    4075+
+           1133    1126    3987    4073
CTETRA      1127       1     129    3662    3651    3661    1004    3980+
+           1011    1013    3982    3977
CTETRA      1128       1      87    3654    3665    3666    1228    4004+
+           1342    1205    4003    4005
CTETRA      1129       1     126      95    3619    3578    1667    1046+
+           1664    2183     702    3800
CTETRA      1130       1     126      95    3578    3579    1667     702+
+           2183    2182    1756    3714
CTETRA      1131       1     117    3647    5277    3638     866    3928+
+           1208     862    3935    3901
CTETRA      1132       1     115    5276    5277    3634     846    5290+
+           1211    1237    3886    3887
CTETRA      1133       1    3612    3580     118     126     962     965+
+            964    2173     976     977
CTETRA      1134       1     101    2926     103    5068     776     778+
+            775    2013    3121    2198
CTETRA      1135       1    2951     108     112     110     807     825+
+           1842     811     810     830
CTETRA      1136       1      83    3684    3691    3690    1230    4092+
+            606     603    4084    4089
CTETRA      1137       1      44    5090     131    5089    2199    2200+
+           1740    1911    5094    1906
CTETRA      1138       1      88    3664    5281    5280    1236    3984+
+           1233     648    3983    5292
CTETRA      1139       1     130    3653    3663    3664    1000    3986+
+           1126    1131    3988    3989
CTETRA      1140       1    3685     130    3662    3688    1135    1005+
+           4060    4076    1133    4075
CTETRA      1141       1      90    3668    3672    3669    1068    4008+
+            662    1070    3992    4009
CTETRA      1142       1     118    3581    3580    3637     975    3706+
+            965     860    3904    3902
CTETRA      1143       1     118    3636    3612    3644     963    3899+
+            964     856    3908    3907
CTETRA      1144       1    3583    3578      93      95    1757     703+
+            697     698     702     699
CTETRA      1145       1      88    3691    3683      45    1227    4093+
+           1223    1222    1413    1224
CTETRA      1146       1      83    3688    3686    3663    1134    4074+
+            616    1132    4073    4065
CTETRA      1147       1      83    3688    3690    3689    1134    4081+
+            603    1910    4078    4082
CTETRA      1148       1    4449    4963    2771    4964    4562    2874+
+           2156    4538    4975    2877
CTETRA      1149       1    4446    2773    4965    4964    1565    2873+
+           4515    4536    2876    4974
CTETRA      1150       1       7    4458      46       8    2169    1985+
+            357     177    1981     359
CTETRA      1151       1     152    2390      19    2389    2150    2152+
+           1684    1686    2464    2149
CTETRA      1152       1     137      46    4447    2585    1987    1986+
+           1977    2201    1762    2202
CTETRA      1153       1      62    4704    4702    5020    2179    4797+
+            460    2180    4796    4790
CTETRA      1154       1    3624      96    3613    3621    1733    1732+
+           3852    2184    1036    3824
CTETRA      1155       1     126     114      95    3584     969    1040+
+           1667     971     970    1041
CTETRA      1156       1      11     153      29    2413    2122    1770+
+           2128    2165    2138    1814
CTETRA      1157       1     114    5275    5274    3584     973    5283+
+           1042     970    3695    3694
CTETRA      1158       1    4688    4383    4377    5014    2203    4406+
+           1624    4727    4407    4405
CTETRA      1159       1     126    3611    3619    3618    1052    3807+
+           1664    1053    3806    3803
CTETRA      1160       1     113    3622    3620    3618     840    3828+
+           1242     837    3827    3818
CTETRA      1161       1      90     125    3669    3682    1056    1207+
+           1070    1058    1057    4043
CTETRA      1162       1      93      95      96    3582     699    1666+
+            708     700     701    1669
CTETRA      1163       1     115    3638    5277    5276    1244    3901+
+           1211     846    3900    5290
CTETRA      1164       1     117     119     120    3649     864     868+
+            867    2204     950     951
CTETRA      1165       1     118    3639    3644    3611     859    3912+
+            856    1047    3910    3909
CTETRA      1166       1     119     123    3632    5278     931     935+
+            934    1697    1347    3879
CTETRA      1167       1     126    3611    3612    3619    1052    3811+
+           2173    1664    3807    3810
CTETRA      1168       1    3630     114     113    5275    1034     839+
+            843    3868     973     842
CTETRA      1169       1      71    4689    4685    4686    1615    4724+
+           2205     491    4723    4725
CTETRA      1170       1    4688    4687      71    4257    4721    1630+
+           1623    2206    1627    2207
CTETRA      1171       1      71    4255    4257    4256    2208    4291+
+           2207    2209    4284    4292
CTETRA      1172       1      72    4255      71    4256    1620    2208+
+           1634     506    4284    2209
CTETRA      1173       1     113    3610    3620    3609    1049    3817+
+           1242    1250    3819    3813
CTETRA      1174       1     119     123    5278     125     931    1347+
+           1697     938     937    1117
CTETRA      1175       1     118    3639    3611    3610     859    3910+
+           1047    1050    3911    3809
CTETRA      1176       1     117    3639    3640    3644     858    3917+
+           2210     855    3912    3916
CTETRA      1177       1     118    3581    3637    3638     975    3904+
+            860     863    3905    3906
CTETRA      1178       1      68    4378    4380    4253     535    4400+
+            543    2175    2211    2197
CTETRA      1179       1      72    4254      68    4255     503     528+
+            527    1620    4283    2176
CTETRA      1180       1      77     148    2892    2909    2004    2212+
+           1307    2005    1951    3041
CTETRA      1181       1     146    3012    3015    3013    1874    3441+
+           1387    2009    3436    3442
CTETRA      1182       1     146    3004    3012    3005    1372    3430+
+           1874    1370    3399    3429
CTETRA      1183       1     129    3652    3653    3643    1003    3952+
+            999     994    3951    3950
CTETRA      1184       1      45    5088    3670    5089    1412    4087+
+           1221    1905    5097    4024
CTETRA      1185       1     130      88    5280    3664    1127     648+
+           1128    1131    1236    3983
CTETRA      1186       1     125    3659    3669    3682     941    3994+
+           1207    1057    4045    4043
CTETRA      1187       1     114    3621    3614    3622    1037    3826+
+           1032     841    3831    3832
CTETRA      1188       1     113    3609    3620    3616    1250    3813+
+           1242    1957    3812    3814
CTETRA      1189       1     115    3631    3616     113     845     834+
+           1715     847     844    1957
CTETRA      1190       1    3620    3625     113    3631    1665     852+
+           1242     835    3871     844
CTETRA      1191       1    3620    3616    3615    3626    3814    3836+
+           3835     836    3838    3846
CTETRA      1192       1     130      89    3680    3681     997     655+
+           1348    2213    1695    4053
CTETRA      1193       1     120    3660    3649    3659    1010    3978+
+            951     949    3979    3972
CTETRA      1194       1      89    5280    3654    5279     652    3967+
+           1229    1064    5291    3966
CTETRA      1195       1      87    3654    3666    3655    1228    4003+
+           1205    1206    3970    4001
CTETRA      1196       1      39    2940    2899    2898    1463    2214+
+            927     930    3175    3038
CTETRA      1197       1      87    3675    3671    3673    1745    4013+
+           1216     656    4016    4011
CTETRA      1198       1      87    3677    3666    3665    1343    4028+
+           1205    1342    4027    4005
CTETRA      1199       1    3575    3574    3623    3613    3776    3843+
+           2215    3820    3821    3844
CTETRA      1200       1    3613      96    3629    3575    1732    1363+
+           2216    3820    1362    1734
CTETRA      1201       1    3629    3613    3623    3624    2216    3844+
+           3861    3864    3852    3853
CTETRA      1202       1     114    3617    3621    3622    1038    3830+
+           1037     841    3829    3831
CTETRA      1203       1    3628      92      99    3623    1359     738+
+           1018    3859    2172    1017
CTETRA      1204       1     120    3649    3660    3650     951    3978+
+           1010     946    3946    3975
CTETRA      1205       1    3629    3575    3623    3613    1734    2215+
+           3861    2216    3820    3844
CTETRA      1206       1     126      95    3579    3580    1667    1756+
+           2182     976    1668    3703
CTETRA      1207       1    3645     117    3641    3640     875     872+
+           3922    3918    2210    3923
CTETRA      1208       1      87      90      89    3654     658    1059+
+            650    1228    2217    1229
CTETRA      1209       1    3575    3573    3574    3601    2218    3785+
+           3776    3774    2219    3775
CTETRA      1210       1      96    3621    3624    3630    1036    2184+
+           1733    1055    2174    3866
CTETRA      1211       1     139    2943    2944    2901    2053    3188+
+           1313    2220    3187    3186
CTETRA      1212       1      32    5063    2897    5306     303    3105+
+           1158    1165    3478    3479
CTETRA      1213       1      90    5279    3654    3605    1062    3966+
+           2217    1213    3875    3968
CTETRA      1214       1      90    3672    3682    3669     662    4044+
+           1058    1070    4009    4043
CTETRA      1215       1      59      60    5208    4311     412    1787+
+           2221     413     415    4343
CTETRA      1216       1      90    3654    3655    3605    2217    3970+
+           2222    1213    3968    3969
CTETRA      1217       1     120    3661    3650    3660    1014    3974+
+            946    1010    3976    3975
CTETRA      1218       1     118    3644    3612    3611     856    3907+
+            964    1047    3909    3811
CTETRA      1219       1     118    3644    3637    3636     856     874+
+            860     963    3908    3903
CTETRA      1220       1      95    3583    3579    3580     698    3702+
+           1756    1668    3701    3703
CTETRA      1221       1     126    3578    3619    3612    2183    3800+
+           1664    2173    3804    3810
CTETRA      1222       1    3656      90    3667    3655    1067     660+
+           3996    3965    2222    3998
CTETRA      1223       1     120    3642    3643    3647     992    3931+
+            995     869    3930    3929
CTETRA      1224       1    3651     120    3641    3642    1012     873+
+           3947    3948     992    3933
CTETRA      1225       1     129    3662    3661    3685    1004    3982+
+           1013    2223    4060    4059
CTETRA      1226       1     111    2948    2949    2936    1698    3202+
+           1023    1022    3201    3196
CTETRA      1227       1     130    3662    3663    3652    1005    3987+
+           1126    1002    3981    3985
CTETRA      1228       1     129     130    3653    3652     996    1000+
+            999    1003    1002    3952
CTETRA      1229       1      45    5281    3678    3665    1234    4029+
+            343     346    4000    4030
CTETRA      1230       1      12    2401    2402    2404     207    2513+
+           1453    1597    2511    2514
CTETRA      1231       1      89    3653    5280    5279    1001    3937+
+            652    1064    3936    5291
CTETRA      1232       1    3644    3637     117     118     874     861+
+            855     856     860     857
CTETRA      1233       1     118    3636    3637    3580     963    3903+
+            860     965    3898    3902
CTETRA      1234       1    3612    3580    3579    3636     962    3703+
+           3805    3899    3898    3897
CTETRA      1235       1      27    2408    2607    2611    1784    2224+
+           2225     285    2143    2734
CTETRA      1236       1     130    3681    3680    3684    2213    4053+
+           1348    1231    4062    4058
CTETRA      1237       1    3673      87    3674    3667     656    1746+
+           4019    4007     659    4017
CTETRA      1238       1     129      89    5279    3653     998    1064+
+           1345     999    1001    3936
CTETRA      1239       1      90    3668    3667    3673    1068    3997+
+            660     657    4006    4007
CTETRA      1240       1     129     125     120    3643    1006    1009+
+            991     994    1350     995
CTETRA      1241       1      87    3673    3674    3675     656    4019+
+           1746    1745    4016    4020
CTETRA      1242       1      87      88    3665    5280     647    1232+
+           1342     649     648    3999
CTETRA      1243       1    4939    2760    4477    4473    2818    1556+
+           4643    4638    1551    4640
CTETRA      1244       1     124    3608    3627    3607    2226    3840+
+           2227    1077    3842    3841
CTETRA      1245       1      96    3576    3621    3617     709    3823+
+           1036    1039    3798    3830
CTETRA      1246       1     119    3659    3648    3658     939    3971+
+            947     943    3973    3959
CTETRA      1247       1     117     119    5277    3647     864    1209+
+           1208     866     865    3928
CTETRA      1248       1    2947    2935    2946    2934    3204    1961+
+           3210    3206    3156    3209
CTETRA      1249       1      98      78     145    5304     728    1709+
+           1336    1425     961    1426
CTETRA      1250       1     102    2946    2933    2945    1922    3211+
+            802    1912    3213    3212
CTETRA      1251       1     145    2948    2936    2935    1699    3201+
+           2228    2026    3203    3152
CTETRA      1252       1     108    2968     109    2961    2003    2229+
+            809    2001    3266    2230
CTETRA      1253       1     145    2984    2986    2985    1702    3331+
+           2027    1764    3330    3332
CTETRA      1254       1      54    2404      57    2405    1492    2041+
+           1498    1501    2522    1502
CTETRA      1255       1      90    3655    3606    3605    2222    3964+
+           2231    1213    3969    3877
CTETRA      1256       1     146    2890    2891    2927    1376    3145+
+           1381    1380    3142    3140
CTETRA      1257       1      87    3672    3671    3680     661    4012+
+           1216     653    4050    4051
CTETRA      1258       1      95    3577    3617    3619     705    3797+
+           1044    1046    3799    3801
CTETRA      1259       1      89    3682    3680    3681    1061    4052+
+            655    1695    4049    4053
CTETRA      1260       1    3622    3625    3615    3614     853    3847+
+           3833    3832    3848    3834
CTETRA      1261       1      42    5046    5045    4829     334    5054+
+            915    2031    4858    4860
CTETRA      1262       1    2961     108    2951     109    2001     807+
+           3241    2230     809     808
CTETRA      1263       1      29    2407    2415    2408    2147    2557+
+            275    1778    2531    2558
CTETRA      1264       1     136     149     152    2393    2079    1558+
+           1687    1472    1476    2157
CTETRA      1265       1      91    4474    4482    4475    2140    4668+
+           1663    1773    4649    4663
CTETRA      1266       1    2750    5138    2751    2418    2825    2811+
+           2824    1887    2571    1107
CTETRA      1267       1      28    2417     150    2419    1577    1579+
+           1576    1592    2574    1661
CTETRA      1268       1     149     152    2768    2773    1558    1671+
+           2232    1564    1563    2868
CTETRA      1269       1      46    4453    4447    4456    1984    4560+
+           1986    1761    4567    4566
CTETRA      1270       1      89    3672    3680    3682    1204    4050+
+            655    1061    4044    4052
CTETRA      1271       1     123    5278    3605    3632    1347    3874+
+           1214     935    3879    3876
CTETRA      1272       1     115    3610    3648    3639    1249    3938+
+           1247    1248    3911    3939
CTETRA      1273       1    3650    3651     120    3641    3949    1012+
+            946    3945    3947     873
CTETRA      1274       1     120    3641    3642    3646     873    3933+
+            992     870    3924    3932
CTETRA      1275       1     117    3649    3640    3639    2204    3942+
+           2210     858    3941    3917
CTETRA      1276       1     129     130    3685    3681     996    1135+
+           2223    1696    2213    4061
CTETRA      1277       1    2403    2754    5134    2757    2117    2806+
+           2507    1505    2795    2807
CTETRA      1278       1     129    3682     125      89    1346    1057+
+           1006     998    1061    1060
CTETRA      1279       1      54    2405    2758    2757    1501    1503+
+           1500    1519    1504    2799
CTETRA      1280       1     116    2764    2749    5132     850    2843+
+            849    1865    2848    2844
CTETRA      1281       1    2376      14      57     116    1868     408+
+           2044    1866    1863    1855
CTETRA      1282       1    4174    4170      75    5171    4202    1122+
+           1113    4201    4203    1114
CTETRA      1283       1    4173    4174    4171    4175    4200    4210+
+           4209    1112    4205    4187
CTETRA      1284       1    5170      70    5171    4173     762    1730+
+           5184    4195    1125    1115
CTETRA      1285       1      93    3591    3577    3578    2233    3724+
+            704     703    3723    3725
CTETRA      1286       1      93    3587    3583    3586    2234    3715+
+            697     696    3717    3716
CTETRA      1287       1      95    3582    3584    5274     701    3696+
+           1041    1043    3692    3694
CTETRA      1288       1      92    3585    5273    5272     685    3707+
+            714     954    3708    5285
CTETRA      1289       1      95    3582    3583    3584     701    3697+
+            698    1041    3696    3698
CTETRA      1290       1      93      96    5273    3582     708     715+
+            713     700    1669    3693
CTETRA      1291       1    3591    3587      93    3590    3726    2234+
+           2233    3731    3730     695
CTETRA      1292       1     145    2987    2985    2986    1335    3335+
+           1764    2027    3336    3332
CTETRA      1293       1     108    2950    2961    2951    1713    3242+
+           2001     807    3200    3241
CTETRA      1294       1     111    2984    2985    2983    1701    3330+
+            828     829    3324    3329
CTETRA      1295       1      12      54    2402       4    1495    1493+
+           1453     206    1448     219
CTETRA      1296       1      47    5242    4436    5356     393    4490+
+            392    1946    5246    4491
CTETRA      1297       1       3    2600      47       5     161     389+
+            364     163     162     375
CTETRA      1298       1      10    2400    2406    2401     181    2535+
+           1451     676    2509    2532
CTETRA      1299       1       3    2601    4899    2600     164    2688+
+            171     161    2689    2680
CTETRA      1300       1      11    4473    4481    4474    1550    4665+
+           2142    2127    4641    4666
CTETRA      1301       1       6    4483    4438    2598     221    4672+
+            220     167    2144     170
CTETRA      1302       1     101     105     133    5072     782    1790+
+           1968     779     783    1975
CTETRA      1303       1       4    2401    2410    2402     205    2534+
+            675     219    2513    2539
CTETRA      1304       1    2413     153      28    2417    2138    1570+
+           1589    2565    1578    1577
CTETRA      1305       1       6    2598      91    4483     167    2141+
+            677     221    2144     680
CTETRA      1306       1    5320     136    2392    2391    2235    1689+
+           2470    2467    1473    2469
CTETRA      1307       1     137    4921    4444    2596    2097    4524+
+           1266    1273    2662    1274
CTETRA      1308       1      46    2380    2387    2381    1401    2446+
+           2160     358    2434    2449
CTETRA      1309       1      19    2381       7      46     884     178+
+            237    2191     358     357
CTETRA      1310       1     149    5321    5322    2393    1478    5325+
+           2145    1476    2477    2478
CTETRA      1311       1      11    2406    2414    2413    1549    2547+
+            349    2165    2546    2548
CTETRA      1312       1      11    4464     153    2761     475    1635+
+           2122     347     477    1637
CTETRA      1313       1      11      91    4474    4481    2123    2140+
+           2127    2142    2139    4666
CTETRA      1314       1     120    3661    3651    3650    1014    3977+
+           1012     946    3974    3949
CTETRA      1315       1     129    3685     130    3662    2223    1135+
+            996    1004    4060    1005
CTETRA      1316       1     125    3682    3660    3659    1057    4046+
+           1007     941    4045    3979
CTETRA      1317       1     129    3661    3681    3685    1013    4048+
+           1696    2223    4059    4061
CTETRA      1318       1    3691      83      88    3684     606    1344+
+           1227    4092    1230    1226
CTETRA      1319       1      88    5281    3665    5280    1233    4000+
+           1232     648    5292    3999
CTETRA      1320       1     111      78     121    5303    1703    1748+
+           1747    2236     960     891
CTETRA      1321       1     112     110     148    2939     830    1836+
+           1835    1841    1840    1953
CTETRA      1322       1     111    2983     108    2984     829     820+
+            823    1701    3324    2237
CTETRA      1323       1     109    2962    2968    2969    2238    3267+
+           2229    2239    3269    3268
CTETRA      1324       1     112    2938    2951    2939    2115    3192+
+           1842    1841    3166    3191
CTETRA      1325       1    3017     148    3019      77    2240    2241+
+           3457    1948    2004    1304
CTETRA      1326       1      87      89      90    3672     650    1059+
+            658     661    1204     662
CTETRA      1327       1     128    3004     127      63    1373    1811+
+            979    1824    1812    1322
CTETRA      1328       1     130    3653    3664    5280    1000    3988+
+           1131    1128    3937    3983
CTETRA      1329       1     154    5300    5299    2974    1938    5310+
+           2016    2242    3277    3275
CTETRA      1330       1     146    2890    2927    2928    1376    3142+
+           1380    1384    3144    3143
CTETRA      1331       1     147    2966    2928    2952    1936    3257+
+           1383    1852    3256    3190
CTETRA      1332       1     109     135    2962    2969    1200    2243+
+           2238    2239    2029    3269
CTETRA      1333       1      48    2960    2941    2957    1292    3239+
+           2023    1291    3235    3240
CTETRA      1334       1      35    2998    2887    2886    1998    3366+
+           1994    1992    3367    3128
CTETRA      1335       1    3587    3583    3578      93    3715    1757+
+           3713    2234     697     703
CTETRA      1336       1    3587      93    3590    3586    2234     695+
+           3730    3717     696    3729
CTETRA      1337       1     120    3647    3643    5278     869    3929+
+            995    1349    3927    3925
CTETRA      1338       1      11    2406    2413    2407    1549    2546+
+           2165    2146    2538    2549
CTETRA      1339       1       9    4473    2752    4480     188    1360+
+            191     186    4659     190
CTETRA      1340       1      91    4481    4483    4482    2139    4682+
+            680    1663    4669    4679
CTETRA      1341       1      10    4483      91    4481     681     680+
+            678    2125    4682    2139
CTETRA      1342       1     114    3618    3617    3622     838    3802+
+           1038     841    3827    3829
CTETRA      1343       1     119     115     124    3648    1212    1239+
+            933     947    1247     948
CTETRA      1344       1      90     123    3605    3606    1065    1214+
+           1213    2231    2244    3877
CTETRA      1345       1     114    3618    3619    3617     838    3803+
+           1045    1038    3802    3801
CTETRA      1346       1     115    3616     124    3609    1715    1717+
+           1239    1245    3812    1246
CTETRA      1347       1     113    3610     115     118    1049    1249+
+            847     966    1050     967
CTETRA      1348       1     117    3646    3647    3638     871    3934+
+            866     862    3920    3935
CTETRA      1349       1      95    3619    3578    3577    1046    3800+
+            702     705    3799    3725
CTETRA      1350       1    3578    3587    3579    3583    3713    3712+
+           3714    1757    3715    3702
CTETRA      1351       1      20    2380    2378    2379    1176    2427+
+           1172    1179    2431    2430
CTETRA      1352       1      18    4450      21    2763     228     894+
+            260     888    1983     886
CTETRA      1353       1    2399      20      25    2378    2185     264+
+           1195    2500    1172    1174
CTETRA      1354       1      20      67    4451       8     455    1393+
+            247     245    1398     246
CTETRA      1355       1    4457      67    2592    2587    2187    2245+
+           2188    2190    1406    2642
CTETRA      1356       1      46    4457    4458    4456    2189    4574+
+           1985    1761    4572    4573
CTETRA      1357       1    3621    3614    3613    3624    3826    3825+
+           3824    2184    3850    3852
CTETRA      1358       1    2969     109     135    2971    2239    1200+
+           2029    3297    2246    1198
CTETRA      1359       1     146    3004    5300    3016    1372    3402+
+           1368    1367    3439    3437
CTETRA      1360       1     108    2950    2967    2961    1713    3262+
+           2002    2001    3242    3264
CTETRA      1361       1      40    2900     139    2902    1458    1460+
+           1457    2247    3034    2248
CTETRA      1362       1     141     154    2944    2975    1801    1806+
+           1804    1281    1802    3282
CTETRA      1363       1      51    2397      25      16    1544    2096+
+           1548    1533    2038    1093
CTETRA      1364       1      36      35      41    5047     312     338+
+            327     313     315     335
CTETRA      1365       1      49    2958    2941    2940    2021    3233+
+           2024    1462    3232    3176
CTETRA      1366       1      51    2395    2396    2397    1532    2488+
+           2082    1544    2487    2486
CTETRA      1367       1      34    3000    3001    2991     906    3381+
+            833    2059    3372    3380
CTETRA      1368       1      49    2942    2899    2941     370    3180+
+           1465    2024    3179    3178
CTETRA      1369       1      48    2956    2943    2942    1283    3230+
+            366     369    3229    3183
CTETRA      1370       1      48      49    2941    2942     368    2024+
+           2023     369     370    3179
CTETRA      1371       1    3668    3656      90    3667    3995    1067+
+           1068    3997    3996     660
CTETRA      1372       1      90      89    3654    5279    1059    1229+
+           2217    1062    1064    3966
CTETRA      1373       1     117     115    3639     118    1210    1248+
+            858     857     967     859
CTETRA      1374       1      90    3673    3672    3668     657    4010+
+            662    1068    4006    4008
CTETRA      1375       1      44    3677    3678    5092     362    4033+
+            344    2012    4035    4034
CTETRA      1376       1      87    3655      90    3654    1206    2222+
+            658    1228    3970    2217
CTETRA      1377       1    3677    3675    3674    3679     361    4020+
+           4036    4040    4042    4041
CTETRA      1378       1      91    4897    2598    2612    1662    2730+
+           2141    1774    2732    2731
CTETRA      1379       1       3    4438       6       4     156     220+
+            166     158     157     172
CTETRA      1380       1      45      83      88    3691    1419    1344+
+           1222    1413     606    1227
CTETRA      1381       1    4479    2756    4942    4941    2124    2791+
+           4655    4657    2789    4946
CTETRA      1382       1      91    2612    2597    2409    1774    2738+
+           1676    1673    1782    1675
CTETRA      1383       1      10    4473    4480    4481     189    4659+
+            187    2125    4665    4667
CTETRA      1384       1    5320    5105    5347    2610    2579    5127+
+           5324    1658    2729    2727
CTETRA      1385       1     108    2968    2967    2979    2003    3265+
+           2002     821    3299    3301
CTETRA      1386       1     109    2964    2961    2962    2249    3245+
+           2230    2238    3247    3246
CTETRA      1387       1     110    2951    2952    2939     811    3194+
+           1850    1840    3191    3193
CTETRA      1388       1     112    2907    2937    2938    1707    3171+
+           1711    2115    3170    3172
CTETRA      1389       1     109    2951    2961    2964     808    3241+
+           2230    2249    3243    3245
CTETRA      1390       1    4440    4943    2755    2759    4506    2782+
+           1511    2167    2797    2796
CTETRA      1391       1       4    4439    4438    4484     160    4510+
+            157     203    4674    4676
CTETRA      1392       1      10    2401    2406    2410     676    2532+
+           1451     674    2534    2533
CTETRA      1393       1    2404      54      12    2405    1492    1495+
+           1597    2522    1501    1507
CTETRA      1394       1       3    4436    2600    4899    2250     395+
+            161     171    4487    2680
CTETRA      1395       1       6    2411    2402    2410     223    2543+
+            217     683    2544    2539
CTETRA      1396       1    2399    2589    2379    5112    2186    1180+
+           2499    2497    2624    2496
CTETRA      1397       1    2399    2397    2590    5111    2501    2251+
+           1196    2498    2483    2628
CTETRA      1398       1     135     154    2973     147    1729    1727+
+           1203    1724    1880    1725
CTETRA      1399       1     135     141    2970    2976    1720    1800+
+           2028    1728    1803    3292
CTETRA      1400       1     155    2966    2929    2928    1935    3260+
+           1872    1934    3257    3150
CTETRA      1401       1     141    2965    2954    2953    1722    3254+
+           1285    1828    3255    3217
CTETRA      1402       1     155    2966    2953    2929    1935    3261+
+           1830    1872    3260    3215
CTETRA      1403       1     109     110    2952     147     812    1850+
+           2010    1723    1853    1852
CTETRA      1404       1     141    2976    2975    2970    1803    3286+
+           1281    1800    3292    3284
CTETRA      1405       1      54    4440    5248    5356    1496    4505+
+           1516    1445    4511    5251
CTETRA      1406       1       9    2401    2403    2400     204    2510+
+           2133     182    2509    2508
CTETRA      1407       1       9    4473      10      11     188     189+
+            180     183    1550     184
CTETRA      1408       1    2403    2405    2757    5134    2521    1504+
+           1505    2507    2519    2807
CTETRA      1409       1    5135    2752    2754    2403    2783    2786+
+           2785    2506    2134    2117
CTETRA      1410       1      17    2582      25      51    1527    1528+
+           1094    1539    1546    1548
CTETRA      1411       1      67    2593    2592    2587    1408    2646+
+           2245    1406    2652    2642
CTETRA      1412       1      20    2399    2379    2378    2185    2499+
+           1179    1172    2500    2430
CTETRA      1413       1      22    2591      67    2589    1182    1186+
+            457     454    2639     456
CTETRA      1414       1    2379    2388    5113    2593    2450    2452+
+           2451    1409    2252    2649
CTETRA      1415       1      20    2399    2589    2379    2185    2186+
+            453    1179    2499    1180
CTETRA      1416       1    5334      76    2588    5229    2253    2094+
+           2632    5235     521    2254
CTETRA      1417       1      20      21    4451      23     248     250+
+            247     256    2101    2255
CTETRA      1418       1       9      12    2754    2403     193     197+
+            196    2133    1508    2117
CTETRA      1419       1    2400    5136    5135    2752    2505    5145+
+           2504    2126    2784    2783
CTETRA      1420       1    2760    5136    5137    2414    2814    5149+
+           2815     351    2551    2554
CTETRA      1421       1      44    3671      87    3675    1217    1216+
+           1215     360    4013    1745
CTETRA      1422       1      53      54      57      55     388    1498+
+           1598     399    1513     405
CTETRA      1423       1    2405      54      12    2757    1501    1495+
+           1507    1504    1519    1506
CTETRA      1424       1       4    5356      54      47    1447    1445+
+           1448     363    1946     386
CTETRA      1425       1      54    5356      55      53    1445    1521+
+           1513     388    1522     399
CTETRA      1426       1      50      53      16      17     382    1945+
+           1944    1541    2084     216
CTETRA      1427       1    4452      67    2592    4457    1391    2245+
+           1394    4570    2187    2188
CTETRA      1428       1      22    2581    2588    2590    1187    2634+
+           1183    1192    2627    2630
CTETRA      1429       1      57    2405    2404    2394    1502    2522+
+           2041    2039    2523    2518
CTETRA      1430       1       3    4899    4438    4436     171    4501+
+            156    2250    4487    4503
CTETRA      1431       1      39      55      42    5044     923     397+
+            914     917    1524     918
CTETRA      1432       1      15      17      53      38     214    2084+
+            398    1089    1091    1600
CTETRA      1433       1      16    2398    2394    2395    2113    2490+
+           2112    1535    2493    2495
CTETRA      1434       1      51      47      50    2602     377     381+
+           1538    2037     390    2036
CTETRA      1435       1      44    3679    3676    3675     354    4038+
+            356     360    4042    4026
CTETRA      1436       1      22    2591    4916    4437    1182    2636+
+           1181     254    1185    4493
CTETRA      1437       1      43    3007    5052    5343    2256    3405+
+           2257    2258    3407    5062
CTETRA      1438       1      13      16      25      14     211    1093+
+           1092     208     212    1611
CTETRA      1439       1      57    2405    2394    2376    1502    2523+
+           2039    2044    2524    2492
CTETRA      1440       1      57    2749    2758    2405    1856    2805+
+           1499    1502    2259    1503
CTETRA      1441       1      49    2899    2940    2941    1465    2214+
+           1462    2024    3178    3176
CTETRA      1442       1      25      16    2397    2398    1093    2038+
+           2096    1608    2113    2494
CTETRA      1443       1      51    2582      25    2397    1546    1528+
+           1548    1544    1547    2096
CTETRA      1444       1      22    2588    2589    2590    1183    2631+
+            454    1192    2630    2629
CTETRA      1445       1    2394    2376      14      57    2492    1868+
+           2111    2039    2044     408
CTETRA      1446       1      26    5232    5050    5049     269    4862+
+            673     267    4863    5060
CTETRA      1447       1       3    4436      47    2600    2250     392+
+            364     161     395     389
CTETRA      1448       1      20    2384      24    2378    1175     881+
+            262    1172    2429    1173
CTETRA      1449       1      76    2581    4827    5334    1190    2106+
+            522    2253    2635    4843
CTETRA      1450       1      52      16      57    2395    1534    2043+
+           2042    1531    1535    2040
CTETRA      1451       1    2749    2758    2405    5133    2805    1503+
+           2259    2809    2808    2520
CTETRA      1452       1      47       5    2602      51     375     391+
+            390     377     376    2037
CTETRA      1453       1       5    2402    2411    2396     218    2543+
+           1303    1302    2516    2542
CTETRA      1454       1      47      53    5242    5356     383    2083+
+            393    1946    1522    5246
CTETRA      1455       1       6    2601       5    2411     169     165+
+            174     223     226    1303
CTETRA      1456       1    2403    2752    2754       9    2134    2786+
+           2117    2133     191     196
CTETRA      1457       1       6       5    2402    2411     174     218+
+            217     223    1303    2543
CTETRA      1458       1       9      12    2403    2401     193    1508+
+           2133     204     207    2510
CTETRA      1459       1     112    2939    2909    2908    1841    3162+
+           1952    2260    3164    3046
CTETRA      1460       1     148    2939    2952    2927    1953    3193+
+           1849    1379    3163    3189
CTETRA      1461       1      78    3018    2894      77    2261    3449+
+            539     540    1305     537
CTETRA      1462       1       8    2380    2381    2384    1177    2434+
+            179     176    2428    2432
CTETRA      1463       1    4437      67    2592    4452    1184    2245+
+           1395    4545    1391    1394
CTETRA      1464       1      19    2387    2389    2381    2192    2460+
+           2149     884    2449    2458
CTETRA      1465       1     152    4964    2772    2773    2159    2878+
+           1672    1563    2876    2869
CTETRA      1466       1       8    4460    4459    4451    1980    4582+
+           1399     246    4581    4580
CTETRA      1467       1      19    2769    2771    2770     236    2882+
+           1683     239    2863    2881
CTETRA      1468       1     137    4448    4445    4444    1679    4533+
+           1263    1266    4532    4527
CTETRA      1469       1     122    3000    2996    2999     907    3374+
+            987     908    3376    3375
CTETRA      1470       1      76      17    4827    2581    2060    2103+
+            522    1190    1526    2106
CTETRA      1471       1    2603      51    2602    5110    1542    2037+
+           2697    2695    1545    2696
CTETRA      1472       1      18    2384    2383    2385     240    2433+
+            893     879    2443    2442
CTETRA      1473       1      24    2385    2377    2384     880    2441+
+           1860     881    2443    2444
CTETRA      1474       1      24    2378    2377    2398    1173    2445+
+           1860    1609    2503    2491
CTETRA      1475       1      25    2399    2397    2590    1195    2501+
+           2096    1193    1196    2251
CTETRA      1476       1      52      53      54      57     385     388+
+            387    2042    1598    1498
CTETRA      1477       1     135     154     141    2976    1729    1801+
+           1720    1728    1726    1803
CTETRA      1478       1     127    2994     128    2997    2262    1374+
+            979     990    3363    1810
CTETRA      1479       1      21    5233    4450    5232    2263    4543+
+            894    2102    5240    4548
CTETRA      1480       1      55    5045      42    5044    2034     915+
+            397    1524    5055     918
CTETRA      1481       1    2764     116    2765    5132     850    2092+
+           2838    2848    1865    2849
CTETRA      1482       1      51    2397    2396    5110    1544    2486+
+           2082    1545    2482    2484
CTETRA      1483       1       4    4439    4484    4479     160    4674+
+            203     682    4673    4675
CTETRA      1484       1      47    4900    2604    2600     394    2700+
+           1947     389    2681    2699
CTETRA      1485       1      90     123    3606    3656    1065    2244+
+           2231    1067    1066    3963
CTETRA      1486       1      54    2755    2757    2759    1510    2794+
+           1519    1595    2796    2798
CTETRA      1487       1       5      52    2402    2396     379    1450+
+            218    1302    2081    2516
CTETRA      1488       1    2602      47      50    2604     390     381+
+           2036    2701    1947     374
CTETRA      1489       1      55    5247    5044    5248    1515    4852+
+           1524    1517    5250    4851
CTETRA      1490       1       5    2602    2396    5109     391    2107+
+           1302    1301    2694    2485
CTETRA      1491       1      97    2914    2894    2918     732    3056+
+            731    2264    3069    3068
CTETRA      1492       1     112    2938    2939    2908    2115    3166+
+           1841    2260    3165    3164
CTETRA      1493       1     154    2974    2975    2976    2242    3283+
+           1802    1726    3285    3286
CTETRA      1494       1     109     147    2952    2964    1723    1852+
+           2010    2249    2265    3244
CTETRA      1495       1     109    2981    2972    2980     817    3309+
+           1201     819    3310    3307
CTETRA      1496       1     148     147    5301    3016    1851    2000+
+           1845    1386    1366    3438
CTETRA      1497       1       7    4460    4450    4960     233    4583+
+            229     234    4584    4568
CTETRA      1498       1      20      25      24      23     264    1171+
+            262     256     265    2064
CTETRA      1499       1      52    2395    2404    2402    1531    2517+
+           1491    1450    2515    2514
CTETRA      1500       1      21     116    2765    2764    1603    2092+
+            885    2099     850    2838
CTETRA      1501       1      46    2387    2380    2388    2160    2446+
+           1401    1403    2448    2447
CTETRA      1502       1      22    2399    2590    2589    1194    1196+
+           1192     454    2186    2629
CTETRA      1503       1      21    2764    2766    5234    2099    2837+
+           2266    2089    2100    2267
CTETRA      1504       1      22    2399      20      25    1194    2185+
+            255     266    1195     264
CTETRA      1505       1      14    2394    2377    2376    2111    2489+
+           1862    1868    2492    2440
CTETRA      1506       1      21     116    2764      58    1603     850+
+           2099    1602    1601    1864
CTETRA      1507       1      12    2757    2755    2754    1506    2794+
+           1509     197    2795    2793
CTETRA      1508       1      15      56      37      42     401    2050+
+            330     332    1525     333
CTETRA      1509       1      11    2407      91    2406    2146    2148+
+           2123    1549    2538    1452
CTETRA      1510       1     143    2887    2930    2931    1997    3129+
+           1931    1996    3126    3130
CTETRA      1511       1     155    2965    2953    2966    1941    3255+
+           1830    1935    3259    3261
CTETRA      1512       1     128    2890    2928    2889    1377    3144+
+           1389    1932    3147    3146
CTETRA      1513       1     135     141    2963    2970    1720    1719+
+           1718    2028    1800    3272
CTETRA      1514       1      77     148    3019    2892    2004    2241+
+           1304    1307    2212    3452
CTETRA      1515       1     147    2964    2966    2952    2265    3258+
+           1936    1852    3244    3256
CTETRA      1516       1     111    2984     145    2985    1701    1702+
+           1700     828    3330    1764
CTETRA      1517       1     108    2979    2983    2980     821    3319+
+            820     818    3308    3321
CTETRA      1518       1     108    2949    2978    2967    1839    3302+
+            822    2002    3263    3304
CTETRA      1519       1     116    2377    2385    2376    1861    2441+
+           1606    1866    2440    2439
CTETRA      1520       1      18    2765    2385    5131     887    2093+
+            879     892    2847    2438
CTETRA      1521       1      20      67       8    2380     455    1398+
+            245    1176    1400    1177
CTETRA      1522       1    2587    4457    4918    2592    2190    4569+
+           2617    2642    2188    2641
CTETRA      1523       1      12    2756    2754    2755     194    2790+
+            197    1509    2792    2793
CTETRA      1524       1      47      52      51      50     378     380+
+            377     381     384    1538
CTETRA      1525       1       6    2598    2601    2597     167    2685+
+            169    1674    2684    2682
CTETRA      1526       1       6    2597    5108    2409    1674    2678+
+            225     224    1675    2526
CTETRA      1527       1       6      91    2598    2597     677    2141+
+            167    1674    1676    2684
CTETRA      1528       1    4697    5219    4383    5012    2268    4404+
+           2269    4766    4410    4409
CTETRA      1529       1      80    4259    4382    5327     581     595+
+            589     588    4298     591
CTETRA      1530       1      73      61    5215    4384     553    2270+
+           2271     556     664    4420
CTETRA      1531       1      79    4259    4313    4258     559    2272+
+            565     570    4301    2273
CTETRA      1532       1      79    4697    4691    4696     557    4768+
+           2274     563    4764    4762
CTETRA      1533       1    4259    4382    5219    4694     595    4411+
+           4303     594     596    2275
CTETRA      1534       1    4259    5327    5219    4382    4298    4302+
+           4303     595     591    4411
CTETRA      1535       1      80    5194    5253    5195    2276    4879+
+           2277    2278    5200    4873
CTETRA      1536       1      59      60    4252    5208     412     554+
+           2279    2221    1787    4269
CTETRA      1537       1    5191    5262    5353      60    4875    4874+
+           5198    2280    2281    2282
CTETRA      1538       1    4697    5219    5012    4694    2268    4410+
+           4766    4765    2275    4750
CTETRA      1539       1    4697    5013    4383    4691    4767    4408+
+           2269    4768    4736    2283
CTETRA      1540       1      60      73      66    5191     508     507+
+            509    2280    2284    2285
CTETRA      1541       1      80      74    5328    5327     578     580+
+            575     588     547    5329
CTETRA      1542       1      80    4382    4692    5254     589    2286+
+           2287     586     590    4740
CTETRA      1543       1      73    5341      74    5193     546    2288+
+            511     518    4882     519
CTETRA      1544       1      74    5327    5254    4385     547     587+
+            592    2289    2290    2291
CTETRA      1545       1      80    4259    5327    5328     581    4298+
+            588     575    4297    5329
CTETRA      1546       1      66      75    5186    5191     513    2292+
+           2293    2285    1102    2294
CTETRA      1547       1      48    2956    2975    2943    1283    3281+
+           1282     366    3230    3280
CTETRA      1548       1     109    2951    2964    2952     808    3243+
+           2249    2010    3194    3244
CTETRA      1549       1      77    3020      78    3018    1950     959+
+            540    1305    3467    2261
CTETRA      1550       1    2919      97    2917    2912    2007     724+
+           3078    3081     729    3066
CTETRA      1551       1     148    2927    2891    2909    1379    3140+
+           1382    1951    3141    3042
CTETRA      1552       1      77    2914      78    2915     538     541+
+            540    1832    3058    1833
CTETRA      1553       1     145    2935    2936    2905    2026    3152+
+           2228    2295    3151    3153
CTETRA      1554       1    2947    2986    2946    2935    3333    3334+
+           3210    3204    1960    1961
CTETRA      1555       1    2612    2408    5107    2409    1780    2527+
+           2736    1782    2529    2525
CTETRA      1556       1    2610    2608     151    5105    2728    1583+
+           1656    2729    2723    1657
CTETRA      1557       1      47    4439    5356    4436     365    4509+
+           1946     392    4508    4491
CTETRA      1558       1      20    2378    2380    2384    1172    2427+
+           1176    1175    2429    2428
CTETRA      1559       1    2379    2388      67    2380    2450    1402+
+           1178    2431    2447    1400
CTETRA      1560       1       7      18    2383    2762     227     893+
+            241     243     895     244
CTETRA      1561       1      87    3674    3677    3675    1746    4036+
+           1343    1745    4020     361
CTETRA      1562       1      46    4457    4456    2587    2189    4572+
+           1761    1407    2190    1760
CTETRA      1563       1      19    2382    2381    2389     882    2426+
+            884    2149    2459    2458
CTETRA      1564       1      21    5232    4450    4451    2102    4548+
+            894     250    4550    4549
CTETRA      1565       1       7    4454    4961    2770    2170    4553+
+            232     238    2171    2866
CTETRA      1566       1    5130       7    2769    2382     242     235+
+           2859    2422     883    2296
CTETRA      1567       1      58      14      24     116     407    1610+
+           1605    1601    1863    1604
CTETRA      1568       1      15      53      17      16     398    2084+
+            214     213    1945     216
CTETRA      1569       1       9    2754    2756    2752     196    2790+
+            195     191    2786    2788
CTETRA      1570       1    2403    2754    5135    5134    2117    2785+
+           2506    2507    2806    5146
CTETRA      1571       1      67    2589    2591    2593     456    2639+
+           1186    1408    2647    2645
CTETRA      1572       1      29    2415    2407    2413     275    2557+
+           2147    1814    2559    2549
CTETRA      1573       1      11    2406    2400    2414    1549    2535+
+            185     349    2547    2550
CTETRA      1574       1    4475    4896    2612    4895    4662    2744+
+           1775    4635    4911    2746
CTETRA      1575       1      77     112    2909    2908    1750    1952+
+           2005    2297    2260    3046
CTETRA      1576       1      77     121      78    3020    1751    1748+
+            540    1950    1752     959
CTETRA      1577       1      77    2915    2916    2914    1832    3057+
+           1308     538    3058    3054
CTETRA      1578       1      71    4685    5016    4379    2205    4729+
+           1613    2298    2299    4386
CTETRA      1579       1    4687    4686    4316    4977    4717     493+
+           1628    4719    4718    4374
CTETRA      1580       1    4697    4694    4259    5219    4765     594+
+            560    2268    2275    4303
CTETRA      1581       1      79    4695    4697    4696     558    4763+
+            557     563    4761    4764
CTETRA      1582       1    4695    4306    4693    4981    2300     585+
+           4755    4753    4350    4745
CTETRA      1583       1    4696    4313    4695    4980     566    2301+
+           4761    4760    4356    4754
CTETRA      1584       1      71    4689    4687    4688    1615    4720+
+           1630    1623    4722    4721
CTETRA      1585       1    4686    4699    4314    5338    4770    1633+
+            494    4769    4771    4362
CTETRA      1586       1      71    4379    4255    4685    2298    2196+
+           2208    2205    2299    1619
CTETRA      1587       1      79    4688    4691    4383    1625    4737+
+           2274    2302    2203    2283
CTETRA      1588       1      71    4687    4686    4316    1630    4717+
+            491     492    1628     493
CTETRA      1589       1    2612    5107    2597    2409    2736    2679+
+           2738    1782    2525    1675
CTETRA      1590       1      79    4313    4312    4258     565    4358+
+            567     570    2273     571
CTETRA      1591       1     134    2921    2911    2910    1161    3091+
+           2303    2304    3090    3085
CTETRA      1592       1      31      32    5066      30     296     299+
+            295     293    1965     292
CTETRA      1593       1     119    3649    3648    3659     950    3943+
+            947     939    3972    3971
CTETRA      1594       1      32    5065    2920    5064     297    3107+
+           1159     306    5074    3106
CTETRA      1595       1    4380    4700    5019    4378     542    4782+
+           4402    4400     533    4394
CTETRA      1596       1      62    5020    4702    4378    2180    4790+
+            460     670    4395     534
CTETRA      1597       1    4709    4705    4998    4308    4823    4822+
+           4817    2305    2306    4324
CTETRA      1598       1      51      50      52      16    1538     384+
+            380    1533    1944    1534
CTETRA      1599       1    4705    4703    4999    4305    4794    4793+
+           4795    2181    2307    4318
CTETRA      1600       1      62    4709    4251    4705     667     669+
+            422     459    4823     465
CTETRA      1601       1    4379    5016      71    4377    4386    1613+
+           2298    4388    4391    1614
CTETRA      1602       1      72    4315    4314    5001     501    4367+
+           1632     499    4369    4361
CTETRA      1603       1    4256      72    4314      71     506    1632+
+           2308    2209    1634     495
CTETRA      1604       1    4255    4698    4685    4379    1622    4773+
+           1619    2196    2309    2299
CTETRA      1605       1    4689    4688    4377    5015    4722    1624+
+           1616    4728    4726    4392
CTETRA      1606       1      47    2604    2602    2600    1947    2701+
+            390     389    2699    2698
CTETRA      1607       1      79    4690    4687    4312     564    4734+
+            569     567    2310     568
CTETRA      1608       1      62    4706    4709    4708     468    4818+
+            667     466    4814    4819
CTETRA      1609       1      68    4305    4315    4703     530    4365+
+            529    2177    2307    2311
CTETRA      1610       1      62    4378      68    4253     670     535+
+            462    2312    2211    2175
CTETRA      1611       1    4702    5020    5019    4378    4790    5026+
+           4788     534    4395    4394
CTETRA      1612       1    4704    4705      62    4702    4800     459+
+           2179    4797    4799     460
CTETRA      1613       1      72      71    4255    4685    1634    2208+
+           1620     497    2205    1619
CTETRA      1614       1     127    2995    2996    2997    1821    3354+
+            986     990    3353    3355
CTETRA      1615       1     127    2993    2992    3005     984    3362+
+            989     982    3410    3409
CTETRA      1616       1     146    3012    3013    3010    1874    3436+
+           2009    1875    3433    3435
CTETRA      1617       1     141    2953     155    2965    1828    1830+
+           1827    1722    3255    1941
CTETRA      1618       1       7    4960    2770    4961     234    2865+
+            238     232    4971    2866
CTETRA      1619       1    3646    3645     117    3641    3921     875+
+            871    3924    3922     872
CTETRA      1620       1    3585    3586    3589    3590    3711    3727+
+           3722     694    3729    3728
CTETRA      1621       1     117    3637    3645    3646     861    3914+
+            875     871    3919    3921
CTETRA      1622       1    3590    3589    3593    3595    3728    2313+
+           3741    3739    3740    3743
CTETRA      1623       1     108    2967    2950    2949    2002    3262+
+           1713    1839    3263    3197
CTETRA      1624       1    2599    5333      17    4912    2677    1943+
+           1540    2676    4914    2105
CTETRA      1625       1     111    2985    5304    5303     828    3337+
+           1708    2236    3328    5314
CTETRA      1626       1    2971     108    2968     109    2314    2003+
+           3298    2246     809    2229
CTETRA      1627       1     138    2391    5321    2393    1474    2468+
+           1477    1471    2475    2477
CTETRA      1628       1      78    2907    2915    2917    1704    3051+
+           1833     727    3061    3076
CTETRA      1629       1     148    2909    2939    2927    1951    3162+
+           1953    1379    3141    3163
CTETRA      1630       1      76    5334    4827    5229    2253    4843+
+            522     521    5235    4842
CTETRA      1631       1     102    2933    2934    2903     802    3161+
+           2315    2316    3160    3157
CTETRA      1632       1     121    2982     110     112     890     816+
+           1838    1749     827     830
CTETRA      1633       1     127    3010     128    2994     981     980+
+            979    2262    3425    1374
CTETRA      1634       1    2986    2948    2947    2984    1991    3205+
+           3333    3331    3325    3326
CTETRA      1635       1     146     128    3005    3010    1371     983+
+           1370    1875     980    3428
CTETRA      1636       1    2974    2976     154    2973    3285    1726+
+           2242    3278    3287    1727
CTETRA      1637       1    5298    3009      63    5297    3414     430+
+           2057    5307    3415    2019
CTETRA      1638       1      49    2931    2959    2958    2035    3220+
+           2054    2021    3221    3223
CTETRA      1639       1     141    2959    2953    2954    1288    3216+
+           1828    1285    3218    3217
CTETRA      1640       1     142    2929    2930    2888    1869    3138+
+           1929    1816    3137    3136
CTETRA      1641       1      48    2944     139    2943    1807    1313+
+           1276     366    3188    2053
CTETRA      1642       1      63    5297     139    5298    2019    1796+
+           1312    2057    5307    2317
CTETRA      1643       1      94    3593    3592    3598     693    3735+
+           1021     736    3757    3758
CTETRA      1644       1      67    4452    4437    4451    1391    4545+
+           1184    1393    4547    4546
CTETRA      1645       1      22    4437    4916    5230     254    4493+
+           1181    2067    4495    4497
CTETRA      1646       1      56    4829    2753    4955    2045    2047+
+           1844    2051    4854    2779
CTETRA      1647       1     101    5072     133     106     779    1975+
+           1968     786     794    1967
CTETRA      1648       1     107    2924    2925    2926    2318    3118+
+           1926     798    3125    3122
CTETRA      1649       1      67    2388    2379    2593    1402    2450+
+           1178    1408    2252    1409
CTETRA      1650       1      23    4437    5230    5231     257    4495+
+           2066    2072    4496    5236
CTETRA      1651       1      70    5171    4170    5172    1730    4203+
+           1121    1298    5182    4213
CTETRA      1652       1    5154    3602    5153    3604    1020    1015+
+           5158    3793     754    3792
CTETRA      1653       1    4457    4456    2587    4919    4572    1760+
+           2190    4571    4565    2616
CTETRA      1654       1      67    2591    2592    2593    1186    2644+
+           2245    1408    2645    2646
CTETRA      1655       1      72      68    4700    4255     527     536+
+           1618    1620    2176    2195
CTETRA      1656       1      46      19    2381    2387    2191     884+
+            358    2160    2192    2449
CTETRA      1657       1      55    5247      56    4829    1515    2046+
+            402    2033    4861    2045
CTETRA      1658       1    2587    4919    4456    2585    2616    4565+
+           1760    2618    2621    1763
CTETRA      1659       1     136    4443    2583    2596    2074    2075+
+           1257    1272    2161    2656
CTETRA      1660       1     129    3681    3661    3660    1696    4048+
+           1013    1008    4047    3976
CTETRA      1661       1      93    3587    3591    3578    2234    3726+
+           2233     703    3713    3723
CTETRA      1662       1      87    3666    3677    3674    1205    4028+
+           1343    1746    4018    4036
CTETRA      1663       1    3652     129    3662    3651    1003    1004+
+           3981    3954    1011    3980
CTETRA      1664       1      96    3582    5274    5273    1669    3692+
+           1054     715    3693    5282
CTETRA      1665       1      83    3664    3686    3687    1130    4064+
+            616     614    4067    4070
CTETRA      1666       1      97    2895    2910    2918     718    3072+
+            717    2264    3071    3075
CTETRA      1667       1     134    2922    2912    2911    1164    3097+
+           2319    2303    3096    3083
CTETRA      1668       1    2390    2382    5129      19    2463    2423+
+           2461    2152     882    2320
CTETRA      1669       1    4444    4922    2596    4921    4521    2657+
+           1274    4524    4931    2662
CTETRA      1670       1     136    4444    4443    2596    1265    4522+
+           2074    1272    1274    2161
CTETRA      1671       1    4964     152    2771    4449    2159    1682+
+           2877    4538    2154    2156
CTETRA      1672       1     138    4467    4461     150    1486    4614+
+           1481    1480    2135    1483
CTETRA      1673       1     149     152    2390    2768    1558    2150+
+           2158    2232    1671    2321
CTETRA      1674       1     152    2772    2390    2768    1672    2151+
+           2150    1671    2870    2321
CTETRA      1675       1      54      55    5356    5248    1513    1521+
+           1445    1516    1517    5251
CTETRA      1676       1     111    5303     121    2982    2236     891+
+           1747     826    3316     890
CTETRA      1677       1     142    2887    2888    2930    1820    3139+
+           1816    1929    3129    3136
CTETRA      1678       1    2584     136    2392    5320    1258    1689+
+           1886    2164    2235    2470
CTETRA      1679       1     109    2964     135     147    2249    2322+
+           1200    1723    2265    1724
CTETRA      1680       1      31    3495    5066    5065     294    3540+
+            295     298    3541    5075
CTETRA      1681       1      32    2922    2921    5066    1163    3098+
+           1162     299    3112    3109
CTETRA      1682       1      97    2919    2911    2912    2007    3082+
+           2323     729    3081    3083
CTETRA      1683       1     128    2997    2994    2889    1810    3363+
+           1374    1932    3357    3358
CTETRA      1684       1     121    5303    3020    3021     891    3459+
+           1752    2080    3464    3465
CTETRA      1685       1      63    5299     154     128    1823    2016+
+           1989    1824    1822    1878
CTETRA      1686       1     148     121    3017    3014    1837    1949+
+           2240    1847    1955    3456
CTETRA      1687       1     148     121    3014     110    1837    1955+
+           1847    1836    1838    1848
CTETRA      1688       1     128    2929    2889    2928    1870    3148+
+           1932    1389    3150    3146
CTETRA      1689       1     135    2976    2970    2977    1728    3292+
+           2028    1199    3293    3290
CTETRA      1690       1    5107    2597    2409    5108    2679    1675+
+           2525    5123    2678    2526
CTETRA      1691       1     135     155     147    2966    1933    1877+
+           1724    1940    1935    1936
CTETRA      1692       1     141    2955    2963    2970    1289    3253+
+           1719    1800    3270    3272
CTETRA      1693       1    2971     109     135    2972    2246    1200+
+           1198    3296    1201    1197
CTETRA      1694       1      57    2749    2405    2376    1856    2259+
+           1502    2044    1867    2524
CTETRA      1695       1      91    2410    2407    2409     684    2536+
+           2148    1673    2537    2530
CTETRA      1696       1      29    2408    2611    2612    1778    2143+
+            286    1781    1780    2737
CTETRA      1697       1     139    5297    2902    2901    1796    3030+
+           2248    2220    3025    3031
CTETRA      1698       1     108    2984    2949     111    2237    2324+
+           1839     823    1701    1023
CTETRA      1699       1    2761    5137    2412    2414    2827    2552+
+           1638     348    2554    2555
CTETRA      1700       1      28    2419    2416    2415    1592    2578+
+           1591     271    2575    2563
CTETRA      1701       1      29    2613    4895    2611     284    2745+
+           1771     286    2740    2747
CTETRA      1702       1    4482    4897    2612    4896    4678    2732+
+           1776    4664    4909    2744
CTETRA      1703       1     100    5171    4103    4107    1731    4148+
+           1357    1921    4164    4162
CTETRA      1704       1      46    2585    2595    2586    1762    2665+
+           1759    1404    2619    2666
CTETRA      1705       1    2388    2586    2595    5114    1758    2666+
+            251    2455    2670    2671
CTETRA      1706       1      46    4458      19    4453    1985    2168+
+           2191    1984    4575    1694
CTETRA      1707       1    5047      37      36      34     318     317+
+            313     314    1901     311
CTETRA      1708       1      25    2399    2378    2398    1195    2500+
+           1174    1608    2502    2503
CTETRA      1709       1     146    3012    3004    3016    1874    3430+
+           1372    1367    3440    3439
CTETRA      1710       1    4959    4958    5233    2766    4967    4544+
+           4541    2835    2839    2325
CTETRA      1711       1     119    3632     124    5277     934     936+
+            933    1209    3880    1243
CTETRA      1712       1      90    3656    3606    3655    1067    3963+
+           2231    2222    3965    3964
CTETRA      1713       1     124    5277    3632    3634    1243    3880+
+            936    1238    3887    3895
CTETRA      1714       1      88    3683    3684    3680    1223    4057+
+           1226     654    4056    4058
CTETRA      1715       1    3594    3597    3596    3595    1990    3752+
+           3747    3744    3751    3748
CTETRA      1716       1      88    3683    3671    3670    1223    4054+
+           1219    1220    4055    4015
CTETRA      1717       1      31    3496    5063    3497    1410    3548+
+            304    1434    3547    3546
CTETRA      1718       1      84    5349      85    5163     625     624+
+            623    2326    5164    1572
CTETRA      1719       1     132    5063    5345    3497    1435    5083+
+           1971    1433    3546    3549
CTETRA      1720       1     144    5305    2988    5306    1427    3344+
+           1340    1339    5316    3345
CTETRA      1721       1      44    5091    5090    3676     355    5095+
+           2199     356    4022    4021
CTETRA      1722       1      30    3486    3495    3494    1155    3542+
+            291    1422    3539    3543
CTETRA      1723       1      23    4451    5231    5232    2255    4551+
+           2072    2071    4550    5241
CTETRA      1724       1       7      19      46    4458     237    2191+
+            357    2169    2168    1985
CTETRA      1725       1     130    3680      88    3684    1348     654+
+           1127    1231    4058    1226
CTETRA      1726       1      93    3599    3577    3591     712    3759+
+            704    2233    3762    3724
CTETRA      1727       1     123    3632    3605    3606     935    3876+
+           1214    2244    3878    3877
CTETRA      1728       1      81    5084    3687    5085     611    4069+
+            613     617    5099    4071
CTETRA      1729       1       7      19    4454    2770     237    1978+
+           2170     238     239    2171
CTETRA      1730       1     111    2982    2985    5303     826    3327+
+            828    2236    3316    3328
CTETRA      1731       1      85    3592    5163    5349    1573    3732+
+           1572     624    3733    5164
CTETRA      1732       1      97    2919    2918    2911    2007    3080+
+           2264    2323    3082    3084
CTETRA      1733       1     152    4448    4449    4445    1678    4534+
+           2154    1562    4533    4535
CTETRA      1734       1      85    5271    3604    5154     958    3795+
+            750    1019    3794    3793
CTETRA      1735       1    5129      19    2772    2390    2320    1685+
+           2885    2461    2152    2151
CTETRA      1736       1      97    2910    2911    2918     717    3085+
+           2323    2264    3075    3084
CTETRA      1737       1      30    5066    3486    5067     292    3504+
+           1155    1963    5077    3503
CTETRA      1738       1     124    3632    3633    3634     936    3884+
+           1073    1238    3895    3896
CTETRA      1739       1      44    5091    3679    5092     355    4037+
+            354    2012    5096    4039
CTETRA      1740       1       7    2382      19    2769     883     882+
+            237     235    2296     236
CTETRA      1741       1    2408    5106    2607    2611    2528    2712+
+           2224    2143    2733    2734
CTETRA      1742       1    2408    5106    2416    2607    2528    2560+
+           2562    2224    2712    2327
CTETRA      1743       1    2408    5106    2611    5107    2528    2733+
+           2143    2527    5124    2735
CTETRA      1744       1      84    4097    4094    4096    1599    4115+
+            642     641    4116    4111
CTETRA      1745       1      11    4464    4477    4478     475    4652+
+           1557    2120    4653    4646
CTETRA      1746       1      24      26      25      14    2065    2062+
+           1171    1610    2091    1611
CTETRA      1747       1      85    5151    3600    5349    1028    3769+
+            753     624    5155    3768
CTETRA      1748       1    4384    5023    5342    5262    4421    5035+
+           4422    2328    4824    5263
CTETRA      1749       1     108     111    2937     112     823    1024+
+           1712     825     824    1711
CTETRA      1750       1    2761    2414    2760    5137     348     351+
+           2828    2827    2554    2815
CTETRA      1751       1     109    2981    5301    2973     817    3313+
+           1999    1202    3312    3311
CTETRA      1752       1    4385    5010    5254    5341    4425    4715+
+           2291    4426    5036    5257
CTETRA      1753       1     111      78    5303    5304    1703     960+
+           2236    1708     961    5314
CTETRA      1754       1     127    3004    3005    3006    1811    3399+
+            982    1326    3398    3400
CTETRA      1755       1     100    5171    5172    4103    1731    5182+
+           1297    1357    4148    4147
CTETRA      1756       1     100    5351    4105    5268     768    4154+
+           2329    1296    5269    4155
CTETRA      1757       1     154    2974    5299    2944    2242    3275+
+           2016    1806    3276    3185
CTETRA      1758       1     124    3658    3648    3609     944    3959+
+            948    1246    3958    3940
CTETRA      1759       1      87    3672    3673    3671     661    4010+
+            656    1216    4012    4011
CTETRA      1760       1      98    2913    2917    2912    1429    3065+
+            725     730    3067    3066
CTETRA      1761       1      46    4458    4457    4459    1985    4574+
+           2189    1397    4578    4577
CTETRA      1762       1     108    2950    2937    2949    1713    3198+
+           1712    1839    3197    3195
CTETRA      1763       1    2984    2983     108    2978    3324     820+
+           2237    3323    3320     822
CTETRA      1764       1     148    3015    3016    3014    1388    3443+
+           1386    1847    3447    3446
CTETRA      1765       1      63     155     142     128    1939    1871+
+           1314    1824    1873    1809
CTETRA      1766       1      48    2954    2955    2957    1286    3225+
+           1290    1291    3224    3226
CTETRA      1767       1    2935    2905     145     144    3151    2295+
+           2026    1418    1416    1334
CTETRA      1768       1     146     148    3016     147    1378    1386+
+           1367    1365    1851    1366
CTETRA      1769       1     135    2971    2977    2969    1198    3295+
+           1199    2029    3297    3291
CTETRA      1770       1    4377    4688    4257    4383    1624    2206+
+           2330    4406    2203    2331
CTETRA      1771       1     135     141     154     155    1720    1801+
+           1729    1933    1827    1879
CTETRA      1772       1      77     148     121    3017    2004    1837+
+           1751    1948    2240    1949
CTETRA      1773       1      60    5187    5191    5186    1786    2332+
+           2280    2333    5190    2294
CTETRA      1774       1    5191      73      66    5192    2284     507+
+           2285    5197     551     515
CTETRA      1775       1    5254    5341    5194      74    5257    4883+
+           4880     592    2288     524
CTETRA      1776       1     154    5300    2974    2973    1938    3277+
+           2242    1727    3279    3278
CTETRA      1777       1     135    2964    2965    2966    2322    3249+
+           1721    1940    3258    3259
CTETRA      1778       1    4901    5333      50    2599    4905    1942+
+            372    2704    2677    1537
CTETRA      1779       1     107    2913    2923    2924    1738    3100+
+           1767    2318    3099    3101
CTETRA      1780       1      30    3487    3486    3494    1914    3508+
+           1155    1422    3538    3539
CTETRA      1781       1     105    3488    3487    3489     788    3509+
+           1915    1137    3513    3512
CTETRA      1782       1    5039      53    5243    5333    2086    2109+
+           4838    4847    2085    5244
CTETRA      1783       1     123    3606    3607    3633    2244    3885+
+           1076    1072    3883    3881
CTETRA      1784       1      45    3691    3683    5088    1413    4093+
+           1224    1412    4091    4088
CTETRA      1785       1    3623      92      99    3575    2172     738+
+           1017    2215    1361    2334
CTETRA      1786       1    3595    3593      94    3588    3743     693+
+           2335    2336    2337    1650
CTETRA      1787       1     109     110     147    5301     812    1853+
+           1723    1999    1846    2000
CTETRA      1788       1      13      37      26      33     877    2338+
+           1084    1082    1467    1083
CTETRA      1789       1     140    2930    2953    2959    1930    3214+
+           1829    1798    3219    3216
CTETRA      1790       1     134    5306    2897    3024    1169    3479+
+           1157    1331    3481    3480
CTETRA      1791       1      63    2944    5299    5298    1311    3185+
+           1823    2057    3184    5309
CTETRA      1792       1    4175    4172    4173      75    1106    4198+
+           1112    1103    1104    1111
CTETRA      1793       1     139    2944    5298    2901    1313    3184+
+           2317    2220    3186    3026
CTETRA      1794       1     135    2964    2962    2965    2322    3247+
+           2243    1721    3249    3248
CTETRA      1795       1     139    2901    5298    5297    2220    3026+
+           2317    1796    3025    5307
CTETRA      1796       1     100    5170    4107    4104     764    4165+
+           1921    1644    4166    4169
CTETRA      1797       1      67    4459      46    4457    1392    1397+
+           1396    2187    4577    2189
CTETRA      1798       1      59    4996    4706    4707     433    4805+
+            435     428    4802    4807
CTETRA      1799       1      61    5357    4683    5262     417    4810+
+            665    2339    5264    4825
CTETRA      1800       1      67      46    2388    2586    1396    1403+
+           1402    1405    1404    1758
CTETRA      1801       1      21    2766    4450    5233    2266    2340+
+            894    2263    2325    4543
CTETRA      1802       1    4450    4959    2766    2763    4542    2835+
+           2340    1983    2834    2833
CTETRA      1803       1      19    2772    2771    2769    1685    2879+
+           1683     236    2883    2882
CTETRA      1804       1      48    2958    2959    2957    2022    3223+
+           1287    1291    3228    3227
CTETRA      1805       1      73    4384    5342    5262     556    4422+
+            555    2341    2328    5263
CTETRA      1806       1    3621     114    3630      96    1037    1034+
+           2174    1036    1035    1055
CTETRA      1807       1    3574    3603    3601    3573    3783    3781+
+           3775    3785    3784    2219
CTETRA      1808       1    4181    5196    5195      66    4227    5201+
+           4226     448    2342     526
CTETRA      1809       1      61    5023    5262    4683     663    4824+
+           2339     665    4826    4825
CTETRA      1810       1      60    5340    5187    5186    1785    4888+
+           1786    2333    4889    5190
CTETRA      1811       1     115    3648    3610    3609    1247    3938+
+           1249    1245    3940    3819
CTETRA      1812       1      60    5353    5187    5259    2282    5188+
+           1786     411    4886    4887
CTETRA      1813       1    5262    5357      60      61    5264     419+
+           2281    2339     417     420
CTETRA      1814       1    3630    3624    3625    3614    3866    3851+
+           3869    1033    3850    3848
CTETRA      1815       1      98    2912     134    2913     730    2319+
+           1330    1429    3067    1432
CTETRA      1816       1      98    5304    2987    5305    1425    3338+
+           1333    1428    5315    3343
CTETRA      1817       1      97    2915    2919    2917    2006    3077+
+           2007     724    3076    3078
CTETRA      1818       1     112    2938    2908    2907    2115    3165+
+           2260    1707    3170    3052
CTETRA      1819       1     108    2980    2971    2979     818    3306+
+           2314     821    3308    3300
CTETRA      1820       1    4436    4900    2600    4899    4486    2681+
+            395    4487    4902    2680
CTETRA      1821       1      63     143     140     139    1316    1318+
+           1309    1312    1321    1279
CTETRA      1822       1    2935     144    2946     107    1418    1959+
+           1961    1417    1415    1966
CTETRA      1823       1      56    2753    2749    2748    1844    2777+
+           1843    1857    2776    2778
CTETRA      1824       1      63    3006    3009    5298     431    3416+
+            430    2057    3404    3414
CTETRA      1825       1    2588    5334    5229    4915    2632    5235+
+           2254    2633    4927    4492
CTETRA      1826       1     142    2995    2888    2887    1819    3351+
+           1816    1820    3352    3139
CTETRA      1827       1      37      26      33      34    2338    1083+
+           1467    1901    1080     307
CTETRA      1828       1    2758    5247    2759    4944    1518    1596+
+           2800    2803    4500    2801
CTETRA      1829       1    4917    4437    4916    2591    4494    4493+
+           4928    2637    1185    2636
CTETRA      1830       1       6    2601    5108    2597     169    2683+
+            225    1674    2682    2678
CTETRA      1831       1     122    2996    2995    2999     987    3354+
+           1817     908    3375    3369
CTETRA      1832       1     147    5300    2973    5301    1369    3279+
+           1725    2000    5311    3311
CTETRA      1833       1    2588    4915    5229    5230    2633    4492+
+           2254    2095    4498    5237
CTETRA      1834       1      48     140     139    2944    1277    1279+
+           1276    1807    1310    1313
CTETRA      1835       1      43    5297     139      63    1794    1796+
+           1319     898    2019    1312
CTETRA      1836       1     109    2961    2968    2962    2230    3266+
+           2229    2238    3246    3267
CTETRA      1837       1      22    2588    5230    4916    1183    2095+
+           2067    1181    2640    4497
CTETRA      1838       1     143    2931    2930    2959    1996    3130+
+           1931    2017    3220    3219
CTETRA      1839       1      34    3003    2999    3002    1903    3392+
+            909    1904    3393    3387
CTETRA      1840       1       9       4    4479      12     201     682+
+            200     193     206    2119
CTETRA      1841       1    4307    4707    4995    4996     426    4801+
+           4329    4328    4802    5005
CTETRA      1842       1    2758    4944    2753    5247    2803    2802+
+           2804    1518    4500    2048
CTETRA      1843       1      66    5196      74    5352    2342    2343+
+            510     445    5202    1353
CTETRA      1844       1    5352      75    5186      66    1919    2292+
+           5189     445     513    2293
CTETRA      1845       1      87      90    3655    3667     658    2222+
+           1206     659     660    3998
CTETRA      1846       1      79    4259    4257    4383     559    4304+
+           1626    2302    2344    2331
CTETRA      1847       1    5262      73      60    5191    2341     508+
+           2281    4875    2284    2280
CTETRA      1848       1    4687      79    4257    4688     569    1626+
+           1627    4721    1625    2206
CTETRA      1849       1     124    3607    3657    3608    1077    3960+
+           1075    2226    3842    3956
CTETRA      1850       1      75    4172    5352    5186    1104    4189+
+           1919    2292    4191    5189
CTETRA      1851       1    4687    4690    4978    4312    4734    4733+
+           4732     568    2310    4360
CTETRA      1852       1    4995    4707    4307    5259    4801     426+
+           4329    4716    4803     427
CTETRA      1853       1      59    4707    5357    5259     428    4804+
+            416     410    4803    5261
CTETRA      1854       1    4172    5187    5191    4175    4192    2332+
+           1105    1106    2345    4207
CTETRA      1855       1      73    5226    5192    5342     544    4878+
+            551     555    5228    4877
CTETRA      1856       1    5195      74      80    5194     525     578+
+           2278    5200     524    2276
CTETRA      1857       1      66      74    5194    5193     510     524+
+            523     517     519    5203
CTETRA      1858       1      73      60      74    4252     508     512+
+            511     549     554     550
CTETRA      1859       1      74    4310    5339    5252     579    4340+
+           2346    2347    2348    5255
CTETRA      1860       1      70    5169    5351    5265     761    5183+
+            766    1123    4196    5267
CTETRA      1861       1      73    5191    5262    5342    2284    4875+
+           2341     555    4876    5263
CTETRA      1862       1    4697    5013    5012    4383    4767    5031+
+           4766    2269    4408    4409
CTETRA      1863       1    5219    4382    5012    4694    4411    4413+
+           4410    2275     596    4750
CTETRA      1864       1     134    2922    2911    2921    1164    3096+
+           2303    1161    3098    3091
CTETRA      1865       1      32    2897    5063    5064    1158    3105+
+            303     306    3104    5073
CTETRA      1866       1     134    2897    2896    3024    1157    3088+
+           1424    1331    3480    3484
CTETRA      1867       1      64      75    5265    5352    1646    1124+
+           1920     446    1919    5266
CTETRA      1868       1      97     134    2910    2896    1423    2304+
+            717     716    1424    3074
CTETRA      1869       1      86    4102    4094    5350    1031    4141+
+            646     645    4143    4140
CTETRA      1870       1      64      75      66    4176    1646     513+
+            444     452     516     450
CTETRA      1871       1      59      60    5259    5357     412     411+
+            410     416     419    5261
CTETRA      1872       1    4700    4255    4698      72    2195    1622+
+           4781    1618    1620    1621
CTETRA      1873       1      31    3498    5065    5064     302    3553+
+            298     305    3555    5074
CTETRA      1874       1      73    5327      74    4385     548     547+
+            511     545    2290    2289
CTETRA      1875       1      74      60    4309    5328     512    1788+
+           1352     580    1358    1351
CTETRA      1876       1      70      69    5351     100     757     767+
+            766     758     760     768
CTETRA      1877       1    3588    3595    3589    3597    2336    3740+
+           3721    3750    3751    3749
CTETRA      1878       1      92    3575    3623    3629    1361    2215+
+           2172    1364    1734    3861
CTETRA      1879       1    5341    5194      74    5193    4883     524+
+           2288    4882    5203     519
CTETRA      1880       1     122    2992    3000    2991     988    3371+
+            907    2058    3373    3372
CTETRA      1881       1      71    4379    4377    5218    2298    4388+
+           1614    2349    4390    4389
CTETRA      1882       1    4687    4316    4312    4978    1628    4371+
+            568    4732    4373    4360
CTETRA      1883       1    4382    4692    5254    5010    2286    4740+
+            590    4417    4742    4715
CTETRA      1884       1      68    4254    4251    4253     528    4274+
+            464    2175    4276    4275
CTETRA      1885       1     127    2993    2996    2992     984    3360+
+            986     989    3362    3361
CTETRA      1886       1     127    2997     142    2995     990    1808+
+           1324    1821    3353    1819
CTETRA      1887       1      43      33    5052    2990     341    2077+
+           2257     905     913    3379
CTETRA      1888       1      33     122      43      35     903     897+
+            341     309     901     340
CTETRA      1889       1      34    2991    3001    2990    2059    3380+
+            833     912    3384    3382
CTETRA      1890       1      79    4313    4259    4695     565    2272+
+            559     558    2301     561
CTETRA      1891       1      80    5253    4684    5252    2277    4714+
+           2350    2351    5256    4713
CTETRA      1892       1     122      35     143      43     901    1995+
+           1813     897     340    1320
CTETRA      1893       1     122     127     142    2995     985    1324+
+           1323    1817    1821    1819
CTETRA      1894       1      34    3001    3000    3003     833    3381+
+            906    1903    3391    3390
CTETRA      1895       1      81    3691    5088    5087     605    4091+
+            600     599    4090    5098
CTETRA      1896       1      43    5052      33      38    2257    2077+
+            341    2018    2078    1095
CTETRA      1897       1      60    5340    4311    5259    1785    4345+
+            415     411    5260     414
CTETRA      1898       1     122    3008     127    2992    1876    1325+
+            985     988    3413     989
CTETRA      1899       1     103    2922    5067    2923    1924    3113+
+           1962    1769    3103    3116
CTETRA      1900       1      32     134    2920    2921    1156    1160+
+           1159    1162    1161    3092
CTETRA      1901       1      35    2998    2886    5047    1998    3367+
+           1992     315    3385    3377
CTETRA      1902       1    2935    2934    2904    2946    3156    3155+
+           3154    1961    3209    2352
CTETRA      1903       1     141    2963    2954    2965    1719    3252+
+           1285    1722    3251    3254
CTETRA      1904       1      34    5050    3003    5049     832    3395+
+           1903    1079    5060    3396
CTETRA      1905       1      92    3598    3576    3599     739    3764+
+            707     711    3767    3760
CTETRA      1906       1     152    2389    2393    2390    1686    2476+
+           2157    2150    2464    2479
CTETRA      1907       1     129    5279     125    3643    1345    1063+
+           1006     994    3926    1350
CTETRA      1908       1    5294    3500     132    5346    3569    1438+
+           2353    5296    3571    1913
CTETRA      1909       1     102    2945    2933    5071    1912    3212+
+            802     803    3207    3159
CTETRA      1910       1     104    5091     131    5092    2354    2011+
+           1140    1146    5096    1147
CTETRA      1911       1    2904    2946     107    2935    2352    1966+
+            800    3154    1961    1417
CTETRA      1912       1    2761    5138    2412    5137    2826    2553+
+           1638    2827    5148    2552
CTETRA      1913       1      28     151     150    4467    1587    1659+
+           1576    1586    1588    2135
CTETRA      1914       1    2584     138     151    2605    1260    1487+
+           2163    2708    1262    1654
CTETRA      1915       1     149    4441    2773    2767    1894    2162+
+           1564    1892    1895    2871
CTETRA      1916       1      44    3670    3676    5090    1225    4025+
+            356    2199    4023    4021
CTETRA      1917       1      27    2608    2607    2416    1581    2715+
+           2225    2137    2355    2327
CTETRA      1918       1     149    5322     150    2751    2145    1899+
+           1479    1898    1108    1553
CTETRA      1919       1     149    2751    2768    5322    1898    2853+
+           2232    2145    1108    2356
CTETRA      1920       1      91    4475      29    4474    1773    1783+
+           1779    2140    4649    2130
CTETRA      1921       1     152    4455    2771    4449    2153    2155+
+           1682    2154    4563    2156
CTETRA      1922       1      19    4458    4454    4453    2168    4576+
+           1978    1694    4575    4558
CTETRA      1923       1    2764    4958    2766    5234    2841    2839+
+           2837    2100    4499    2267
CTETRA      1924       1    2767    4471    2751     149    1893    1897+
+           2854    1892    1566    1898
CTETRA      1925       1     137    2585    4447    2595    2201    2202+
+           1977    1755    2665    2098
CTETRA      1926       1    2387     137     136    2386    1753    1251+
+           1680    2457    1255    1254
CTETRA      1927       1     136    4445    4442    4443    1264    4518+
+           1270    2074    4525    4526
CTETRA      1928       1    4701    5001    5000    4315    4779    5009+
+           4785     502    4369    4364
CTETRA      1929       1    5233    5234      26      21    5239    2088+
+            268    2263    2089    2070
CTETRA      1930       1    5243    4901    5333      50    4485    4905+
+           5244    2110     372    1942
CTETRA      1931       1      24    2378    2384    2377    1173    2429+
+            881    1860    2445    2444
CTETRA      1932       1      27    2607    2408    2416    2225    2224+
+           1784    2137    2327    2562
CTETRA      1933       1     119     125    5278     120     938    1117+
+           1697     868    1009    1349
CTETRA      1934       1      17    4827    4912    4828    2103    4844+
+           2105    2108    4849    4850
CTETRA      1935       1     140      49    2959      48    1278    2054+
+           1798    1277     368    1287
CTETRA      1936       1      99    3600    3602    3601     744    3777+
+            752    2357    3773    3778
CTETRA      1937       1      87    3654    5280    3665    1228    3967+
+            649    1342    4004    3999
CTETRA      1938       1    2915      78      97    2914    1833     726+
+           2006    3058     541     732
CTETRA      1939       1    3588    3593      94    3585    2337     693+
+           1650    3720     686     692
CTETRA      1940       1      97     134    2912    2911    1423    2319+
+            729    2323    2303    3083
CTETRA      1941       1      97    2919    2914    2918    2007    3079+
+            732    2264    3080    3069
CTETRA      1942       1    5194    4184    4180      66    4246    4247+
+           4224     523     449    2358
CTETRA      1943       1    5352    5339      74    4992    4890    2346+
+           1353    4891    4993    1355
CTETRA      1944       1      86    5349    4099    5268     628    4128+
+            630    1294    5270    4126
CTETRA      1945       1      84    5163    4098    4099    2326    4120+
+            636     629    4127    4123
CTETRA      1946       1      77     112     121     148    1750    1749+
+           1751    2004    1835    1837
CTETRA      1947       1      75    5192    4175    5191     514    4206+
+           1103    1102    5197    4207
CTETRA      1948       1      73    5226    5193    5192     544    4881+
+            518     551    4878    5199
CTETRA      1949       1     109    2980    2972    2971     819    3307+
+           1201    2246    3306    3296
CTETRA      1950       1      59      62    4706    4709     421     468+
+            435     668     667    4818
CTETRA      1951       1      84      69    4094      86     632     643+
+            642     626     633     646
CTETRA      1952       1      66    5352    4181    5196     445    4237+
+            448    2342    5202    4227
CTETRA      1953       1    4960    4959    4450    2763    4970    4542+
+           4568    2861    2834    1983
CTETRA      1954       1      32    2920    5065    2921    1159    3107+
+            297    1162    3092    3108
CTETRA      1955       1      25    2582    2581    2590    1528    2626+
+           1188    1193    2625    2627
CTETRA      1956       1      97    3024      98     134     722     723+
+            721    1423    1331    1330
CTETRA      1957       1      31      32    5064    5065     296     306+
+            305     298     297    5074
CTETRA      1958       1      48      49    2959    2958     368    2054+
+           1287    2022    2021    3223
CTETRA      1959       1      27    2415      28    2416     272     271+
+            270    2137    2563    1591
CTETRA      1960       1      12    2756    2755    4942     194    2792+
+           1509    2118    2791    2781
CTETRA      1961       1       3    4439      47    4436     159     365+
+            364    2250    4508     392
CTETRA      1962       1     153    4937    4464    4470    1636    4600+
+           1635    1881    4616    4615
CTETRA      1963       1    4940    2760    4473    2752    2817    1551+
+           4639    2813    2816    1360
CTETRA      1964       1      67    2593    2587    2586    1408    2652+
+           1406    1405    2650    2620
CTETRA      1965       1      91    2612      29    4475    1774    1781+
+           1779    1773    1775    1783
CTETRA      1966       1     122    2887     142     143    1818    1820+
+           1323    1813    1997    1317
CTETRA      1967       1      25      16    2398      14    1093    2113+
+           1608    1611     212    1612
CTETRA      1968       1      27    2611    2607    2613     285    2734+
+           2225     283    2740    2739
CTETRA      1969       1      53    5344    5040    5242     919    5041+
+           2116    2083    4833    4831
CTETRA      1970       1    2975    2944     141      48    3282    1804+
+           1281    1282    1807    1280
CTETRA      1971       1    5050    5049      34      26    5060    1079+
+            832     673     267    1080
CTETRA      1972       1    2415      27    2408    2416     272    1784+
+           2558    2563    2137    2562
CTETRA      1973       1      27    2606    2607    2608     280    2714+
+           2225    1581    2713    2715
CTETRA      1974       1    5336    4829    2753    5247    4855    2047+
+           2780    5249    4861    2048
CTETRA      1975       1    2748    4830    4955    5337    2359    4866+
+           2774    2775    4867    4956
CTETRA      1976       1      21    5232      26    5233    2102     269+
+           2070    2263    5240     268
CTETRA      1977       1      37    4830    5048    5047    1100    4865+
+           1099     318    4864    5058
CTETRA      1978       1     137    2595    4921    2596    1755    2664+
+           2097    1273    2661    2662
CTETRA      1979       1     111    2984    2949    2948    1701    2324+
+           1023    1698    3325    3202
CTETRA      1980       1     135    2972    2976    2977    1197    3288+
+           1728    1199    3294    3293
CTETRA      1981       1      37      42      56    4829     333    1525+
+           2050    2032    2031    2045
CTETRA      1982       1     108    2978    2979    2967     822    3305+
+            821    2002    3304    3301
CTETRA      1983       1     107    2905    2913    2924    1414    3063+
+           1738    2318    3093    3099
CTETRA      1984       1       8      20    2384      18     245    1175+
+            176     230     263     240
CTETRA      1985       1      21    5234    2766    5233    2089    2267+
+           2266    2263    5239    2325
CTETRA      1986       1      97      78    3023    3022     726     734+
+            719     733    2360    3475
CTETRA      1987       1    5320     138     151    2584    1489    1487+
+           1490    2164    1260    2163
CTETRA      1988       1    4943    5248    4944    2759    4504    4507+
+           4947    2797    2166    2801
CTETRA      1989       1      40    2902    5343    5039    2247    3032+
+           1469     925    3033    5042
CTETRA      1990       1     121    5303    3021    5302     891    3464+
+           2080     889    5313    3463
CTETRA      1991       1    4378    5217    4380    4253    4401    4397+
+           4400    2211    4285    2197
CTETRA      1992       1      24     116    2377    2385    1604    1861+
+           1860     880    1606    2441
CTETRA      1993       1      62    5216    4378    4253    2361    4431+
+            670    2312    4279    2211
CTETRA      1994       1      62    4253    4250    5216    2312    4278+
+            471    2361    4279    4277
CTETRA      1995       1    4379    5218      71    4255    4390    2349+
+           2298    2196    4290    2208
CTETRA      1996       1     127    2997    2993    2994     990    3364+
+            984    2262    3363    3365
CTETRA      1997       1      48    2942    2960    2956     369    3237+
+           1292    1283    3229    3236
CTETRA      1998       1      48    2955     141    2956    1290    1289+
+           1280    1283    3238    1284
CTETRA      1999       1     135    2966     147    2964    1940    1936+
+           1724    2322    3258    2265
CTETRA      2000       1      27    4894    2613    2606     282    2743+
+            283     280    2742    2741
CTETRA      2001       1    2416    5105    5320     151    2561    2579+
+           2580    1590    1657    1490
CTETRA      2002       1     141    2970    2956    2955    1800    3271+
+           1284    1289    3270    3238
CTETRA      2003       1      48    2942    2941    2960     369    3179+
+           2023    1292    3237    3239
CTETRA      2004       1    5233    5048      26    5234    4870    1078+
+            268    5239    4871    2088
CTETRA      2005       1      27    2416     151    2608    2137    1590+
+           1584    1581    2355    1583
CTETRA      2006       1     153    4465    4464    4478    1568    4619+
+           1635    2121    4651    4653
CTETRA      2007       1    3001    5051      34    2990    3383     831+
+            833    3382    3378     912
CTETRA      2008       1    4443    4922    2583    2596    4523    2658+
+           2075    2161    2657    2656
CTETRA      2009       1     108    2982    2980    2983     815    3318+
+            818     820    3322    3321
CTETRA      2010       1      28    4465    4466    4468     287    4607+
+            276    1571    4606    4605
CTETRA      2011       1     122    2991    3009    3008    2058    3419+
+            899    1876    3418    3417
CTETRA      2012       1    4441    4966    4965    2767    4516    4972+
+           4513    1895    2857    2872
CTETRA      2013       1     153    4478      29    4465    2121    2129+
+           1770    1568    4651     290
CTETRA      2014       1    4469    2606    5332    4893    1988    2718+
+           4611    4604    2719    4906
CTETRA      2015       1      86    5151    4104    4106    1026    4149+
+           1643    1642    2362    1645
CTETRA      2016       1     100    5169    4104    4105     763    4152+
+           1644    2329    4151    4153
CTETRA      2017       1     153     150    2750    4472    1575    1554+
+           1883    1882    1896    1885
CTETRA      2018       1      74    4992    5339    4309    1355    4993+
+           2346    1352    4331    4330
CTETRA      2019       1    2382    2383    5130       7    2424    2420+
+           2422     883     241     242
CTETRA      2020       1    3601      99    3598    3575    2357     737+
+           3772    3774    2334    3765
CTETRA      2021       1      59      61    4252      60     418     552+
+           2279     412     420     554
CTETRA      2022       1      19    2382    5129    2769     882    2423+
+           2320     236    2296    2860
CTETRA      2023       1     149    2390    5322    2768    2158    2481+
+           2145    2232    2321    2356
CTETRA      2024       1      69    5173    5174    4096     482    5178+
+            481     640    4113    4114
CTETRA      2025       1     152      19    2771    4455    1684    1683+
+           1682    2153    1691    2155
CTETRA      2026       1      19    2771    4962    2770    1683    2875+
+           1979     239    2881    2880
CTETRA      2027       1      74    5339    4310    4309    2346    4340+
+            579    1352    4330    4338
CTETRA      2028       1    4471    2751    5335    2767    1897    2858+
+           4623    1893    2854    2856
CTETRA      2029       1      86    4105    5349    5268    2363    4157+
+            628    1294    4155    5270
CTETRA      2030       1      99    3598    3600    3601     737    3771+
+            744    2357    3772    3773
CTETRA      2031       1    2762       7    2769    5130     243     235+
+           2862    2846     242    2859
CTETRA      2032       1      84    4094    5160    5350     642    4119+
+           1029     644    4140    5168
CTETRA      2033       1    5194      74      80    5254     524     578+
+           2276    4880     592     586
CTETRA      2034       1    2390    2768    5128    5322    2321    2851+
+           2462    2481    2356    2480
CTETRA      2035       1      70    5171    4173      75    1730    1115+
+           1125    1118    1114    1111
CTETRA      2036       1    4306    4982    4310    4684    4337    4332+
+           4334    2364    4712    2365
CTETRA      2037       1      66    4180    5195    4181    2358    4223+
+            526     448    4225    4226
CTETRA      2038       1      94    3588    3597    3595    1650    3750+
+           1651    2335    2336    3751
CTETRA      2039       1     129     130    3681      89     996    2213+
+           1696     998     997    1695
CTETRA      2040       1      94      85    3592    3594     748    1573+
+           1021    2366    1574    3734
CTETRA      2041       1      84    5162    3594    5161    1529    3738+
+           1647    1530    5166    1649
CTETRA      2042       1    4310    4983    5252    4684    4333    4710+
+           2348    2365    4711    4713
CTETRA      2043       1      64    4176    4184    4178     452    4245+
+            451     439    4221    4248
CTETRA      2044       1      85    5350    5160    5271    1030    5168+
+            955     958    5287    3755
CTETRA      2045       1      94    3588    3585    5272    1650    3720+
+            692     953    3718    3708
CTETRA      2046       1      69    5175    4098    4101     478    4133+
+            638     635    4138     637
CTETRA      2047       1      66    5196    5195      74    2342    5201+
+            526     510    2343     525
CTETRA      2048       1      73    5327    4385    5215     548    2290+
+            545    2271    4264    4424
CTETRA      2049       1      80    5252    5195    5253    2351    4872+
+           2278    2277    5256    4873
CTETRA      2050       1    3616    3631    3635    3626     834    3889+
+           1716    3838    3888    3890
CTETRA      2051       1    5194      66    4180    5195     523    2358+
+           4224    5200     526    4223
CTETRA      2052       1      74    5196    5252    5339    2343    4884+
+           2347    2346    4885    5255
CTETRA      2053       1      96    3630    3629    5274    1055    3865+
+           1363    1054    3867    3863
CTETRA      2054       1     124    3608    3658    3609    2226    3955+
+            944    1246    3816    3958
CTETRA      2055       1     124    3634    3633    3635    1238    3896+
+           1073    1241    3892    3894
CTETRA      2056       1    3690      83    3684    3685     603    1230+
+           4084    4083    1136    4063
CTETRA      2057       1      94      85    3600    3592     748     753+
+            743    1021    1573    3770
CTETRA      2058       1     134    2923    2913    2912    1766    3100+
+           1432    2319    3102    3067
CTETRA      2059       1    4311    5340    4995    5259    4345    5006+
+           4344     414    5260    4716
CTETRA      2060       1    2379    5112    2589    2593    2496    2624+
+           1180    1409    2648    2647
CTETRA      2061       1     129    3653    5279    3643     999    3936+
+           1345     994    3950    3926
CTETRA      2062       1     153    4937    2750    2761    1636    2822+
+           1883    1637    2821    2820
CTETRA      2063       1     145    2905    2906    2913    2295    3064+
+           1736    1431    3063    3062
CTETRA      2064       1      97     134    2911    2910    1423    2303+
+           2323     717    2304    3085
CTETRA      2065       1    2893      77    2914    2894    1306     538+
+           3053    3055     537    3056
CTETRA      2066       1      77    3018    3019    3017    1305    3451+
+           1304    1948    3458    3457
CTETRA      2067       1    2917     145    2913      98    1737    1431+
+           3065     725    1336    1429
CTETRA      2068       1      78    2894    3018    3022     539    3449+
+           2261    2360    3468    3470
CTETRA      2069       1      49     143    2931      35    1831    1996+
+           2035    1456    1995    1993
CTETRA      2070       1      77    2909    2892    2916    2005    3041+
+           1307    1308    3044    3047
CTETRA      2071       1    2588    5230    4916    4915    2095    4497+
+           2640    2633    4498    4929
CTETRA      2072       1     144    2946    2988    2986    1959    3339+
+           1340    1958    3334    3341
CTETRA      2073       1    2748    5337    5234    4830    2775    5238+
+           2114    2359    4867    4868
CTETRA      2074       1      34    3002    5047    5048    1904    3388+
+            314    1081    3389    5058
CTETRA      2075       1      17    2599    2581    2582    1540    2674+
+           1526    1527    2675    2626
CTETRA      2076       1      36      38      43      33     320    2018+
+            339     310    1095     341
CTETRA      2077       1    2748    5234    5337    4958    2114    5238+
+           2775    2840    4499    4968
CTETRA      2078       1     155    2953    2930    2929    1830    3214+
+           1928    1872    3215    3138
CTETRA      2079       1     128    2929    2888    2889    1870    3137+
+           1815    1932    3148    3149
CTETRA      2080       1     112    2908    2915    2907    2260    3050+
+           1834    1707    3052    3051
CTETRA      2081       1      64    4181    4179    4180     447    4228+
+            442    1299    4225    4229
CTETRA      2082       1      21    2766    2763    4450    2266    2833+
+            886     894    2340    1983
CTETRA      2083       1      77    2915     112    2908    1832    1834+
+           1750    2297    3050    2260
CTETRA      2084       1    2979     108    2968    2971     821    2003+
+           3299    3300    2314    3298
CTETRA      2085       1     111    2936     145    2948    1022    2228+
+           1700    1698    3201    1699
CTETRA      2086       1    2753    4944    5336    5247    2802    4948+
+           2780    2048    4500    5249
CTETRA      2087       1      37    4830    5047    4955    1100    4864+
+            318    2030    4866    4857
CTETRA      2088       1      58    2748    4830    4955    1859    2359+
+           1101    2052    2774    4866
CTETRA      2089       1      70    5173    4177    4178     484    4222+
+           1120     486    4218    4220
CTETRA      2090       1      84      69    4101    4096     632     635+
+            634     641     640    4136
CTETRA      2091       1    2917     111      78    2907    1735    1703+
+            727    3061    1705    1704
CTETRA      2092       1     146    2891    3011    3013    1381    3423+
+           2367    2009    3431    3434
CTETRA      2093       1      70    4095    5172    5173     755    4109+
+           1298     484    4108    5177
CTETRA      2094       1    3596    3594    5161    3597    3747    1649+
+           3746    3752    1990    3753
CTETRA      2095       1      84    5163    3594    5162    2326    3737+
+           1647    1529    5165    3738
CTETRA      2096       1    2581    4912    4827    5334    2673    4844+
+           2106    2635    4913    4843
CTETRA      2097       1      34    5048    5049    3002    1081    5061+
+           1079    1904    3389    3397
CTETRA      2098       1      38    5343    4827    4828    1470    4840+
+           2104    2368    4846    4849
CTETRA      2099       1      69    4094    4095    4096     643    4112+
+            756     640    4111    4110
CTETRA      2100       1    2984    2949    2948    2978    2324    3202+
+           3325    3323    3302    3303
CTETRA      2101       1      91    2407    2408    2409    2148    2531+
+           1777    1673    2530    2529
CTETRA      2102       1      25    2590    2397    2582    1193    2251+
+           2096    1528    2625    1547
CTETRA      2103       1     109    2962     135    2964    2238    2243+
+           1200    2249    3247    2322
CTETRA      2104       1      49      35      43     143    1456     340+
+           1825    1831    1995    1320
CTETRA      2105       1     135    2965    2962    2963    1721    3248+
+           2243    1718    3251    3250
CTETRA      2106       1      94    5272      92      99     953     954+
+            691     735     952     738
CTETRA      2107       1    2753    4955    4829    5336    2779    4854+
+           2047    2780    4957    4855
CTETRA      2108       1      57      16      14    2394    2043     212+
+            408    2039    2112    2111
CTETRA      2109       1      55    5344    5248    5044     920    4853+
+           1517    1524    5053    4851
CTETRA      2110       1    3631     113    3620    3616     844    1242+
+            835     834    1957    3814
CTETRA      2111       1      64      75    4176    4177    1646     516+
+            452    1110    1119    4217
CTETRA      2112       1      73    4384    4385    5226     556    4429+
+            545     544    4430    4428
CTETRA      2113       1      99    3575    3601    3573    2334    3774+
+           2357     741    2218    2219
CTETRA      2114       1      23      26    5231    5230    2063     672+
+           2072    2066     671    5236
CTETRA      2115       1      65    4178    5174    5173     438    4219+
+            480     483    4218    5178
CTETRA      2116       1     124    3627    3616    3635    2227    3837+
+           1717    1241    3893    1716
CTETRA      2117       1    3622    3614     114    3625    3832    1032+
+            841     853    3848     854
CTETRA      2118       1    5327    5215    5355    4385    4264    5220+
+           5330    2290    4424    4423
CTETRA      2119       1     124    3608    3609    3616    2226    3816+
+           1246    1717    3815    3812
CTETRA      2120       1    4173    5170    4174    5171    4195    4199+
+           4200    1115    5184    4201
CTETRA      2121       1      86    5268     100    4105    1294    1296+
+           1295    2363    4155    2329
CTETRA      2122       1      64      66    4181    4180     444     448+
+            447    1299    2358    4225
CTETRA      2123       1      68    4703      72    4700    2177    1617+
+            527     536    4791    1618
CTETRA      2124       1    3585    3590    3593      93     694    3741+
+            686     689     695     690
CTETRA      2125       1    5328    5354    4309    4310    5331    4339+
+           1351     577    4336    4338
CTETRA      2126       1     117    3639    3648    3649     858    3939+
+           1956    2204    3941    3943
CTETRA      2127       1    5191    5186    4172      75    2294    4191+
+           1105    1102    2292    1104
CTETRA      2128       1     124    3658    3608    3657     944    3955+
+           2226    1075    3957    3956
CTETRA      2129       1     123    3633    3632    3606    1072    3884+
+            935    2244    3883    3878
CTETRA      2130       1     118    3581    3638    5276     975    3905+
+            863     968    3700    3900
CTETRA      2131       1      39      53    5040    5039     921    2116+
+            929     926    2086    5043
CTETRA      2132       1    2766    2765      21    2763    2836     885+
+           2266    2833    2830     886
CTETRA      2133       1      76      38    5052    4827    1096    2078+
+            520     522    2104    4839
CTETRA      2134       1     116      58      14      57    1601     407+
+           1863    1855     406     408
CTETRA      2135       1      39    5044    5045    2940     917    5055+
+            916    1463    3173    3174
CTETRA      2136       1      39    5044    2898    5344     917    3028+
+            930     922    5053    3027
CTETRA      2137       1      38      15      42      53    1089     332+
+            924    1600     398     400
CTETRA      2138       1      40    5039    2899    2900     925    3037+
+            928    1458    3039    3040
CTETRA      2139       1      41    2932    2940    5045    2055    3231+
+           1464    1594    3132    3174
CTETRA      2140       1      73      74    5341    4385     511    2288+
+            546     545    2289    4426
CTETRA      2141       1      80    4692    4382    4694    2287    2286+
+            589     593    4751     596
CTETRA      2142       1     154    2975    2974    2944    1802    3283+
+           2242    1806    3282    3276
CTETRA      2143       1     113     126    3611     118    1051    1052+
+           1048     966     977    1047
CTETRA      2144       1      59    4252    4251    5208    2279    4270+
+            423    2221    4269    4260
CTETRA      2145       1      80      74    5195    5252     578     525+
+           2278    2351    2347    4872
CTETRA      2146       1    5208    4307    5207    4251    4320    4319+
+           5209    4260    2369    4261
CTETRA      2147       1      60    4311    4992    4309     415    4346+
+           1356    1788    4347    4331
CTETRA      2148       1      62    4381      61    4708     470     469+
+            424     466     458     467
CTETRA      2149       1    4307    5259    4311    4995     427     414+
+           4342    4329    4716    4344
CTETRA      2150       1     124    3616    3627    3608    1717    3837+
+           2227    2226    3815    3840
CTETRA      2151       1      59    4308    4706    4996     434    2370+
+            435     433    4326    4805
CTETRA      2152       1      18    2765    2762    2763     887    2831+
+            895     888    2830    2832
CTETRA      2153       1      46    2587    2585    2586    1407    2618+
+           1762    1404    2620    2619
CTETRA      2154       1      23    4437    5231    4451     257    4496+
+           2072    2255    4546    4551
CTETRA      2155       1      20      23    4451    4437     256    2255+
+            247     253     257    4546
CTETRA      2156       1    4919    4920    4456    2585    4926    4564+
+           4565    2621    2622    1763
CTETRA      2157       1     137    4453      46      19    1693    1984+
+           1987    1690    1694    2191
CTETRA      2158       1      70    5265    5351    4182    1123    5267+
+            766     488    4234    4233
CTETRA      2159       1    4447    2585    4920    4921    2202    2622+
+           4529    4528    2663    4932
CTETRA      2160       1     137    2595    2386    2388    1755     252+
+           1255    1754     251    2456
CTETRA      2161       1    5229      76    2588    5230     521    2094+
+           2254    5237    2068    2095
CTETRA      2162       1      15      14      57      16     209     408+
+            403     213     212    2043
CTETRA      2163       1     149    2773    2768    2767    1564    2868+
+           2232    1892    2871    2855
CTETRA      2164       1      74    5341    4385    5254    2288    4426+
+           2289     592    5257    2291
CTETRA      2165       1    5196    5352    5339      74    5202    4890+
+           4885    2343    1353    2346
CTETRA      2166       1     136     152     149    4445    1687    1558+
+           2079    1264    1562    1561
CTETRA      2167       1      98    5305    3024    3023    1428    3482+
+            723     720    3473    3483
CTETRA      2168       1     153    4470    4468    4472    1881    4618+
+           1569    1882    4625    4624
CTETRA      2169       1    5050    3001      34    3003    3394     833+
+            832    3395    3391    1903
CTETRA      2170       1    3616    3627    3626    3635    3837    3839+
+           3838    1716    3893    3890
CTETRA      2171       1      44    5093    5092    3678     352    5103+
+           2012     344    4032    4034
CTETRA      2172       1      27      28    4469     151     270     279+
+            278    1584    1587    1585
CTETRA      2173       1    2393     152     136    2389    2157    1687+
+           1472    2476    1686    1681
CTETRA      2174       1    5353    4171    4175    5187    4185    4187+
+           4186    5188    4188    2345
CTETRA      2175       1    5254    5194    5253      80    4880    4879+
+           5258     586    2276    2277
CTETRA      2176       1    5187    5186    4172    5191    5190    4191+
+           4192    2332    2294    1105
CTETRA      2177       1      70    5173      69    4095     484     482+
+            757     755    4108     756
CTETRA      2178       1       7      18    2762    2763     227     895+
+            243    1982     888    2832
CTETRA      2179       1    2390    2772    5128    2768    2151    2884+
+           2462    2321    2870    2851
CTETRA      2180       1    4471    4966    2767    5335    4622    2857+
+           1893    4623    4969    2856
CTETRA      2181       1      72      68    4315    4703     527     529+
+            501    1617    2177    2311
CTETRA      2182       1    4695    4981    4313    4306    4753    4355+
+           2301    2300    4350    4353
CTETRA      2183       1    4306    4693    4981    4982     585    4745+
+           4350    4337    4744    4986
CTETRA      2184       1      66    4184    4180      64     449    4247+
+           2358     444     451    1299
CTETRA      2185       1    4306    4684    4693    4982    2364    4746+
+            585    4337    4712    4744
CTETRA      2186       1    4259    5204    5328    4306    4300    4299+
+           4297     584    4348     574
CTETRA      2187       1    4095      86     100    4102    1300    1295+
+            759    4142    1031    1641
CTETRA      2188       1      64    5352    5265    4182     446    5266+
+           1920    1799    4236    4234
CTETRA      2189       1    4310    4982    4983    4684    4332    4984+
+           4333    2365    4712    4711
CTETRA      2190       1    5327    4382    5254    4385     591     590+
+            587    2290    4427    2291
CTETRA      2191       1      69    5174    4101    4096     481    4137+
+            635     640    4114    4136
CTETRA      2192       1      80    4306    4684    4693     573    2364+
+           2350     582     585    4746
CTETRA      2193       1    5204    4258    4312    4313    4294     571+
+           4351    4354    2273    4358
CTETRA      2194       1     117    3640    3650    3641    2210    3944+
+            945     872    3923    3945
CTETRA      2195       1      97    2918    2894    2895    2264    3068+
+            731     718    3071    3070
CTETRA      2196       1    5204    5205    4312    4258    5213    4352+
+           4351    4294    4293     571
CTETRA      2197       1    4378    4253    5216    5217    2211    4279+
+           4431    4401    4285    5222
CTETRA      2198       1     132    5346    3497    5294    1913    3552+
+           1433    2353    5296    3550
CTETRA      2199       1    5219    5218    4257    4383    5223    4288+
+           4289    4404    4403    2331
CTETRA      2200       1    2388    5113    2586    5114    2452    2651+
+           1758    2455    5117    2670
CTETRA      2201       1     134    2920    2910    2896    1160    3087+
+           2304    1424    3086    3074
CTETRA      2202       1     100    4107    4106    4104    1921    4163+
+           1640    1644    4169    1645
CTETRA      2203       1     105    3485    3500    5072    1148    3567+
+           1439     783    3502    3566
CTETRA      2204       1      82      45     131    5088     607    1742+
+           1442     601    1412    1907
CTETRA      2205       1    5218    4257    4383    4377    4288    2331+
+           4403    4389    2330    4406
CTETRA      2206       1      94    5271    3588    5272     957    3719+
+           1650     953    5286    3718
CTETRA      2207       1     131    3489    5089    5090    1141    3510+
+           1906    2200    3511    5094
CTETRA      2208       1      60    5191    5187    5353    2280    2332+
+           1786    2282    5198    5188
CTETRA      2209       1      62      61    4250    4251     424     472+
+            471     422     425    4271
CTETRA      2210       1      80    4694    4693    4692     593    4752+
+            582    2287    4751    4748
CTETRA      2211       1    5084      45    3687    5346     609     612+
+           4069    5100    1743    4068
CTETRA      2212       1      82    5346    5084    3497    1908    5100+
+            608    2371    3552    3551
CTETRA      2213       1      59    4308    4709    4706     434    2305+
+            668     435    2370    4818
CTETRA      2214       1      61    4252    4250    4251     552    4267+
+            472     425    4270    4271
CTETRA      2215       1      60    4311    4309    5208     415    4347+
+           1788    1787    4343    4341
CTETRA      2216       1    3634    3631     115    5276    3891     845+
+           1237    3886    3873     846
CTETRA      2217       1    4307    5207    4251    4308    4319    4261+
+           2369    4327    4322    2372
CTETRA      2218       1      84    5163    4099    5349    2326    4127+
+            629     625    5164    4128
CTETRA      2219       1      75    5265    5352    4172    1124    5266+
+           1919    1104    4190    4189
CTETRA      2220       1      62    4708    4704    5021     466    4820+
+           2179    2178    4812    4798
CTETRA      2221       1      64      75      70    5265    1646    1118+
+           1109    1920    1124    1123
CTETRA      2222       1    5192    5191      75      66    5197    1102+
+            514     515    2285     513
CTETRA      2223       1      68    4703    4705    4305    2177    4794+
+            461     530    2307    2181
CTETRA      2224       1      64    4182    4181    5352    1799    4235+
+            447     446    4236    4237
CTETRA      2225       1      64    4178      70    4177     439     486+
+           1109    1110    4220    1120
CTETRA      2226       1      75    5192    4170    4175     514    4208+
+           1122    1103    4206    4204
CTETRA      2227       1      91    2406    2407    2410    1452    2538+
+           2148     684    2533    2536
CTETRA      2228       1    4254    5206    4315    4305    4273    4366+
+            505     531    4349    4365
CTETRA      2229       1      50    5242    5243    4901     373    5245+
+           2110     372    4488    4485
CTETRA      2230       1       5    2396      51      52    1302    2082+
+            376     379    2081     380
CTETRA      2231       1    4698    4685    4379    5017    4773    2299+
+           2309    4772    4730    4387
CTETRA      2232       1       4    4439      12      54     160    1494+
+            206    1448    1446    1495
CTETRA      2233       1    4705    4305    4999    4998    2181    4318+
+           4795    4822    4317    5002
CTETRA      2234       1      65    4179    5176    5175     443    4231+
+            489     474    4240    5180
CTETRA      2235       1    4251    5207    4305    4308    4261    4323+
+            532    2372    4322    4321
CTETRA      2236       1    4305    4308    4705    4251    4321    2306+
+           2181     532    2372     465
CTETRA      2237       1    2412      11    2414    2413    1639     349+
+           2555    2556    2165    2548
CTETRA      2238       1      71    4689    5016    4685    1615    4731+
+           1613    2205    4724    4729
CTETRA      2239       1      62    4381    5216    4250     470    4432+
+           2361     471     473    4277
CTETRA      2240       1      99    3601    3603    3573    2357    3781+
+            742     741    2219    3784
CTETRA      2241       1    3604    3603    3602    5153    3791    3782+
+            754    3792    3787    1015
CTETRA      2242       1    5300    3004     128    5299    3402    1373+
+           1937    5310    3401    1822
CTETRA      2243       1       5    2602    2601    2600     391    2693+
+            165     162    2698    2689
CTETRA      2244       1     147    3016    5300    5301    1366    3437+
+           1369    2000    3438    5311
CTETRA      2245       1     148    3015    3014    3017    1388    3447+
+           1847    2240    3455    3456
CTETRA      2246       1     122      34    2990    2991     902     912+
+            904    2058    2059    3384
CTETRA      2247       1     122    2992    2991    3008     988    3373+
+           2058    1876    3413    3418
CTETRA      2248       1     128    2889    2994    2890    1932    3358+
+           1374    1377    3147    3359
CTETRA      2249       1    2604    2602    2603      50    2701    2697+
+           2702     374    2036    1543
CTETRA      2250       1      47       5      52       4     375     379+
+            378     363     173    1449
CTETRA      2251       1    4900    2604    4901    5242    2700    2703+
+           4904    4489     371    4488
CTETRA      2252       1     135     141     155    2965    1720    1827+
+           1933    1721    1722    1941
CTETRA      2253       1      53    5344    5242    5356     919    4833+
+           2083    1522    5318    5246
CTETRA      2254       1      39    5040    2899    5039     929    3036+
+            927     926    5043    3037
CTETRA      2255       1      55    5356    5248    5344    1521    5251+
+           1517     920    5318    4853
CTETRA      2256       1      48    2959    2954    2957    1287    3218+
+           1286    1291    3227    3224
CTETRA      2257       1     145    5304    2985    2987    1426    3337+
+           1764    1335    3338    3335
CTETRA      2258       1     144     134     106     107    1329    1765+
+           1337    1415    1739    1927
CTETRA      2259       1     104    3492    5070    3493    1149    3524+
+            804    2014    3533    3532
CTETRA      2260       1     144    2946     106    2988    1959    1923+
+           1337    1340    3339    1341
CTETRA      2261       1    4097      84    4100    4101    1599     639+
+           4132    4134     634    4135
CTETRA      2262       1    5186      66      60    5352    2293     509+
+           2333    5189     445    1354
CTETRA      2263       1     145    2936    2906    2905    2228    3167+
+           1736    2295    3153    3064
CTETRA      2264       1      75    4172    4173    5265    1104    4198+
+           1111    1124    4190    4197
CTETRA      2265       1      73    5342    5192    5191     555    4877+
+            551    2284    4876    5197
CTETRA      2266       1      80    4310    5252    4684     576    2348+
+           2351    2350    2365    4713
CTETRA      2267       1      49    2900    2899    2942    1459    3040+
+           1465     370    3181    3180
CTETRA      2268       1      69    5175    4101    5174     478    4138+
+            635     481    5181    4137
CTETRA      2269       1    2899    2941    2898    2940    3178    3177+
+           3038    2214    3176    3175
CTETRA      2270       1     109    2980    2971     108     819    3306+
+           2246     809     818    2314
CTETRA      2271       1      38    5052    4827    5343    2078    4839+
+           2104    1470    5062    4840
CTETRA      2272       1      48    2941    2958    2957    2023    3233+
+           2022    1291    3240    3228
CTETRA      2273       1     135    2963    2962    2969    1718    3250+
+           2243    2029    3273    3269
CTETRA      2274       1      39      42      55      53     914     397+
+            923     921     400     399
CTETRA      2275       1      17      38    4828    5039    1091    2368+
+           2108    2087    1468    4845
CTETRA      2276       1    4699    5001    4314    5338    4777    4361+
+           1633    4771    5007    4362
CTETRA      2277       1    4686    5338    4314    4316    4769    4362+
+            494     493    4375    4376
CTETRA      2278       1      40    5039    2900    2902     925    3039+
+           1458    2247    3033    3034
CTETRA      2279       1    4254    5207    5206    4305    4272    5211+
+           4273     531    4323    4349
CTETRA      2280       1      73    4384    5215    4385     556    4420+
+           2271     545    4429    4424
CTETRA      2281       1      26    5048      34      37    1078    1081+
+           1080    2338    1099    1901
CTETRA      2282       1      43    3009    2990    3007     900    3420+
+            905    2256    3421    3406
CTETRA      2283       1      40      43    5343    5297    1793    2258+
+           1469    1795    1794    5308
CTETRA      2284       1    4255      68    4700    4380    2176     536+
+           2195    2193     543     542
CTETRA      2285       1      59    4252      61    4251    2279     552+
+            418     423    4270     425
CTETRA      2286       1     127    2993    3010    2994     984    3427+
+            981    2262    3365    3425
CTETRA      2287       1     109    2973    2972    2981    1202    3289+
+           1201     817    3312    3309
CTETRA      2288       1     131    3500    5093    5346    1440    3570+
+           1741    1744    3571    5104
CTETRA      2289       1     147    2927    2952    2928    1385    3189+
+           1852    1383    3143    3190
CTETRA      2290       1    4179    4183      64    4180    4242     440+
+            442    4229    4243    1299
CTETRA      2291       1      75    4174    4175    4170    1113    4205+
+           1103    1122    4202    4204
CTETRA      2292       1      62      68    4251    4253     462     464+
+            422    2312    2175    4275
CTETRA      2293       1      44    3675    3676    3670     360    4026+
+            356    1225    4014    4025
CTETRA      2294       1     103    2926    2925    5068     778    3122+
+           1925    2198    3121    3115
CTETRA      2295       1      62    5021    5216    4381    2178    4434+
+           2361     470    4435    4432
CTETRA      2296       1      44      88    3670      45    1218    1220+
+           1225     342    1222    1221
CTETRA      2297       1     132    3497    5345    5294    1433    3549+
+           1971    2353    3550    5295
CTETRA      2298       1      66    4184    5193    5194     449    4244+
+            517     523    4246    5203
CTETRA      2299       1    3644    3645    3637    3636    3915    3914+
+            874    3908    3913    3903
CTETRA      2300       1    5205    4256    4316    4258    4281    2373+
+           4372    4293    4295    1629
CTETRA      2301       1      45    3678    5346    5093     343    4031+
+           1743     353    4032    5104
CTETRA      2302       1    4688    4257    4383      79    2206    2331+
+           2203    1625    1626    2302
CTETRA      2303       1    4698    5017    4379    4380    4772    4387+
+           2309    2194    4398    4396
CTETRA      2304       1    4259    4306    4313    5204     584    4353+
+           2272    4300    4348    4354
CTETRA      2305       1    4259    4257    4383    5219    4304    2331+
+           2344    4303    4289    4404
CTETRA      2306       1     124    3635    3633    3627    1241    3894+
+           1073    2227    3893    3882
CTETRA      2307       1    5012    4694    4382    5011    4750     596+
+           4413    5032    4749    4414
CTETRA      2308       1    5262    5023      61    4384    4824     663+
+           2339    2328    4421     664
CTETRA      2309       1    5219    5355    4382    5327    5225    4412+
+           4411    4302    5330     591
CTETRA      2310       1    4688    5014    4691    4383    4727    4735+
+           4737    2203    4407    2283
CTETRA      2311       1    5151    5153    4106    5154    1016    4161+
+           2362    1027    5158    4160
CTETRA      2312       1    5191      66      60    5186    2285     509+
+           2280    2294    2293    2333
CTETRA      2313       1    4257    4687      71    4258    1627    1630+
+           2207    4296     572    1631
CTETRA      2314       1    3625    3620    3626    3631    1665     836+
+           3849    3871     835    3888
CTETRA      2315       1      59    4307    5208    4251     429    4320+
+           2221     423    2369    4260
CTETRA      2316       1    5252    4310      80      74    2348     576+
+           2351    2347     579     578
CTETRA      2317       1      62    4709    4704    4708     667    4821+
+           2179     466    4819    4820
CTETRA      2318       1    4701    4703    4315    5000    4786    2311+
+            502    4785    4787    4364
CTETRA      2319       1    4314    5205    4256    4316    4370    4281+
+           2308    4376    4372    2373
CTETRA      2320       1      72    4699    5001    4314     496    4777+
+            499    1632    1633    4361
CTETRA      2321       1      44    5089    3670    5090    1911    4024+
+           1225    2199    5094    4023
CTETRA      2322       1     124    3607    3627    3633    1077    3841+
+           2227    1073    3881    3882
CTETRA      2323       1      72    5206    4256    4314     504    4280+
+            506    1632    4368    2308
CTETRA      2324       1    5328    5208    4309    5354    4268    4341+
+           1351    5331    5210    4339
CTETRA      2325       1     123    3659    3658    3669     940    3973+
+            942    1071    3994    3993
CTETRA      2326       1     117     120    3650    3649     867     946+
+            945    2204     951    3946
CTETRA      2327       1    4705    4305    4998    4308    2181    4317+
+           4822    2306    4321    4324
CTETRA      2328       1    4689    5016    5015    4377    4731    5025+
+           4728    1616    4391    4392
CTETRA      2329       1      44      45    5089     131     342    1905+
+           1911    1740    1742    1906
CTETRA      2330       1     132    5294    5345    3500    2353    5295+
+           1971    1438    3569    3568
CTETRA      2331       1      82    5087    3494    3499     598    3537+
+           1421     622    3559    3561
CTETRA      2332       1      79    4690    4312    4979     564    2310+
+            567     562    4757    4359
CTETRA      2333       1      80    4693    4684    5253     582    4746+
+           2350    2277    4747    4714
CTETRA      2334       1      60    5352    4992    5186    1354    4891+
+           1356    2333    5189    4892
CTETRA      2335       1    2581    5334      76    2588    2635    2253+
+           1190    2634    2632    2094
CTETRA      2336       1      22    2588    2591    2589    1183    2638+
+           1182     454    2631    2639
CTETRA      2337       1      20      67    4437    4451     455    1184+
+            253     247    1393    4546
CTETRA      2338       1    2591      67    2592    4437    1186    2245+
+           2644    1185    1184    1395
CTETRA      2339       1     148    3015    3019    3013    1388    3454+
+           2241    2008    3442    3453
CTETRA      2340       1      44    3677    3665    3678     362    4027+
+            345     344    4033    4030
CTETRA      2341       1     133    5345    5072    3500    1972    5082+
+           1975    1970    3568    3566
CTETRA      2342       1       7       8    4460    4458     177    1980+
+            233    2169    1981    4585
CTETRA      2343       1      61    4252    5215    4250     552    4265+
+           2270     472    4267    4266
CTETRA      2344       1      67    2586    2388    2593    1405    1758+
+           1402    1408    2650    2252
CTETRA      2345       1    2379    2593    5113    5112    1409    2649+
+           2451    2496    2648    5121
CTETRA      2346       1      44    5091     131    5090     355    2011+
+           1740    2199    5095    2200
CTETRA      2347       1     144    2905     145    2913    1416    2295+
+           1334    1430    3063    1431
CTETRA      2348       1    2389     137     136    2387    1688    1251+
+           1681    2460    1753    1680
CTETRA      2349       1    4447    2595    2585    4921    2098    2665+
+           2202    4528    2664    2663
CTETRA      2350       1    3664      83      88    3687    1130    1344+
+           1236    4067     614    1235
CTETRA      2351       1     117    3645    3644    3640     875    3915+
+            855    2210    3918    3916
CTETRA      2352       1     123    3607    3656    3657    1076    3961+
+           1066    1074    3960    3962
CTETRA      2353       1    3575    3574    3573    3623    3776    3785+
+           2218    2215    3843    3845
CTETRA      2354       1      79    4690    4696    4691     564    4759+
+            563    2274    4739    4762
CTETRA      2355       1      59    4251    4709    4308     423     669+
+            668     434    2372    2305
CTETRA      2356       1      59    4311    5208    4307     413    4343+
+           2221     429    4342    4320
CTETRA      2357       1      61    5357    4706    4683     417    4808+
+            436     665    4810    4809
CTETRA      2358       1    4255    4379    5217    4380    2196    4393+
+           4287    2193    4396    4397
CTETRA      2359       1      81      45      83    3687     610    1419+
+            604     613     612     614
CTETRA      2360       1      60    5186    4992    5340    2333    4892+
+           1356    1785    4889    4994
CTETRA      2361       1      60    5259    5357    5353     411    5261+
+            419    2282    4886    5319
CTETRA      2362       1      81      83    3689    3686     604    1910+
+           1909     615     616    4077
CTETRA      2363       1      61    4250    5215    4381     472    4266+
+           2270     469     473    4419
CTETRA      2364       1      81    3689    3690    5087    1909    4082+
+            602     599    4085    4086
CTETRA      2365       1      87    3680      89    3672     653     655+
+            650     661    4050    1204
CTETRA      2366       1      45    3683    3670    5088    1224    4055+
+           1221    1412    4088    4087
CTETRA      2367       1      44    3677    5092    3679     362    4035+
+           2012     354    4040    4039
CTETRA      2368       1    4696    4313    4980    4979     566    4356+
+           4760    4758    4357    4988
CTETRA      2369       1      93    3593    3591    3590     690    3742+
+           2233     695    3741    3731
CTETRA      2370       1    4310    4983    5339    5252    4333    4985+
+           4340    2348    4710    5255
CTETRA      2371       1     123    3657    3669    3658    1074    3990+
+           1071     942    3957    3993
CTETRA      2372       1     130    3681    3684    3685    2213    4062+
+           1231    1135    4061    4063
CTETRA      2373       1       7    4454    4458    4460    2170    4576+
+           2169     233    4586    4585
CTETRA      2374       1    4697    4694    4695    4259    4765    4756+
+           4763     560     594     561
CTETRA      2375       1      46    4447    2585    4456    1986    2202+
+           1762    1761    4566    1763
CTETRA      2376       1     102    2946     107    2904    1922    1966+
+            797     799    2352     800
CTETRA      2377       1      60    5328    5208    4309    1358    4268+
+           1787    1788    1351    4341
CTETRA      2378       1     102    5070    2933    2903     770    3158+
+            802    2316    3111    3160
CTETRA      2379       1      73      61    4384    5262     553     664+
+            556    2341    2339    2328
CTETRA      2380       1      71    4316    4256    4258     492    2373+
+           2209    1631    1629    4295
CTETRA      2381       1    5013    5014    4383    4691    5030    4407+
+           4408    4736    4735    2283
CTETRA      2382       1      80    4310    4684    4306     576    2365+
+           2350     573    4334    2364
CTETRA      2383       1      74    4252    5328    5327     550    4263+
+            580     547    4262    5329
CTETRA      2384       1     102    2903    2904    2926    2316    3124+
+            799     777    3120    3123
CTETRA      2385       1    2607    2608    5105    2416    2715    2723+
+           2711    2327    2355    2561
CTETRA      2386       1    4469    5332    2606    2608    4611    2718+
+           1988    1582    2720    2713
CTETRA      2387       1     148    2892    2909    2891    2212    3041+
+           1951    1382    3043    3042
CTETRA      2388       1      54    4440    2755    2759    1496    1511+
+           1510    1595    2167    2796
CTETRA      2389       1      79    4259    4258    4257     559    4301+
+            570    1626    4304    4296
CTETRA      2390       1     119    5277    3647    5278    1209    3928+
+            865    1697    5289    3927
CTETRA      2391       1      51    2603    2582    5110    1542    2690+
+           1546    1545    2695    2615
CTETRA      2392       1      54    2759    2757    2758    1595    2798+
+           1519    1500    2800    2799
CTETRA      2393       1      55    5044    5247    5045    1524    4852+
+           1515    2034    5055    4859
CTETRA      2394       1    4440    4942    2755    4943    4654    2781+
+           1511    4506    4945    2782
CTETRA      2395       1    4697    4259    4383    5219     560    2344+
+           2269    2268    4303    4404
CTETRA      2396       1    3575    3623    3573      99    2215    3845+
+           2218    2334    1017     741
CTETRA      2397       1       6    4483      10       4     221     681+
+            679     172     222     202
CTETRA      2398       1    4259    5204    4313    4258    4300    4354+
+           2272    4301    4294    2273
CTETRA      2399       1      54    5248    2759    5247    1516    2166+
+           1595    1514    5250    1596
CTETRA      2400       1    4703    4999    4315    5000    4793    4363+
+           2311    4787    5008    4364
CTETRA      2401       1      79    4695    4696    4313     558    4761+
+            563     565    2301     566
CTETRA      2402       1    4306    4259    4695    4693     584     561+
+           2300     585     583    4755
CTETRA      2403       1    4693    4259    4695    4694     583     561+
+           4755    4752     594    4756
CTETRA      2404       1    4690    4978    4312    4979    4733    4360+
+           2310    4757    4989    4359
CTETRA      2405       1      71    4257    4258    4256    2207    4296+
+           1631    2209    4292    4295
CTETRA      2406       1     148    3013    2892    2891    2008    3432+
+           2212    1382    3431    3043
CTETRA      2407       1     138    4442    4461    4463    1271    4595+
+           1481    1268    4597    4591
CTETRA      2408       1     151    5332    2608    2609    2132    2720+
+           1583    1655    2716    2721
CTETRA      2409       1    2413     153    2412      11    2138    1889+
+           2556    2165    2122    1639
CTETRA      2410       1     138     151     150    5321    1487    1659+
+           1480    1477    1488    1660
CTETRA      2411       1      27    2606    2613    2607     280    2741+
+            283    2225    2714    2739
CTETRA      2412       1     150    2750    2751    2418    1554    2824+
+           1553    1891    1887    1107
CTETRA      2413       1    4685    5016    4379    5017    4729    4386+
+           2299    4730    5024    4387
CTETRA      2414       1      80    4693    5253    4692     582    4747+
+           2277    2287    4748    4741
CTETRA      2415       1      62    4378    5216    5021     670    4431+
+           2361    2178    4433    4434
CTETRA      2416       1      80    4259    5328    4306     581    4297+
+            575     573     584     574
CTETRA      2417       1    5106    2416    2607    5105    2560    2327+
+           2712    5126    2561    2711
CTETRA      2418       1     151    2609    2608    2610    1655    2721+
+           1583    1656    2725    2728
CTETRA      2419       1     136     152    4445     137    1687    1562+
+           1264    1251    1677    1263
CTETRA      2420       1    2752    2400    2403    5135    2126    2508+
+           2134    2783    2504    2506
CTETRA      2421       1    2764    5234    2748    4958    2100    2114+
+           2842    2841    4499    2840
CTETRA      2422       1      58    2748    5234    4830    1859    2114+
+           2090    1101    2359    4868
CTETRA      2423       1    4698    4700    5018    4380    4781    4780+
+           4774    2194     542    4399
CTETRA      2424       1    3589    3585    3590    3593    3722     694+
+           3728    2313     686    3741
CTETRA      2425       1      50    2603    2604    4901    1543    2702+
+            374     372    2705    2703
CTETRA      2426       1      51    2603    2599    2582    1542    2691+
+           1536    1546    2690    2675
CTETRA      2427       1      50    5242      53    5243     373    2083+
+            382    2110    5245    2109
CTETRA      2428       1    4686    5338    4316    4977    4769    4375+
+            493    4718    4991    4374
CTETRA      2429       1      84      85    3594    5163     623    1574+
+           1647    2326    1572    3737
CTETRA      2430       1    3602      85    5154    5151     751    1019+
+           1020    3779    1028    1027
CTETRA      2431       1      68    4700    4702    4703     536    4789+
+            463    2177    4791    4792
CTETRA      2432       1      85    3600    3592    5349     753    3770+
+           1573     624    3768    3733
CTETRA      2433       1      85    5271    5154    5350     958    3794+
+           1019    1030    5287    5159
CTETRA      2434       1    3585    3589    3588    3593    3722    3721+
+           3720     686    2313    2337
CTETRA      2435       1    3593    3589    3588    3595    2313    3721+
+           2337    3743    3740    2336
CTETRA      2436       1      94    3593    3595    3594     693    3743+
+           2335    2366    3736    3744
CTETRA      2437       1    4463    4923    2605    2583    4589    2709+
+           1269    2073    2706    2707
CTETRA      2438       1    4381    4683    5022    5023     666    4815+
+           4416    4415    4826    5033
CTETRA      2439       1    4708    4381    5021      62     458    4435+
+           4812     466     470    2178
CTETRA      2440       1    4443    2583    4922    4923    2075    2658+
+           4523    4598    2706    4933
CTETRA      2441       1    2391     138    5320     136    1474    1489+
+           2467    1473    1259    2235
CTETRA      2442       1    4447    4920    2585    4456    4529    2622+
+           2202    4566    4564    1763
CTETRA      2443       1     137    2386    2595    2594    1255     252+
+           1755    1252    1256    2660
CTETRA      2444       1     149    4441    4446    2773    1894    4514+
+           1560    1564    2162    1565
CTETRA      2445       1     136     138     149    2393    1259    1475+
+           2079    1472    1471    1476
CTETRA      2446       1    5153    4104    4106    4107    2374    1645+
+           4161    4167    4169    4163
CTETRA      2447       1     151    4469    2608    5332    1585    1582+
+           1583    2132    4611    2720
CTETRA      2448       1      91    4483    2598    4897     680    2144+
+           2141    1662    4671    2730
CTETRA      2449       1     136    2583    4463    2605    1257    2073+
+           1267    1261    2707    1269
CTETRA      2450       1     136    2583    2594    2596    1257    2653+
+           1253    1272    2656    2659
CTETRA      2451       1    2751    5138    5348    2418    2811    5150+
+           2812    1107    2571    2572
CTETRA      2452       1      68    4380    4255    4253     543    2193+
+           2176    2175    2197    4286
CTETRA      2453       1    4700    5019    5018    4380    4782    5028+
+           4780     542    4402    4399
CTETRA      2454       1     153    4467    4472    4468    2136    4626+
+           1882    1569    4610    4624
CTETRA      2455       1     151    4469    5332    4462    1585    4611+
+           2132    2131    4612    4594
CTETRA      2456       1    4441    4965    4446    2773    4513    4515+
+           4514    2162    2873    1565
CTETRA      2457       1     131    3489    3487    5089    1141    3512+
+           1918    1906    3510    3514
CTETRA      2458       1      72    4685    4686      71     497    4725+
+            498    1634    2205     491
CTETRA      2459       1    4997    4706    4308    4996    4806    2370+
+           4325    5004    4805    4326
CTETRA      2460       1      62    5020    4378    5021    2180    4395+
+            670    2178    5037    4433
CTETRA      2461       1    4698    4380    5018    5017    2194    4399+
+           4774    4772    4398    5027
CTETRA      2462       1    4255    4379    4380    4698    2196    4396+
+           2193    1622    2309    2194
CTETRA      2463       1      72    4703    4315    4701    1617    2311+
+            501     500    4786     502
CTETRA      2464       1      82    3497     132    5346    2371    1433+
+           1441    1908    3552    1913
CTETRA      2465       1     101     104    5069    3490     781    1143+
+            772     793    1139    3516
CTETRA      2466       1      45    3678    5281    5346     343    4029+
+           1234    1743    4031    5293
CTETRA      2467       1    3497      31      82     132    1434    1444+
+           2371    1433    1150    1441
CTETRA      2468       1     104    3490    3491    3493    1139    3522+
+           2015    2014    3529    3530
CTETRA      2469       1     131    3487    5088    5089    1918    3535+
+           1907    1906    3514    5097
CTETRA      2470       1      82    5087    5088    3494     598    5098+
+            601    1421    3537    3536
CTETRA      2471       1    4314    5206    4256    5205    4368    4280+
+           2308    4370    5212    4281
CTETRA      2472       1      44    3671    3675    3670    1217    4013+
+            360    1225    4015    4014
CTETRA      2473       1      82    3487    3494    5088    1917    3538+
+           1421     601    3535    3536
CTETRA      2474       1      32     103     134    2922    1964    1768+
+           1156    1163    1924    1164
CTETRA      2475       1      92    5273    3629    3628     714    3862+
+           1364    1359    3856    3860
CTETRA      2476       1      92    5272    5273    3628     954    5285+
+            714    1359    3855    3856
CTETRA      2477       1      83    3688    3685    3690    1134    4076+
+           1136     603    4081    4083
CTETRA      2478       1    4703    4315    4999    4305    2311    4363+
+           4793    2307    4365    4318
CTETRA      2479       1      59    4307    4251    4308     429    2369+
+            423     434    4327    2372
CTETRA      2480       1      59    4311    4307    5259     413    4342+
+            429     410     414     427
CTETRA      2481       1    4709    4997    4706    4308    4816    4806+
+           4818    2305    4325    2370
CTETRA      2482       1     146    3010    3013    3011    1875    3435+
+           2009    2367    3426    3434
CTETRA      2483       1    5216    4250    4381    5215    4277     473+
+           4432    5221    4266    4419
CTETRA      2484       1      99    3598    3575      92     737    3765+
+           2334     738     739    1361
CTETRA      2485       1      93    3599    3576    3577     712    3760+
+            706     704    3759    3761
CTETRA      2486       1     134    2897    2920    2896    1157    3089+
+           1160    1424    3088    3086
CTETRA      2487       1     134    2910    2920    2921    2304    3087+
+           1160    1161    3090    3092
CTETRA      2488       1      65    5174    4183    5175     480    4238+
+            441     474    5181    4241
CTETRA      2489       1    5151    4104    4106    5153    4149    1645+
+           2362    1016    2374    4161
CTETRA      2490       1      64      65    4179    4182     437     443+
+            442    1799     487    4232
CTETRA      2491       1    5187    4171    4175    4172    4188    4187+
+           2345    4192    4193    1106
CTETRA      2492       1     100    5170    4104    5169     764    4166+
+           1644     763    5185    4152
CTETRA      2493       1      81    5086    5085    3689    1411    5102+
+            617    1909    4080    4079
CTETRA      2494       1    2766    5233    5234    4958    2325    5239+
+           2267    2839    4544    4499
CTETRA      2495       1      49    2958    2940    2932    2021    3232+
+           1462    2056    3222    3231
CTETRA      2496       1      63    3004    3006    5299    1812    3398+
+            431    1823    3401    3403
CTETRA      2497       1      49    2942    2943    2900     370    3183+
+            367    1459    3181    3182
CTETRA      2498       1      49     143    2959    2931    1831    2017+
+           2054    2035    1996    3220
CTETRA      2499       1      41    2886    2932    5046    2020    3133+
+           2055     336    3135    3131
CTETRA      2500       1      49    2932    2931    2958    2056    3134+
+           2035    2021    3222    3221
CTETRA      2501       1     139    2943    2901    2900    2053    3187+
+           2220    1460    3182    3035
CTETRA      2502       1     135    2963    2969    2970    1718    3273+
+           2029    2028    3272    3274
CTETRA      2503       1    4450    2766    4959    5233    2340    2835+
+           4542    4543    2325    4541
CTETRA      2504       1      84    5160    4097    5161    1029    4117+
+           1599    1530    5167    4118
CTETRA      2505       1      84    4098    5163    5162     636    4120+
+           2326    1529    4121    5165
CTETRA      2506       1      94    3592    3593    3594    1021    3735+
+            693    2366    3734    3736
CTETRA      2507       1      69    5176    4098    5175     765    4124+
+            638     478    5180    4133
CTETRA      2508       1      69    4098    5176    4099     638    4124+
+            765     631    4123    4122
CTETRA      2509       1      84    4100    4098    5162     639    4130+
+            636    1529    4129    4121
CTETRA      2510       1    2759    5247    5248    4944    1596    5250+
+           2166    2801    4500    4507
CTETRA      2511       1      64    4183    4178    4184     440    4239+
+            439     451    4249    4248
CTETRA      2512       1      65    4178    4183    5174     438    4239+
+            441     480    4219    4238
CTETRA      2513       1    4106    5154      86    5151    4160    1025+
+           1642    2362    1027    1026
CTETRA      2514       1       6      91    2409    2410     677    1673+
+            224     683     684    2537
CTETRA      2515       1      94      85    3594    5160     748    1574+
+           2366     956     955    1648
CTETRA      2516       1    5171    4170      75      70    4203    1122+
+           1114    1730    1121    1118
CTETRA      2517       1    4104    5152    5153    5151    4150    5157+
+           2374    4149    5156    1016
CTETRA      2518       1    3603    3602    5153    5152    3782    1015+
+           3787    3786    3780    5157
CTETRA      2519       1      47       4      52      54     363    1449+
+            378     386    1448     387
CTETRA      2520       1      99    3604    3572    3573     740    3789+
+            746     741    3788    3790
CTETRA      2521       1       5    2601    2602    5109     165    2693+
+            391    1301    2692    2694
CTETRA      2522       1    4175    5187    5191    5353    2345    2332+
+           4207    4186    5188    5198
CTETRA      2523       1      86    5154    4106    4102    1025    4160+
+           1642    1031    4144    4158
CTETRA      2524       1      85      86    5151    5349     627    1026+
+           1028     624     628    5155
CTETRA      2525       1      85    3600    5151    3602     753    3769+
+           1028     751    3777    3779
CTETRA      2526       1    2612    5107    2408    2611    2736    2527+
+           1780    2737    2735    2143
CTETRA      2527       1      94    3598      92    3593     736     739+
+            691     693    3757     687
CTETRA      2528       1      94    3572    5271    5272     749    3796+
+            957     953    3854    5286
CTETRA      2529       1    4467     151     138    4462    1588    1487+
+           1486    4613    2131    1485
CTETRA      2530       1    3615    3625    3620    3626    3847    1665+
+           3835    3846    3849     836
CTETRA      2531       1     150    5335    4471    2751    1555    4623+
+           1567    1553    2858    1897
CTETRA      2532       1    4463    4923    4924    2605    4589    4934+
+           4588    1269    2709    2710
CTETRA      2533       1     126    3612    3580    3579    2173     962+
+            976    2182    3805    3703
CTETRA      2534       1    5151    3602    5153    5154    3779    1015+
+           1016    1027    1020    5158
CTETRA      2535       1     125    3643    5279    5278    1350    3926+
+           1063    1117    3925    5288
CTETRA      2536       1     123    3656    3668    3657    1066    3995+
+           1069    1074    3962    3991
CTETRA      2537       1     129    3651    3652    3642    1011    3954+
+           1003     993    3948    3953
CTETRA      2538       1     133    5345    5063    5306    1972    5083+
+           1168    1166    5317    3478
CTETRA      2539       1      18     116    2385    2765    1607    1606+
+            879     887    2092    2093
CTETRA      2540       1      76    5229    5051    5230     521    4837+
+           2076    2068    5237    4836
CTETRA      2541       1      81    5085    3686    3689     617    4072+
+            615    1909    4079    4077
CTETRA      2542       1      92    3598    3599    3593     739    3767+
+            711     687    3757    3763
CTETRA      2543       1     101    5068    5069    2926    2013    5079+
+            772     776    3121    3119
CTETRA      2544       1      58      56      57     116    1858     404+
+            406    1601    1854    1855
CTETRA      2545       1    5193    4184      66    4176    4244     449+
+            517    4212    4245     450
CTETRA      2546       1      65    5176    4179    4182     489    4231+
+            443     487    4230    4232
CTETRA      2547       1     100    5169    4105    5351     763    4151+
+           2329     768    5183    4154
CTETRA      2548       1      56    5247    2758    2753    2046    1518+
+           1523    1844    2048    2804
CTETRA      2549       1      37      26    5048      58    2338    1078+
+           1099     878    2069    1098
CTETRA      2550       1      17      38    4827    4828    1091    2104+
+           2103    2108    2368    4849
CTETRA      2551       1    2405    2757    5133    2758    1504    2810+
+           2520    1503    2799    2808
CTETRA      2552       1      93    3582    3585    3586     700    3709+
+            689     696    3710    3711
CTETRA      2553       1    3496    3497      31      82    3547    1434+
+           1410    1976    2371    1444
CTETRA      2554       1      94    3588    5271    5160    1650    3719+
+            957     956    3756    3755
CTETRA      2555       1      99    3603    3601    3602     742    3781+
+           2357     752    3782    3778
CTETRA      2556       1    3629    3624      96    3613    3864    1733+
+           1363    2216    3852    1732
CTETRA      2557       1     126      95     114    3619    1667    1040+
+            969    1664    1046    1045
CTETRA      2558       1      84    5161    4097    4100    1530    4118+
+           1599     639    4131    4132
CTETRA      2559       1    3628    3572      99    5272    3857     746+
+           1018    3855    3854     952
CTETRA      2560       1      94    3594    3595    3597    2366    3744+
+           2335    1651    1990    3751
CTETRA      2561       1    3594    5162    3596    5161    3738    3745+
+           3747    1649    5166    3746
CTETRA      2562       1      65      70      69    5176     485     757+
+            479     489     490     765
CTETRA      2563       1      64      65    4182      70     437     487+
+           1799    1109     485     488
CTETRA      2564       1      85    3594    5160      84    1574    1648+
+            955     623    1647    1029
CTETRA      2565       1      71    4689    4686    4687    1615    4723+
+            491    1630    4720    4717
CTETRA      2566       1      94    3594    3597    5160    2366    1990+
+           1651     956    1648    3754
CTETRA      2567       1      99      94      85    3600     735     748+
+            745     744     743     753
CTETRA      2568       1    2411    5108    2601    5109    2541    2683+
+            226    2540    5125    2692
CTETRA      2569       1    5218      71    4255    4257    2349    2208+
+           4290    4288    2207    4291
CTETRA      2570       1      71    4257    4377    4688    2207    2330+
+           1614    1623    2206    1624
CTETRA      2571       1    4687    4978    4977    4316    4732    4990+
+           4719    1628    4373    4374
CTETRA      2572       1    4688    5014    4377    5015    4727    4405+
+           1624    4726    5029    4392
CTETRA      2573       1    2397    2582    5111    5110    1547    2614+
+           2483    2482    2615    5119
CTETRA      2574       1    4312    5205    4316    4258    4352    4372+
+           4371     571    4293    1629
CTETRA      2575       1      79    4688    4690    4691    1625    4738+
+            564    2274    4737    4739
CTETRA      2576       1    2396    5110    5109    2602    2484    5120+
+           2485    2107    2696    2694
CTETRA      2577       1    2405    5134    5133    2757    2519    5147+
+           2520    1504    2807    2810
CTETRA      2578       1      50      17    5333      53    1541    1943+
+           1942     382    2084    2085
CTETRA      2579       1    2749    5133    2405    2376    2809    2520+
+           2259    1867    2436    2524
CTETRA      2580       1      71    5218    4377    4257    2349    4389+
+           1614    2207    4288    2330
CTETRA      2581       1      62    4253    4251    4250    2312    4275+
+            422     471    4278    4271
CTETRA      2582       1    4314      71    4316    4256     495     492+
+           4376    2308    2209    2373
CTETRA      2583       1    5022    4683    4381    4708    4815     666+
+           4416    4811    4813     458
CTETRA      2584       1    4709    4308    4998    4997    2305    4324+
+           4817    4816    4325    5003
CTETRA      2585       1    5353    5262    5357      60    4874    5264+
+           5319    2282    2281     419
CTETRA      2586       1      61    4381    5215    4384     469    4419+
+           2270     664    4418    4420
CTETRA      2587       1    5011    4382    5010    4692    4414    4417+
+           5034    4743    2286    4742
CTETRA      2588       1      61    4706    4708    4683     436    4814+
+            467     665    4809    4813
CTETRA      2589       1      79    4697    4383    4691     557    2269+
+           2302    2274    4768    2283
CTETRA      2590       1    4308    4705    4251    4709    2306     465+
+           2372    2305    4823     669
CTETRA      2591       1      97    3023    2896    3022     719    3477+
+            716     733    3475    3476
CTETRA      2592       1     117    3648     119    3649    1956     947+
+            864    2204    3943     950
CTETRA      2593       1      75    4170    5192    4176    1122    4208+
+            514     516    4216    4211
CTETRA      2594       1      70    4170    4177    5172    1121    4214+
+           1120    1298    4213    4215
CTETRA      2595       1      75    4170    4176    4177    1122    4216+
+            516    1119    4214    4217
CTETRA      2596       1      66    4176    5192    5193     450    4211+
+            515     517    4212    5199
CTETRA      2597       1      43    3007    5343    5297    2256    3407+
+           2258    1794    3408    5308
CTETRA      2598       1       3    4899    2601    2598     171    2688+
+            164     168    2686    2685
CTETRA      2599       1    4440    2759    5248    4943    2167    2166+
+           4505    4506    2797    4504
CTETRA      2600       1      30    3495    3499    3494     291    3562+
+            301    1422    3543    3561
CTETRA      2601       1     131    3491    5090    5091    2375    3519+
+           2200    2011    3520    5095
CTETRA      2602       1    5346      82    5084      45    1908     608+
+           5100    1743     607     609
CTETRA      2603       1     131    3489    5090    3491    1141    3511+
+           2200    2375    3521    3519
CTETRA      2604       1      74    5196    5195    5252    2343    5201+
+            525    2347    4884    4872
CTETRA      2605       1      31    5064    5063    3496     305    5073+
+            304    1410    3556    3548
CTETRA      2606       1      80    5254    4692    5253     586    4740+
+           2287    2277    5258    4741
CTETRA      2607       1      63    5298     139    2944    2057    2317+
+           1312    1311    3184    1313
CTETRA      2608       1      34    3002    2998    5047    1904    3386+
+            911     314    3388    3385
CTETRA      2609       1      73    5341    5193    5226     546    4882+
+            518     544    5227    4881
CTETRA      2610       1    4382    5254    4385    5010     590    2291+
+           4427    4417    4715    4425
CTETRA      2611       1     146    3010    3011    2994    1875    3426+
+           2367    1375    3425    3424
CTETRA      2612       1    3635     115    3631    3616    1240     845+
+           3889    1716    1715     834
CTETRA      2613       1    4252      73      61    5215     549     553+
+            552    4265    2271    2270
CTETRA      2614       1      96    3617    3577    3576    1039    3797+
+           1670     709    3798    3761
CTETRA      2615       1      61      73      60    5262     553     508+
+            420    2339    2341    2281
CTETRA      2616       1      77    3020    3018    3017    1950    3467+
+           1305    1948    3466    3458
CTETRA      2617       1      73    5215    4252    5327    2271    4265+
+            549     548    4264    4262
CTETRA      2618       1      97      78    3022    2894     726    2360+
+            733     731     539    3468
CTETRA      2619       1     142    2930     143    2887    1929    1931+
+           1317    1820    3129    1997
CTETRA      2620       1     105    3490    3488    3489     792    3517+
+            788    1137    3518    3513
CTETRA      2621       1    5327    4385    5355    4382    2290    4423+
+           5330     591    4427    4412
CTETRA      2622       1     132     133     105    3500    1151    1790+
+           1436    1438    1970    1439
CTETRA      2623       1      79    4383    4697    4259    2302    2269+
+            557     559    2344     560
CTETRA      2624       1      31    3499    3495    3498     300    3562+
+            294     302    3564    3554
CTETRA      2625       1    5328    4306    5354    4310     574    4335+
+           5331     577    4334    4336
CTETRA      2626       1    4259    4306    4695    4313     584    2300+
+            561    2272    4353    2301
CTETRA      2627       1      31    5063      32     133     304     303+
+            296    1152    1168    1167
CTETRA      2628       1     104    3492    5092    3485    1149    3526+
+           1146    1145    3525    3527
CTETRA      2629       1     101    3490    5069    5068     793    3516+
+            772    2013    3515    5079
CTETRA      2630       1     104    5071    3485    5072     806    3501+
+           1145     780    5081    3502
CTETRA      2631       1     104    3492    5091    5092    1149    3528+
+           2354    1146    3526    5096
CTETRA      2632       1     103    3488    5068    5067     791    3506+
+           2198    1962    3505    5078
CTETRA      2633       1      32     103    2922    5067    1964    1924+
+           1163    1969    1962    3113
CTETRA      2634       1     104     131     105    3485    1140    1142+
+            784    1145    1144    1148
CTETRA      2635       1      32     103    5067      30    1964    1962+
+           1969    1965    1792    1963
CTETRA      2636       1      93    3593    3599    3591     690    3763+
+            712    2233    3742    3762
CTETRA      2637       1    2948     145    2986    2935    1699    2027+
+           1991    3203    2026    1960
CTETRA      2638       1    3496    5085    3499    3498    3545     619+
+            621    3557    3558    3564
CTETRA      2639       1      18    5131    2762    2765     892    2845+
+            895     887    2847    2831
CTETRA      2640       1     104    3490    3489    3491    1139    3518+
+           1138    2015    3522    3521
CTETRA      2641       1    2385    5131    2765    5132    2438    2847+
+           2093    2437    5142    2849
CTETRA      2642       1      30    3486    3488    5067    1155    3507+
+           1916    1963    3503    3505
CTETRA      2643       1     103    5067    5068    2925    1962    5078+
+           2198    1925    3114    3115
CTETRA      2644       1     144     107     106    2946    1415    1927+
+           1337    1959    1966    1923
CTETRA      2645       1    2399    5111    2590    2589    2498    2628+
+           1196    2186    2623    2629
CTETRA      2646       1    2383    2762    5131    5130     244    2845+
+           2421    2420    2846    5139
CTETRA      2647       1    2749    2376    5132    5133    1867    2435+
+           2844    2809    2436    5141
CTETRA      2648       1     131    5093    3485    5092    1741    3565+
+           1144    1147    5103    3527
CTETRA      2649       1    2397    5111    2582    2590    2483    2614+
+           1547    2251    2628    2625
CTETRA      2650       1      21    4451      23    5232     250    2255+
+           2101    2102    4550    2071
CTETRA      2651       1     107    2904    2905    2924     800    3095+
+           1414    2318    3094    3093
CTETRA      2652       1    2399    5112    5111    2589    2497    5122+
+           2498    2186    2624    2623
CTETRA      2653       1     104     131    3491    3489    1140    2375+
+           2015    1138    1141    3521
CTETRA      2654       1    2946    2934    2904     102    3209    3155+
+           2352    1922    2315     799
CTETRA      2655       1     149    2767    2768    2751    1892    2855+
+           2232    1898    2854    2853
CTETRA      2656       1      98    5305    3023    5304    1428    3473+
+            720    1425    5315    3472
CTETRA      2657       1      84    4097    5160    4094    1599    4117+
+           1029     642    4115    4119
CTETRA      2658       1    3499    3498    5085    5086    3564    3558+
+            619    3560    3563    5102
CTETRA      2659       1     107    2924    2923    2925    2318    3101+
+           1767    1926    3118    3117
CTETRA      2660       1     106    5306    2988    2989    1338    3345+
+           1341    1974    3347    3346
CTETRA      2661       1     134    2912    2922    2923    2319    3097+
+           1164    1766    3102    3103
CTETRA      2662       1     144    5305    5306    3024    1427    5316+
+           1339    1328    3482    3481
CTETRA      2663       1      88    3671    3683    3680    1219    4054+
+           1223     654    4051    4056
CTETRA      2664       1     132     133    5345    5063    1151    1972+
+           1971    1435    1168    5083
CTETRA      2665       1     104    3490    3493    5069    1139    3529+
+           2014    1143    3516    3531
CTETRA      2666       1     102    2903    2926    5069    2316    3120+
+            777     773    3110    3119
CTETRA      2667       1     153    4470    4464    4465    1881    4615+
+           1635    1568    4617    4619
CTETRA      2668       1     104    3485    5071    3492    1145    3501+
+            806    1149    3525    3523
CTETRA      2669       1     102    2903    2934    2904    2316    3157+
+           2315     799    3124    3155
CTETRA      2670       1    2386    2392    5115    2594    2471    2472+
+           2454    1256    2049    2668
CTETRA      2671       1     104     131    5091    3491    1140    2011+
+           2354    2015    2375    3520
CTETRA      2672       1     104    3493    5070    5069    2014    3532+
+            804    1143    3531    5076
CTETRA      2673       1     102    2903    5069    5070    2316    3110+
+            773     770    3111    5076
CTETRA      2674       1      11     153    2412    2761    2122    1889+
+           1639     347    1637    1638
CTETRA      2675       1     104    3491    5091    3492    2015    3520+
+           2354    1149    3534    3528
CTETRA      2676       1      30      82     131    3487    1420    1442+
+           1443    1914    1917    1918
CTETRA      2677       1      12    2401    2404    2403     207    2511+
+           1597    1508    2510    2512
CTETRA      2678       1     107    2926    2904    2924     798    3123+
+            800    2318    3125    3094
CTETRA      2679       1    5320    5347    2584    2610    5324    2669+
+           2164    1658    2727    2726
CTETRA      2680       1     131    3500    3485    5093    1440    3567+
+           1144    1741    3570    3565
CTETRA      2681       1     101     102    5071    2945     771     803+
+            805     795    1912    3207
CTETRA      2682       1     153    2417    2412    2418    1578    2564+
+           1889    1888    2568    2570
CTETRA      2683       1     151    2419    5321    5320    1593    2576+
+           1488    1490    2577    5323
CTETRA      2684       1    5105    2608     151    2416    2723    1583+
+           1657    2561    2355    1590
CTETRA      2685       1    4463    2605    4924    2609    1269    2710+
+           4588    1652    2722    2717
CTETRA      2686       1    2751    2768    5322    5348    2853    2356+
+           1108    2812    2850    5326
CTETRA      2687       1     115    3635    3631    3634    1240    3889+
+            845    1237    3892    3891
CTETRA      2688       1      39    5045      42      41     916     915+
+            914     326    1594    1088
CTETRA      2689       1     139    2902    2900    2901    2248    3034+
+           1460    2220    3031    3035
CTETRA      2690       1     141     140    2953    2959    1797    1829+
+           1828    1288    1798    3216
CTETRA      2691       1     142     140    2930     155    1315    1930+
+           1929    1871    1826    1928
CTETRA      2692       1      48    2956    2960    2955    1283    3236+
+           1292    1290    3238    3234
CTETRA      2693       1      39      41      40      49     326     328+
+            325    1461    1455    1454
CTETRA      2694       1     140     155    2953    2930    1826    1830+
+           1829    1930    1928    3214
CTETRA      2695       1      31    3496    3498    5064    1410    3557+
+            302     305    3556    3555
CTETRA      2696       1      49     139    2900    2943    1275    1460+
+           1459     367    2053    3182
CTETRA      2697       1      43    5297    3009    3007    1794    3415+
+            900    2256    3408    3421
CTETRA      2698       1      47    2604    4900    5242    1947    2700+
+            394     393     371    4489
CTETRA      2699       1      40    5297    5343    2902    1795    5308+
+           1469    2247    3030    3032
CTETRA      2700       1     131      30     105     132    1443    1791+
+           1142    1437    1153    1436
CTETRA      2701       1      13      37      58      26     877     878+
+            876    1084    2338    2069
CTETRA      2702       1      55    4829    5045    5247    2033    4860+
+           2034    1515    4861    4859
CTETRA      2703       1      32    5066    2921    5065     299    3109+
+           1162     297    5075    3108
CTETRA      2704       1     101    5068     103    3488    2013    2198+
+            775     789    3506     791
CTETRA      2705       1      82    5084    3496    3497     608    3544+
+           1976    2371    3551    3547
CTETRA      2706       1      38    4828    5039    5343    2368    4845+
+           1468    1470    4846    5042
CTETRA      2707       1      39    2940      49    2899    1463    1462+
+           1461     927    2214    1465
CTETRA      2708       1      41    2931    2932    2886    2025    3134+
+           2055    2020    3127    3133
CTETRA      2709       1     122    2995    2998    2999    1817    3368+
+            910     908    3369    3370
CTETRA      2710       1      34      35    5047    2998     308     315+
+            314     911    1998    3385
CTETRA      2711       1      37      56    4955    4829    2050    2051+
+           2030    2032    2045    4854
CTETRA      2712       1     138     149    5321     150    1475    1478+
+           1477    1480    1479    1660
CTETRA      2713       1      26    5048      58    5234    1078    1098+
+           2069    2088    4871    2090
CTETRA      2714       1      40    2902     139    5297    2247    2248+
+           1457    1795    3030    1796
CTETRA      2715       1      37    4955      58    4830    2030    2052+
+            878    1100    4866    1101
CTETRA      2716       1    3572      85    5271    3604     747     958+
+           3796    3789     750    3795
CTETRA      2717       1    4107    5152    5153    4104    4168    5157+
+           4167    4169    4150    2374
CTETRA      2718       1    2392    5115    2594    2584    2472    2668+
+           2049    1886    2667    2655
CTETRA      2719       1      86     100    4104    4105    1295    1644+
+           1643    2363    2329    4153
CTETRA      2720       1    4173    5169    5170      70    4194    5185+
+           4195    1125     761     762
CTETRA      2721       1      86    4105    5151    5349    2363    4156+
+           1026     628    4157    5155
CTETRA      2722       1     137    2595      46    2585    1755    1759+
+           1987    2201    2665    1762
CTETRA      2723       1    2386    2594    5115    5114    1256    2668+
+           2454    2453    2672    5116
CTETRA      2724       1      86    4104    5151    4105    1643    4149+
+           1026    2363    4153    4156
CTETRA      2725       1      99    3628    3573    3572    1018    3858+
+            741     746    3857    3790
CTETRA      2726       1     100    5171    4107    5170    1731    4164+
+           1921     764    5184    4165
CTETRA      2727       1     153    2413    2412    2417    2138    2556+
+           1889    1578    2565    2564
CTETRA      2728       1     136    2583    2605    2584    1257    2707+
+           1261    1258    2654    2708
CTETRA      2729       1       7    2762    2769    2770     243    2862+
+            235     238    2864    2863
CTETRA      2730       1    2382    2769    5130    5129    2296    2859+
+           2422    2423    2860    5140
CTETRA      2731       1    2750    2418    2412    5138    1887    2570+
+           1890    2825    2571    2553
CTETRA      2732       1    4695    4313    4981    4980    2301    4355+
+           4753    4754    4356    4987
CTETRA      2733       1    4694    4382    5011    4692     596    4414+
+           4749    4751    2286    4743
CTETRA      2734       1     101     105     104    3490     782     784+
+            781     793     792    1139
CTETRA      2735       1    4895      29    2612    4475    1771    1781+
+           2746    4635    1783    1775
CTETRA      2736       1    2605    2584    2610     151    2708    2726+
+           2724    1654    2163    1656
CTETRA      2737       1     102    2946    2934    2933    1922    3209+
+           2315     802    3211    3161
CTETRA      2738       1     133    5345    5306    2989    1972    5317+
+           1166    1973    3350    3347
CTETRA      2739       1       7    4460       8    4450     233    1980+
+            177     229    4583     231
CTETRA      2740       1    2390    5129    5128    2772    2461    5143+
+           2462    2151    2885    2884
CTETRA      2741       1     106    2988    2945    2989    1341    3340+
+            796    1974    3346    3348
CTETRA      2742       1      31      32      30     133     296    1965+
+            293    1152    1167    1154
CTETRA      2743       1      44     131    5092    5093    1740    1147+
+           2012     352    1741    5103
CTETRA      2744       1     150    5322    2417    2418    1899    2566+
+           1579    1891    2569    2568
CTETRA      2745       1      97    3024    2896    3023     722    3484+
+            716     719    3483    3477
CTETRA      2746       1     105     103      30    3488     790    1792+
+           1791     788     791    1916
CTETRA      2747       1     103    2925    2923    5067    1925    3117+
+           1769    1962    3114    3116
CTETRA      2748       1     109    2971    2969    2968    2246    3297+
+           2239    2229    3298    3268
CTETRA      2749       1     106    2945    5072    2989     796    3208+
+            794    1974    3348    3349
CTETRA      2750       1     101    2945    5071    5072     795    3207+
+            805     779    3208    5081
CTETRA      2751       1     135    2973    2976    2972    1203    3287+
+           1728    1197    3289    3288
CTETRA      2752       1     110    2981    5302    5301     813    3314+
+           1954    1846    3313    5312
CTETRA      2753       1     101    5071     104    5072     805     806+
+            781     779    5081     780
CTETRA      2754       1     121    3014    3021    3017    1955    3461+
+           2080    1949    3456    3462
CTETRA      2755       1      32    2897    5064    2920    1158    3104+
+            306    1159    3089    3106
CTETRA      2756       1      16    2397    2398    2395    2038    2494+
+           2113    1535    2487    2493
CTETRA      2757       1      30    3488    3486    3487    1916    3507+
+           1155    1914    3509    3508
CTETRA      2758       1     122    3009    2991    2990     899    3419+
+           2058     904    3420    3384
CTETRA      2759       1      78    3020    3023    3022     959    3474+
+            734    2360    3471    3475
CTETRA      2760       1    2978    2984    2949     108    3323    2324+
+           3302     822    2237    1839
CTETRA      2761       1     117     120    3647    3646     867     869+
+            866     871     870    3934
CTETRA      2762       1      78    5304    3023    3020     961    3472+
+            734     959    3460    3474
CTETRA      2763       1     138    5320    5321    2391    1489    5323+
+           1477    1474    2467    2468
CTETRA      2764       1      97      98    2912     134     721     730+
+            729    1423    1330    2319
CTETRA      2765       1     146    2890    2994    3011    1376    3359+
+           1375    2367    3422    3424
CTETRA      2766       1     121    3014    5302    3021    1955    3445+
+            889    2080    3461    3463
CTETRA      2767       1      77    2908    2916    2915    2297    3045+
+           1308    1832    3050    3057
CTETRA      2768       1      77    2908    2909    2916    2297    3046+
+           2005    1308    3045    3044
CTETRA      2769       1     146    3013     148    2891    2009    2008+
+           1378    1381    3431    1382
CTETRA      2770       1     117    3640    3649    3650    2210    3942+
+           2204     945    3944    3946
CTETRA      2771       1      77    2893    2892    3019    1306    3048+
+           1307    1304    3450    3452
CTETRA      2772       1     110    2982    5302    2981     816    3315+
+           1954     813    3317    3314
CTETRA      2773       1     145    2936     111    2906    2228    1022+
+           1700    1736    3167    1710
CTETRA      2774       1     112    2950    2951    2938    1714    3200+
+           1842    2115    3199    3192
CTETRA      2775       1      77    3018    2894    2893    1305    3449+
+            537    1306    3448    3055
CTETRA      2776       1    3015    3017     148    3019    3455    2240+
+           1388    3454    3457    2241
CTETRA      2777       1      78    3018    3020    3022    2261    3467+
+            959    2360    3470    3471
CTETRA      2778       1     146    2891    2890    3011    1381    3145+
+           1376    2367    3423    3422
CTETRA      2779       1    5320    2392    2584    5347    2470    1886+
+           2164    5324    2473    2669
CTETRA      2780       1       9    4479    4941    2756     200    4657+
+            192     195    2124    2789
CTETRA      2781       1      43      38    5343    5052    2018    1470+
+           2258    2257    2078    5062
CTETRA      2782       1     127    3008    3006    3005    1325    3412+
+           1326     982    3411    3400
CTETRA      2783       1    2769      19    2772    5129     236    1685+
+           2883    2860    2320    2885
CTETRA      2784       1     148    3014    3016    5301    1847    3446+
+           1386    1845    3444    3438
CTETRA      2785       1     136     138    5320    2584    1259    1489+
+           2235    1258    1260    2164
CTETRA      2786       1      13      26      58      14    1084    2069+
+            876     208    2091     407
CTETRA      2787       1    2388    5113    2593    2586    2452    2649+
+           2252    1758    2651    2650
CTETRA      2788       1      43    2990    5052    3007     905    3379+
+           2257    2256    3406    3405
CTETRA      2789       1     137    2389      19    2387    1688    2149+
+           1690    1753    2460    2192
CTETRA      2790       1     136    2386    2594    2392    1254    1256+
+           1253    1689    2471    2049
CTETRA      2791       1     122    2996    3000    2992     987    3374+
+            907     988    3361    3371
CTETRA      2792       1      53    5040    5243    5242    2116    4832+
+           2109    2083    4831    5245
CTETRA      2793       1     127    3008    3005    2992    1325    3411+
+            982     989    3413    3409
CTETRA      2794       1       3    4439    4436    4438     159    4508+
+           2250     156    4510    4503
CTETRA      2795       1      39    2898    2899    5040     930    3038+
+            927     929    3029    3036
CTETRA      2796       1      19    2382    2389    2390     882    2459+
+           2149    2152    2463    2464
CTETRA      2797       1      63     128     154     155    1824    1878+
+           1989    1939    1873    1879
CTETRA      2798       1      40      43      38    5343    1793    2018+
+            324    1469    2258    1470
CTETRA      2799       1      33    5051    5052    2990    1902    5057+
+           2077     913    3378    3379
CTETRA      2800       1    5128    5322    2768    5348    2480    2356+
+           2851    5144    5326    2850
CTETRA      2801       1      81      82    5084    3496     597     608+
+            611     618    1976    3544
CTETRA      2802       1      48    2943    2975    2944     366    3280+
+           1282    1807    3188    3282
CTETRA      2803       1    3606     123    3607    3656    2244    1076+
+           3885    3963    1066    3961
CTETRA      2804       1      45    5281    3687    5346    1234    4066+
+            612    1743    5293    4068
CTETRA      2805       1     144     145    2986    2987    1334    2027+
+           1958    1332    1335    3336
CTETRA      2806       1    3499    3496      31      82     621    1410+
+            300     622    1976    1444
CTETRA      2807       1     148    2892    3013    3019    2212    3432+
+           2008    2241    3452    3453
CTETRA      2808       1      44    3665      87      88     345    1342+
+           1215    1218    1232     647
CTETRA      2809       1    2984     145    2986    2948    1702    2027+
+           3331    3325    1699    1991
CTETRA      2810       1     146    3015    3012    3016    1387    3441+
+           1874    1367    3443    3440
CTETRA      2811       1     128    5299     154    5300    1822    2016+
+           1878    1937    5310    1938
CTETRA      2812       1      21    2766    2764    2765    2266    2837+
+           2099     885    2836    2838
CTETRA      2813       1      82      30    3494    3487    1420    1422+
+           1421    1917    1914    3538
CTETRA      2814       1       8    4460    4451    4450    1980    4581+
+            246     231    4583    4549
$*
$* PROPERTY CARDS
$*
$*  NX Property: PSOLID1
PSOLID         1       1       0                           SMECH
$*
$* MATERIAL CARDS
$*
$*  NX Material: Aluminum_2014
MAT1           11.0605+7        0.3300002.6144-41.1742-5
MATT1          1       1               2               3
TABLEM1        1                                                        +
+        68.00001.0605+7 69.99801.0605+7 75.00201.0605+7100.00401.0605+7+
+       125.00601.0605+7150.00801.0505+7174.99201.0505+7199.99401.0405+7+
+       224.99601.0305+7249.99801.0205+7275.00001.0105+7300.00201.0005+7+
+       325.00409.9046+6350.00609.7045+6375.00809.6045+6399.99209.4044+6+
+       424.99409.2042+6449.99608.9042+6474.99808.7040+6500.00008.5040+6+
+       525.00208.3038+6550.00408.0038+6575.00607.8036+6600.00807.5035+6+
+       624.99207.2033+6649.99406.9032+6674.99606.7031+6699.99806.4030+6+
+           ENDT
TABLEM1        2                                                        +
+        68.00000.330000 69.99800.330000    ENDT
TABLEM1        3                                                        +
+        68.00001.2000-5199.99401.2500-5224.99601.2590-5249.99801.2680-5+
+       275.00001.2760-5300.00201.2850-5325.00401.2930-5350.00601.3010-5+
+       375.00801.3080-5399.99201.3160-5424.99401.3230-5449.99601.3310-5+
+       474.99801.3370-5500.00001.3440-5525.00201.3500-5550.00401.3560-5+
+       575.00601.3610-5600.00801.3670-5624.99201.3720-5649.99401.3770-5+
+       674.99601.3820-5699.99801.3880-5725.00001.3950-5750.00201.4030-5+
+       775.00401.4110-5800.00601.4200-5    ENDT
$*
$* LOAD AND CONSTRAINT CARDS
$*
$*  NX Load and Constraint: Fixed DOF(1)
BNDFIX         1  123456
$*  NX Load and Constraint: Fixed DOF(2)
BNDFIX         2  123456
ENDDATA c2a2a8fa
