$*$$$$$$$$$$$$$$$$$$$$$$$$$$$$$$$$$$$$$$$$$$$$$$$$$$$$$$$$$$$$$$$$$
$*
$*                    NX v6.0.0.20 TRANSLATOR
$*                    FOR NX NASTRAN VERSION 4.1
$*
$*             FEM FILE: D:\Usr\Rob\NX6 Stuff\TopGun\Solar Panel AFM.afm
$*             SIM FILE: D:\Usr\Rob\NX6 Stuff\TopGun\Solar Panel.sim
$*        ANALYSIS TYPE: Structural
$*        SOLUTION NAME: Solution 1
$*        SOLUTION TYPE: SESTATIC 101 - Single Constraint
$*
$*    SOLVER INPUT FILE: Solar Panel.dat
$*        CREATION DATE: 18-Mar-2008
$*        CREATION TIME: 13:45:22
$*             HOSTNAME: platypus
$*
$*                UNITS: MM-mm (milli-newton)
$*                      ... LENGTH : mm
$*                      ... TIME   : sec
$*                      ... MASS   : kilogram (kg)
$*                      ... FORCE  : milli-newton
$*                      ... TEMPERATURE : deg Celsius
$*
$*$$$$$$$$$$$$$$$$$$$$$$$$$$$$$$$$$$$$$$$$$$$$$$$$$$$$$$$$$$$$$$$$$
$*
$*$$$$$$$$$$$$$$$$$$$$$$$$$$$$$$$$$$$
$*
$* FILE MANAGEMENT
$*
$*$$$$$$$$$$$$$$$$$$$$$$$$$$$$$$$$$$$
$*
$*
$*$$$$$$$$$$$$$$$$$$$$$$$$$$$$$$$$$$$
$*
$* EXECUTIVE CONTROL
$*
$*$$$$$$$$$$$$$$$$$$$$$$$$$$$$$$$$$$$
$*
ID,NASTRAN,Solar Panel
SOL 101
TIME 999
CEND
$*
$*$$$$$$$$$$$$$$$$$$$$$$$$$$$$$$$$$$$
$*
$* CASE CONTROL
$*
$*$$$$$$$$$$$$$$$$$$$$$$$$$$$$$$$$$$$
$*
ECHO = NONE
OUTPUT
DISPLACEMENT(PLOT,REAL) = ALL
SPCFORCES(PLOT,REAL) = ALL
STRESS(PLOT,REAL,VONMISES,CENTER) = ALL
SUBCASE 1
$*
$*$$$$$$$$$$$$$$$$$$$$$$$$$$$$$$$$$$$
$*
$* BULK DATA
$*
$*$$$$$$$$$$$$$$$$$$$$$$$$$$$$$$$$$$$
$*
BEGIN BULK
$*
$* PARAM CARDS
$*
PARAM    AUTOMPC     YES
PARAM    AUTOSPC     YES
PARAM     GRDPNT       0
PARAM      K6ROT100.0000
PARAM   MAXRATIO1.0000+8
PARAM       POST      -2
PARAM    POSTEXT     YES
$*
$* GRID CARDS
$*
GRID*                262               01.0000000000E+010.0000000000E+00+
*       2.0000000000E+01               0
GRID*                264               01.0000000000E+013.8000000000E+02+
*       2.0000000000E+01               0
GRID*                263               09.3000000000E+020.0000000000E+00+
*       2.0000000000E+01               0
GRID*                261               09.3000000000E+023.8000000000E+02+
*       2.0000000000E+01               0
GRID*                252               01.0000000000E+013.4200000000E+02+
*       2.0000000000E+01               0
GRID*                253               01.0000000000E+013.0400000000E+02+
*       2.0000000000E+01               0
GRID*                254               01.0000000000E+012.6600000000E+02+
*       2.0000000000E+01               0
GRID*                255               01.0000000000E+012.2800000000E+02+
*       2.0000000000E+01               0
GRID*                256               01.0000000000E+011.9000000000E+02+
*       2.0000000000E+01               0
GRID*                257               01.0000000000E+011.5200000000E+02+
*       2.0000000000E+01               0
GRID*                258               01.0000000000E+011.1400000000E+02+
*       2.0000000000E+01               0
GRID*                259               01.0000000000E+017.6000000000E+01+
*       2.0000000000E+01               0
GRID*                260               01.0000000000E+013.8000000000E+01+
*       2.0000000000E+01               0
GRID*                208               08.9000000000E+020.0000000000E+00+
*       2.0000000000E+01               0
GRID*                209               08.5000000000E+020.0000000000E+00+
*       2.0000000000E+01               0
GRID*                210               08.1000000000E+020.0000000000E+00+
*       2.0000000000E+01               0
GRID*                211               07.7000000000E+020.0000000000E+00+
*       2.0000000000E+01               0
GRID*                212               07.3000000000E+020.0000000000E+00+
*       2.0000000000E+01               0
GRID*                213               06.9000000000E+020.0000000000E+00+
*       2.0000000000E+01               0
GRID*                214               06.5000000000E+020.0000000000E+00+
*       2.0000000000E+01               0
GRID*                215               06.1000000000E+020.0000000000E+00+
*       2.0000000000E+01               0
GRID*                216               05.7000000000E+020.0000000000E+00+
*       2.0000000000E+01               0
GRID*                217               05.3000000000E+020.0000000000E+00+
*       2.0000000000E+01               0
GRID*                218               04.9000000000E+020.0000000000E+00+
*       2.0000000000E+01               0
GRID*                219               04.5000000000E+020.0000000000E+00+
*       2.0000000000E+01               0
GRID*                220               04.1000000000E+020.0000000000E+00+
*       2.0000000000E+01               0
GRID*                221               03.7000000000E+020.0000000000E+00+
*       2.0000000000E+01               0
GRID*                222               03.3000000000E+020.0000000000E+00+
*       2.0000000000E+01               0
GRID*                223               02.9000000000E+020.0000000000E+00+
*       2.0000000000E+01               0
GRID*                224               02.5000000000E+020.0000000000E+00+
*       2.0000000000E+01               0
GRID*                225               02.1000000000E+020.0000000000E+00+
*       2.0000000000E+01               0
GRID*                226               01.7000000000E+020.0000000000E+00+
*       2.0000000000E+01               0
GRID*                227               01.3000000000E+020.0000000000E+00+
*       2.0000000000E+01               0
GRID*                228               09.0000000000E+010.0000000000E+00+
*       2.0000000000E+01               0
GRID*                229               05.0000000000E+010.0000000000E+00+
*       2.0000000000E+01               0
GRID*                230               05.0000000000E+013.8000000000E+02+
*       2.0000000000E+01               0
GRID*                231               09.0000000000E+013.8000000000E+02+
*       2.0000000000E+01               0
GRID*                232               01.3000000000E+023.8000000000E+02+
*       2.0000000000E+01               0
GRID*                233               01.7000000000E+023.8000000000E+02+
*       2.0000000000E+01               0
GRID*                234               02.1000000000E+023.8000000000E+02+
*       2.0000000000E+01               0
GRID*                235               02.5000000000E+023.8000000000E+02+
*       2.0000000000E+01               0
GRID*                236               02.9000000000E+023.8000000000E+02+
*       2.0000000000E+01               0
GRID*                237               03.3000000000E+023.8000000000E+02+
*       2.0000000000E+01               0
GRID*                238               03.7000000000E+023.8000000000E+02+
*       2.0000000000E+01               0
GRID*                239               04.1000000000E+023.8000000000E+02+
*       2.0000000000E+01               0
GRID*                240               04.5000000000E+023.8000000000E+02+
*       2.0000000000E+01               0
GRID*                241               04.9000000000E+023.8000000000E+02+
*       2.0000000000E+01               0
GRID*                242               05.3000000000E+023.8000000000E+02+
*       2.0000000000E+01               0
GRID*                243               05.7000000000E+023.8000000000E+02+
*       2.0000000000E+01               0
GRID*                244               06.1000000000E+023.8000000000E+02+
*       2.0000000000E+01               0
GRID*                245               06.5000000000E+023.8000000000E+02+
*       2.0000000000E+01               0
GRID*                246               06.9000000000E+023.8000000000E+02+
*       2.0000000000E+01               0
GRID*                247               07.3000000000E+023.8000000000E+02+
*       2.0000000000E+01               0
GRID*                248               07.7000000000E+023.8000000000E+02+
*       2.0000000000E+01               0
GRID*                249               08.1000000000E+023.8000000000E+02+
*       2.0000000000E+01               0
GRID*                250               08.5000000000E+023.8000000000E+02+
*       2.0000000000E+01               0
GRID*                251               08.9000000000E+023.8000000000E+02+
*       2.0000000000E+01               0
GRID*                199               09.3000000000E+023.4200000000E+02+
*       2.0000000000E+01               0
GRID*                200               09.3000000000E+023.0400000000E+02+
*       2.0000000000E+01               0
GRID*                201               09.3000000000E+022.6600000000E+02+
*       2.0000000000E+01               0
GRID*                202               09.3000000000E+022.2800000000E+02+
*       2.0000000000E+01               0
GRID*                203               09.3000000000E+021.9000000000E+02+
*       2.0000000000E+01               0
GRID*                204               09.3000000000E+021.5200000000E+02+
*       2.0000000000E+01               0
GRID*                205               09.3000000000E+021.1400000000E+02+
*       2.0000000000E+01               0
GRID*                206               09.3000000000E+027.6000000000E+01+
*       2.0000000000E+01               0
GRID*                207               09.3000000000E+023.8000000000E+01+
*       2.0000000000E+01               0
GRID*                  1               08.9000000000E+023.8000000000E+01+
*       2.0000000000E+01               0
GRID*                  2               08.5000000000E+023.8000000000E+01+
*       2.0000000000E+01               0
GRID*                  3               08.1000000000E+023.8000000000E+01+
*       2.0000000000E+01               0
GRID*                  4               07.7000000000E+023.8000000000E+01+
*       2.0000000000E+01               0
GRID*                  5               07.3000000000E+023.8000000000E+01+
*       2.0000000000E+01               0
GRID*                  6               06.9000000000E+023.8000000000E+01+
*       2.0000000000E+01               0
GRID*                  7               06.5000000000E+023.8000000000E+01+
*       2.0000000000E+01               0
GRID*                  8               06.1000000000E+023.8000000000E+01+
*       2.0000000000E+01               0
GRID*                  9               05.7000000000E+023.8000000000E+01+
*       2.0000000000E+01               0
GRID*                 10               05.3000000000E+023.8000000000E+01+
*       2.0000000000E+01               0
GRID*                 11               04.9000000000E+023.8000000000E+01+
*       2.0000000000E+01               0
GRID*                 12               04.5000000000E+023.8000000000E+01+
*       2.0000000000E+01               0
GRID*                 13               04.1000000000E+023.8000000000E+01+
*       2.0000000000E+01               0
GRID*                 14               03.7000000000E+023.8000000000E+01+
*       2.0000000000E+01               0
GRID*                 15               03.3000000000E+023.8000000000E+01+
*       2.0000000000E+01               0
GRID*                 16               02.9000000000E+023.8000000000E+01+
*       2.0000000000E+01               0
GRID*                 17               02.5000000000E+023.8000000000E+01+
*       2.0000000000E+01               0
GRID*                 18               02.1000000000E+023.8000000000E+01+
*       2.0000000000E+01               0
GRID*                 19               01.7000000000E+023.8000000000E+01+
*       2.0000000000E+01               0
GRID*                 20               01.3000000000E+023.8000000000E+01+
*       2.0000000000E+01               0
GRID*                 21               09.0000000000E+013.8000000000E+01+
*       2.0000000000E+01               0
GRID*                 22               05.0000000000E+013.8000000000E+01+
*       2.0000000000E+01               0
GRID*                 23               08.9000000000E+027.6000000000E+01+
*       2.0000000000E+01               0
GRID*                 24               08.5000000000E+027.6000000000E+01+
*       2.0000000000E+01               0
GRID*                 25               08.1000000000E+027.6000000000E+01+
*       2.0000000000E+01               0
GRID*                 26               07.7000000000E+027.6000000000E+01+
*       2.0000000000E+01               0
GRID*                 27               07.3000000000E+027.6000000000E+01+
*       2.0000000000E+01               0
GRID*                 28               06.9000000000E+027.6000000000E+01+
*       2.0000000000E+01               0
GRID*                 29               06.5000000000E+027.6000000000E+01+
*       2.0000000000E+01               0
GRID*                 30               06.1000000000E+027.6000000000E+01+
*       2.0000000000E+01               0
GRID*                 31               05.7000000000E+027.6000000000E+01+
*       2.0000000000E+01               0
GRID*                 32               05.3000000000E+027.6000000000E+01+
*       2.0000000000E+01               0
GRID*                 33               04.9000000000E+027.6000000000E+01+
*       2.0000000000E+01               0
GRID*                 34               04.5000000000E+027.6000000000E+01+
*       2.0000000000E+01               0
GRID*                 35               04.1000000000E+027.6000000000E+01+
*       2.0000000000E+01               0
GRID*                 36               03.7000000000E+027.6000000000E+01+
*       2.0000000000E+01               0
GRID*                 37               03.3000000000E+027.6000000000E+01+
*       2.0000000000E+01               0
GRID*                 38               02.9000000000E+027.6000000000E+01+
*       2.0000000000E+01               0
GRID*                 39               02.5000000000E+027.6000000000E+01+
*       2.0000000000E+01               0
GRID*                 40               02.1000000000E+027.6000000000E+01+
*       2.0000000000E+01               0
GRID*                 41               01.7000000000E+027.6000000000E+01+
*       2.0000000000E+01               0
GRID*                 42               01.3000000000E+027.6000000000E+01+
*       2.0000000000E+01               0
GRID*                 43               09.0000000000E+017.6000000000E+01+
*       2.0000000000E+01               0
GRID*                 44               05.0000000000E+017.6000000000E+01+
*       2.0000000000E+01               0
GRID*                 45               08.9000000000E+021.1400000000E+02+
*       2.0000000000E+01               0
GRID*                 46               08.5000000000E+021.1400000000E+02+
*       2.0000000000E+01               0
GRID*                 47               08.1000000000E+021.1400000000E+02+
*       2.0000000000E+01               0
GRID*                 48               07.7000000000E+021.1400000000E+02+
*       2.0000000000E+01               0
GRID*                 49               07.3000000000E+021.1400000000E+02+
*       2.0000000000E+01               0
GRID*                 50               06.9000000000E+021.1400000000E+02+
*       2.0000000000E+01               0
GRID*                 51               06.5000000000E+021.1400000000E+02+
*       2.0000000000E+01               0
GRID*                 52               06.1000000000E+021.1400000000E+02+
*       2.0000000000E+01               0
GRID*                 53               05.7000000000E+021.1400000000E+02+
*       2.0000000000E+01               0
GRID*                 54               05.3000000000E+021.1400000000E+02+
*       2.0000000000E+01               0
GRID*                 55               04.9000000000E+021.1400000000E+02+
*       2.0000000000E+01               0
GRID*                 56               04.5000000000E+021.1400000000E+02+
*       2.0000000000E+01               0
GRID*                 57               04.1000000000E+021.1400000000E+02+
*       2.0000000000E+01               0
GRID*                 58               03.7000000000E+021.1400000000E+02+
*       2.0000000000E+01               0
GRID*                 59               03.3000000000E+021.1400000000E+02+
*       2.0000000000E+01               0
GRID*                 60               02.9000000000E+021.1400000000E+02+
*       2.0000000000E+01               0
GRID*                 61               02.5000000000E+021.1400000000E+02+
*       2.0000000000E+01               0
GRID*                 62               02.1000000000E+021.1400000000E+02+
*       2.0000000000E+01               0
GRID*                 63               01.7000000000E+021.1400000000E+02+
*       2.0000000000E+01               0
GRID*                 64               01.3000000000E+021.1400000000E+02+
*       2.0000000000E+01               0
GRID*                 65               09.0000000000E+011.1400000000E+02+
*       2.0000000000E+01               0
GRID*                 66               05.0000000000E+011.1400000000E+02+
*       2.0000000000E+01               0
GRID*                 67               08.9000000000E+021.5200000000E+02+
*       2.0000000000E+01               0
GRID*                 68               08.5000000000E+021.5200000000E+02+
*       2.0000000000E+01               0
GRID*                 69               08.1000000000E+021.5200000000E+02+
*       2.0000000000E+01               0
GRID*                 70               07.7000000000E+021.5200000000E+02+
*       2.0000000000E+01               0
GRID*                 71               07.3000000000E+021.5200000000E+02+
*       2.0000000000E+01               0
GRID*                 72               06.9000000000E+021.5200000000E+02+
*       2.0000000000E+01               0
GRID*                 73               06.5000000000E+021.5200000000E+02+
*       2.0000000000E+01               0
GRID*                 74               06.1000000000E+021.5200000000E+02+
*       2.0000000000E+01               0
GRID*                 75               05.7000000000E+021.5200000000E+02+
*       2.0000000000E+01               0
GRID*                 76               05.3000000000E+021.5200000000E+02+
*       2.0000000000E+01               0
GRID*                 77               04.9000000000E+021.5200000000E+02+
*       2.0000000000E+01               0
GRID*                 78               04.5000000000E+021.5200000000E+02+
*       2.0000000000E+01               0
GRID*                 79               04.1000000000E+021.5200000000E+02+
*       2.0000000000E+01               0
GRID*                 80               03.7000000000E+021.5200000000E+02+
*       2.0000000000E+01               0
GRID*                 81               03.3000000000E+021.5200000000E+02+
*       2.0000000000E+01               0
GRID*                 82               02.9000000000E+021.5200000000E+02+
*       2.0000000000E+01               0
GRID*                 83               02.5000000000E+021.5200000000E+02+
*       2.0000000000E+01               0
GRID*                 84               02.1000000000E+021.5200000000E+02+
*       2.0000000000E+01               0
GRID*                 85               01.7000000000E+021.5200000000E+02+
*       2.0000000000E+01               0
GRID*                 86               01.3000000000E+021.5200000000E+02+
*       2.0000000000E+01               0
GRID*                 87               09.0000000000E+011.5200000000E+02+
*       2.0000000000E+01               0
GRID*                 88               05.0000000000E+011.5200000000E+02+
*       2.0000000000E+01               0
GRID*                 89               08.9000000000E+021.9000000000E+02+
*       2.0000000000E+01               0
GRID*                 90               08.5000000000E+021.9000000000E+02+
*       2.0000000000E+01               0
GRID*                 91               08.1000000000E+021.9000000000E+02+
*       2.0000000000E+01               0
GRID*                 92               07.7000000000E+021.9000000000E+02+
*       2.0000000000E+01               0
GRID*                 93               07.3000000000E+021.9000000000E+02+
*       2.0000000000E+01               0
GRID*                 94               06.9000000000E+021.9000000000E+02+
*       2.0000000000E+01               0
GRID*                 95               06.5000000000E+021.9000000000E+02+
*       2.0000000000E+01               0
GRID*                 96               06.1000000000E+021.9000000000E+02+
*       2.0000000000E+01               0
GRID*                 97               05.7000000000E+021.9000000000E+02+
*       2.0000000000E+01               0
GRID*                 98               05.3000000000E+021.9000000000E+02+
*       2.0000000000E+01               0
GRID*                 99               04.9000000000E+021.9000000000E+02+
*       2.0000000000E+01               0
GRID*                100               04.5000000000E+021.9000000000E+02+
*       2.0000000000E+01               0
GRID*                101               04.1000000000E+021.9000000000E+02+
*       2.0000000000E+01               0
GRID*                102               03.7000000000E+021.9000000000E+02+
*       2.0000000000E+01               0
GRID*                103               03.3000000000E+021.9000000000E+02+
*       2.0000000000E+01               0
GRID*                104               02.9000000000E+021.9000000000E+02+
*       2.0000000000E+01               0
GRID*                105               02.5000000000E+021.9000000000E+02+
*       2.0000000000E+01               0
GRID*                106               02.1000000000E+021.9000000000E+02+
*       2.0000000000E+01               0
GRID*                107               01.7000000000E+021.9000000000E+02+
*       2.0000000000E+01               0
GRID*                108               01.3000000000E+021.9000000000E+02+
*       2.0000000000E+01               0
GRID*                109               09.0000000000E+011.9000000000E+02+
*       2.0000000000E+01               0
GRID*                110               05.0000000000E+011.9000000000E+02+
*       2.0000000000E+01               0
GRID*                111               08.9000000000E+022.2800000000E+02+
*       2.0000000000E+01               0
GRID*                112               08.5000000000E+022.2800000000E+02+
*       2.0000000000E+01               0
GRID*                113               08.1000000000E+022.2800000000E+02+
*       2.0000000000E+01               0
GRID*                114               07.7000000000E+022.2800000000E+02+
*       2.0000000000E+01               0
GRID*                115               07.3000000000E+022.2800000000E+02+
*       2.0000000000E+01               0
GRID*                116               06.9000000000E+022.2800000000E+02+
*       2.0000000000E+01               0
GRID*                117               06.5000000000E+022.2800000000E+02+
*       2.0000000000E+01               0
GRID*                118               06.1000000000E+022.2800000000E+02+
*       2.0000000000E+01               0
GRID*                119               05.7000000000E+022.2800000000E+02+
*       2.0000000000E+01               0
GRID*                120               05.3000000000E+022.2800000000E+02+
*       2.0000000000E+01               0
GRID*                121               04.9000000000E+022.2800000000E+02+
*       2.0000000000E+01               0
GRID*                122               04.5000000000E+022.2800000000E+02+
*       2.0000000000E+01               0
GRID*                123               04.1000000000E+022.2800000000E+02+
*       2.0000000000E+01               0
GRID*                124               03.7000000000E+022.2800000000E+02+
*       2.0000000000E+01               0
GRID*                125               03.3000000000E+022.2800000000E+02+
*       2.0000000000E+01               0
GRID*                126               02.9000000000E+022.2800000000E+02+
*       2.0000000000E+01               0
GRID*                127               02.5000000000E+022.2800000000E+02+
*       2.0000000000E+01               0
GRID*                128               02.1000000000E+022.2800000000E+02+
*       2.0000000000E+01               0
GRID*                129               01.7000000000E+022.2800000000E+02+
*       2.0000000000E+01               0
GRID*                130               01.3000000000E+022.2800000000E+02+
*       2.0000000000E+01               0
GRID*                131               09.0000000000E+012.2800000000E+02+
*       2.0000000000E+01               0
GRID*                132               05.0000000000E+012.2800000000E+02+
*       2.0000000000E+01               0
GRID*                133               08.9000000000E+022.6600000000E+02+
*       2.0000000000E+01               0
GRID*                134               08.5000000000E+022.6600000000E+02+
*       2.0000000000E+01               0
GRID*                135               08.1000000000E+022.6600000000E+02+
*       2.0000000000E+01               0
GRID*                136               07.7000000000E+022.6600000000E+02+
*       2.0000000000E+01               0
GRID*                137               07.3000000000E+022.6600000000E+02+
*       2.0000000000E+01               0
GRID*                138               06.9000000000E+022.6600000000E+02+
*       2.0000000000E+01               0
GRID*                139               06.5000000000E+022.6600000000E+02+
*       2.0000000000E+01               0
GRID*                140               06.1000000000E+022.6600000000E+02+
*       2.0000000000E+01               0
GRID*                141               05.7000000000E+022.6600000000E+02+
*       2.0000000000E+01               0
GRID*                142               05.3000000000E+022.6600000000E+02+
*       2.0000000000E+01               0
GRID*                143               04.9000000000E+022.6600000000E+02+
*       2.0000000000E+01               0
GRID*                144               04.5000000000E+022.6600000000E+02+
*       2.0000000000E+01               0
GRID*                145               04.1000000000E+022.6600000000E+02+
*       2.0000000000E+01               0
GRID*                146               03.7000000000E+022.6600000000E+02+
*       2.0000000000E+01               0
GRID*                147               03.3000000000E+022.6600000000E+02+
*       2.0000000000E+01               0
GRID*                148               02.9000000000E+022.6600000000E+02+
*       2.0000000000E+01               0
GRID*                149               02.5000000000E+022.6600000000E+02+
*       2.0000000000E+01               0
GRID*                150               02.1000000000E+022.6600000000E+02+
*       2.0000000000E+01               0
GRID*                151               01.7000000000E+022.6600000000E+02+
*       2.0000000000E+01               0
GRID*                152               01.3000000000E+022.6600000000E+02+
*       2.0000000000E+01               0
GRID*                153               09.0000000000E+012.6600000000E+02+
*       2.0000000000E+01               0
GRID*                154               05.0000000000E+012.6600000000E+02+
*       2.0000000000E+01               0
GRID*                155               08.9000000000E+023.0400000000E+02+
*       2.0000000000E+01               0
GRID*                156               08.5000000000E+023.0400000000E+02+
*       2.0000000000E+01               0
GRID*                157               08.1000000000E+023.0400000000E+02+
*       2.0000000000E+01               0
GRID*                158               07.7000000000E+023.0400000000E+02+
*       2.0000000000E+01               0
GRID*                159               07.3000000000E+023.0400000000E+02+
*       2.0000000000E+01               0
GRID*                160               06.9000000000E+023.0400000000E+02+
*       2.0000000000E+01               0
GRID*                161               06.5000000000E+023.0400000000E+02+
*       2.0000000000E+01               0
GRID*                162               06.1000000000E+023.0400000000E+02+
*       2.0000000000E+01               0
GRID*                163               05.7000000000E+023.0400000000E+02+
*       2.0000000000E+01               0
GRID*                164               05.3000000000E+023.0400000000E+02+
*       2.0000000000E+01               0
GRID*                165               04.9000000000E+023.0400000000E+02+
*       2.0000000000E+01               0
GRID*                166               04.5000000000E+023.0400000000E+02+
*       2.0000000000E+01               0
GRID*                167               04.1000000000E+023.0400000000E+02+
*       2.0000000000E+01               0
GRID*                168               03.7000000000E+023.0400000000E+02+
*       2.0000000000E+01               0
GRID*                169               03.3000000000E+023.0400000000E+02+
*       2.0000000000E+01               0
GRID*                170               02.9000000000E+023.0400000000E+02+
*       2.0000000000E+01               0
GRID*                171               02.5000000000E+023.0400000000E+02+
*       2.0000000000E+01               0
GRID*                172               02.1000000000E+023.0400000000E+02+
*       2.0000000000E+01               0
GRID*                173               01.7000000000E+023.0400000000E+02+
*       2.0000000000E+01               0
GRID*                174               01.3000000000E+023.0400000000E+02+
*       2.0000000000E+01               0
GRID*                175               09.0000000000E+013.0400000000E+02+
*       2.0000000000E+01               0
GRID*                176               05.0000000000E+013.0400000000E+02+
*       2.0000000000E+01               0
GRID*                177               08.9000000000E+023.4200000000E+02+
*       2.0000000000E+01               0
GRID*                178               08.5000000000E+023.4200000000E+02+
*       2.0000000000E+01               0
GRID*                179               08.1000000000E+023.4200000000E+02+
*       2.0000000000E+01               0
GRID*                180               07.7000000000E+023.4200000000E+02+
*       2.0000000000E+01               0
GRID*                181               07.3000000000E+023.4200000000E+02+
*       2.0000000000E+01               0
GRID*                182               06.9000000000E+023.4200000000E+02+
*       2.0000000000E+01               0
GRID*                183               06.5000000000E+023.4200000000E+02+
*       2.0000000000E+01               0
GRID*                184               06.1000000000E+023.4200000000E+02+
*       2.0000000000E+01               0
GRID*                185               05.7000000000E+023.4200000000E+02+
*       2.0000000000E+01               0
GRID*                186               05.3000000000E+023.4200000000E+02+
*       2.0000000000E+01               0
GRID*                187               04.9000000000E+023.4200000000E+02+
*       2.0000000000E+01               0
GRID*                188               04.5000000000E+023.4200000000E+02+
*       2.0000000000E+01               0
GRID*                189               04.1000000000E+023.4200000000E+02+
*       2.0000000000E+01               0
GRID*                190               03.7000000000E+023.4200000000E+02+
*       2.0000000000E+01               0
GRID*                191               03.3000000000E+023.4200000000E+02+
*       2.0000000000E+01               0
GRID*                192               02.9000000000E+023.4200000000E+02+
*       2.0000000000E+01               0
GRID*                193               02.5000000000E+023.4200000000E+02+
*       2.0000000000E+01               0
GRID*                194               02.1000000000E+023.4200000000E+02+
*       2.0000000000E+01               0
GRID*                195               01.7000000000E+023.4200000000E+02+
*       2.0000000000E+01               0
GRID*                196               01.3000000000E+023.4200000000E+02+
*       2.0000000000E+01               0
GRID*                197               09.0000000000E+013.4200000000E+02+
*       2.0000000000E+01               0
GRID*                198               05.0000000000E+013.4200000000E+02+
*       2.0000000000E+01               0
GRID*                590               09.9500000000E+021.2221335055E-12+
*       2.0000000000E+01               0
GRID*                593               09.9500000000E+023.8000000000E+02+
*       2.0000000000E+01               0
GRID*                592               02.0700000000E+031.2490009027E-13+
*       2.0000000000E+01               0
GRID*                595               02.0700000000E+033.8000000000E+02+
*       2.0000000000E+01               0
GRID*                594               02.1950000000E+031.2500000000E+02+
*       2.0000000000E+01               0
GRID*                591               02.1950000000E+032.5500000000E+02+
*       2.0000000000E+01               0
GRID*                581               09.9500000000E+023.8000000000E+01+
*       2.0000000000E+01               0
GRID*                582               09.9500000000E+027.6000000000E+01+
*       2.0000000000E+01               0
GRID*                583               09.9500000000E+021.1400000000E+02+
*       2.0000000000E+01               0
GRID*                584               09.9500000000E+021.5200000000E+02+
*       2.0000000000E+01               0
GRID*                585               09.9500000000E+021.9000000000E+02+
*       2.0000000000E+01               0
GRID*                586               09.9500000000E+022.2800000000E+02+
*       2.0000000000E+01               0
GRID*                587               09.9500000000E+022.6600000000E+02+
*       2.0000000000E+01               0
GRID*                588               09.9500000000E+023.0400000000E+02+
*       2.0000000000E+01               0
GRID*                589               09.9500000000E+023.4200000000E+02+
*       2.0000000000E+01               0
GRID*                553               02.0301851852E+031.7942503018E-13+
*       2.0000000000E+01               0
GRID*                554               01.9903703704E+032.2619283363E-13+
*       2.0000000000E+01               0
GRID*                555               01.9505555556E+032.6510576278E-13+
*       2.0000000000E+01               0
GRID*                556               01.9107407407E+033.0232488973E-13+
*       2.0000000000E+01               0
GRID*                557               01.8709259259E+033.4211317088E-13+
*       2.0000000000E+01               0
GRID*                558               01.8311111111E+033.8211410018E-13+
*       2.0000000000E+01               0
GRID*                559               01.7912962963E+034.2211501522E-13+
*       2.0000000000E+01               0
GRID*                560               01.7514814815E+034.6211591351E-13+
*       2.0000000000E+01               0
GRID*                561               01.7116666667E+035.0211681674E-13+
*       2.0000000000E+01               0
GRID*                562               01.6718518519E+035.4211776496E-13+
*       2.0000000000E+01               0
GRID*                563               01.6320370370E+035.8211872894E-13+
*       2.0000000000E+01               0
GRID*                564               01.5922222222E+036.2211966964E-13+
*       2.0000000000E+01               0
GRID*                565               01.5524074074E+036.6212058316E-13+
*       2.0000000000E+01               0
GRID*                566               01.5125925926E+037.0212149722E-13+
*       2.0000000000E+01               0
GRID*                567               01.4727777778E+037.4212241179E-13+
*       2.0000000000E+01               0
GRID*                568               01.4329629630E+037.8212332538E-13+
*       2.0000000000E+01               0
GRID*                569               01.3931481481E+038.2212424992E-13+
*       2.0000000000E+01               0
GRID*                570               01.3533333333E+038.6212518705E-13+
*       2.0000000000E+01               0
GRID*                571               01.3135185185E+039.0212612152E-13+
*       2.0000000000E+01               0
GRID*                572               01.2737037037E+039.4212703491E-13+
*       2.0000000000E+01               0
GRID*                573               01.2338888889E+039.8212796179E-13+
*       2.0000000000E+01               0
GRID*                574               01.1940740741E+031.0221289645E-12+
*       2.0000000000E+01               0
GRID*                575               01.1542592593E+031.1410135614E-12+
*       2.0000000000E+01               0
GRID*                576               01.1144444444E+031.0120831879E-12+
*       2.0000000000E+01               0
GRID*                577               01.0746296296E+034.7300656757E-14+
*       2.0000000000E+01               0
GRID*                578               01.0348148148E+031.4494162842E-13+
*       2.0000000000E+01               0
GRID*                527               01.0348148148E+033.8000000000E+02+
*       2.0000000000E+01               0
GRID*                528               01.0746296296E+033.8000000000E+02+
*       2.0000000000E+01               0
GRID*                529               01.1144444444E+033.8000000000E+02+
*       2.0000000000E+01               0
GRID*                530               01.1542592593E+033.8000000000E+02+
*       2.0000000000E+01               0
GRID*                531               01.1940740741E+033.8000000000E+02+
*       2.0000000000E+01               0
GRID*                532               01.2338888889E+033.8000000000E+02+
*       2.0000000000E+01               0
GRID*                533               01.2737037037E+033.8000000000E+02+
*       2.0000000000E+01               0
GRID*                534               01.3135185185E+033.8000000000E+02+
*       2.0000000000E+01               0
GRID*                535               01.3533333333E+033.8000000000E+02+
*       2.0000000000E+01               0
GRID*                536               01.3931481481E+033.8000000000E+02+
*       2.0000000000E+01               0
GRID*                537               01.4329629630E+033.8000000000E+02+
*       2.0000000000E+01               0
GRID*                538               01.4727777778E+033.8000000000E+02+
*       2.0000000000E+01               0
GRID*                539               01.5125925926E+033.8000000000E+02+
*       2.0000000000E+01               0
GRID*                540               01.5524074074E+033.8000000000E+02+
*       2.0000000000E+01               0
GRID*                541               01.5922222222E+033.8000000000E+02+
*       2.0000000000E+01               0
GRID*                542               01.6320370370E+033.8000000000E+02+
*       2.0000000000E+01               0
GRID*                543               01.6718518519E+033.8000000000E+02+
*       2.0000000000E+01               0
GRID*                544               01.7116666667E+033.8000000000E+02+
*       2.0000000000E+01               0
GRID*                545               01.7514814815E+033.8000000000E+02+
*       2.0000000000E+01               0
GRID*                546               01.7912962963E+033.8000000000E+02+
*       2.0000000000E+01               0
GRID*                547               01.8311111111E+033.8000000000E+02+
*       2.0000000000E+01               0
GRID*                548               01.8709259259E+033.8000000000E+02+
*       2.0000000000E+01               0
GRID*                549               01.9107407407E+033.8000000000E+02+
*       2.0000000000E+01               0
GRID*                550               01.9505555556E+033.8000000000E+02+
*       2.0000000000E+01               0
GRID*                551               01.9903703704E+033.8000000000E+02+
*       2.0000000000E+01               0
GRID*                552               02.0301851852E+033.8000000000E+02+
*       2.0000000000E+01               0
GRID*                524               02.1637499827E+039.3750017329E+01+
*       2.0000000000E+01               0
GRID*                525               02.1325000085E+036.2499991501E+01+
*       2.0000000000E+01               0
GRID*                526               02.1012500049E+033.1249995127E+01+
*       2.0000000000E+01               0
GRID*                521               02.1012499958E+033.4874999579E+02+
*       2.0000000000E+01               0
GRID*                522               02.1324999858E+033.1749998583E+02+
*       2.0000000000E+01               0
GRID*                523               02.1637499874E+032.8624998736E+02+
*       2.0000000000E+01               0
GRID*                579               02.1950000000E+032.1166666667E+02+
*       2.0000000000E+01               0
GRID*                580               02.1950000000E+031.6833333333E+02+
*       2.0000000000E+01               0
GRID*                265               01.5126014965E+033.8013063047E+01+
*       2.0000000000E+01               0
GRID*                266               01.5126094827E+037.6024741046E+01+
*       2.0000000000E+01               0
GRID*                267               01.5126157525E+031.1403382450E+02+
*       2.0000000000E+01               0
GRID*                268               01.5126197032E+031.5203941558E+02+
*       2.0000000000E+01               0
GRID*                269               01.5126209839E+031.9004102779E+02+
*       2.0000000000E+01               0
GRID*                270               01.5126195079E+032.2803861399E+02+
*       2.0000000000E+01               0
GRID*                271               01.5126154397E+032.6603252890E+02+
*       2.0000000000E+01               0
GRID*                272               01.5126091733E+033.0402344670E+02+
*       2.0000000000E+01               0
GRID*                273               01.5126013043E+033.4201226195E+02+
*       2.0000000000E+01               0
GRID*                274               01.4727841371E+033.4200885722E+02+
*       2.0000000000E+01               0
GRID*                275               01.4727898732E+033.0401691818E+02+
*       2.0000000000E+01               0
GRID*                276               01.4727944370E+032.6602343136E+02+
*       2.0000000000E+01               0
GRID*                277               01.4727973904E+032.2802775407E+02+
*       2.0000000000E+01               0
GRID*                278               01.4727984439E+031.9002941900E+02+
*       2.0000000000E+01               0
GRID*                279               01.4727974829E+031.5202819801E+02+
*       2.0000000000E+01               0
GRID*                280               01.4727945826E+031.1402414983E+02+
*       2.0000000000E+01               0
GRID*                281               01.4727900115E+037.6017636765E+01+
*       2.0000000000E+01               0
GRID*                282               01.4727842150E+033.8009300985E+01+
*       2.0000000000E+01               0
GRID*                283               01.4329675892E+033.4200633344E+02+
*       2.0000000000E+01               0
GRID*                284               01.4329717601E+033.0401209309E+02+
*       2.0000000000E+01               0
GRID*                285               01.4329750758E+032.6601673328E+02+
*       2.0000000000E+01               0
GRID*                286               01.4329772160E+032.2801979451E+02+
*       2.0000000000E+01               0
GRID*                287               01.4329779704E+031.9002095108E+02+
*       2.0000000000E+01               0
GRID*                288               01.4329772585E+031.5202005292E+02+
*       2.0000000000E+01               0
GRID*                289               01.4329751412E+031.1401715355E+02+
*       2.0000000000E+01               0
GRID*                290               01.4329718192E+037.6012516917E+01+
*       2.0000000000E+01               0
GRID*                291               01.4329676190E+033.8006598402E+01+
*       2.0000000000E+01               0
GRID*                292               01.3931515009E+033.4200447491E+02+
*       2.0000000000E+01               0
GRID*                293               01.3931545237E+033.0400854656E+02+
*       2.0000000000E+01               0
GRID*                294               01.3931569255E+032.6601182336E+02+
*       2.0000000000E+01               0
GRID*                295               01.3931584733E+032.2801397882E+02+
*       2.0000000000E+01               0
GRID*                296               01.3931590146E+031.9001478547E+02+
*       2.0000000000E+01               0
GRID*                297               01.3931584930E+031.5201414241E+02+
*       2.0000000000E+01               0
GRID*                298               01.3931569551E+031.1401209198E+02+
*       2.0000000000E+01               0
GRID*                299               01.3931545491E+037.6008822057E+01+
*       2.0000000000E+01               0
GRID*                300               01.3931515121E+033.8004651671E+01+
*       2.0000000000E+01               0
GRID*                301               01.3533357520E+033.4200311529E+02+
*       2.0000000000E+01               0
GRID*                302               01.3533379335E+033.0400595526E+02+
*       2.0000000000E+01               0
GRID*                303               01.3533396667E+032.6600824263E+02+
*       2.0000000000E+01               0
GRID*                304               01.3533407828E+032.2800974739E+02+
*       2.0000000000E+01               0
GRID*                305               01.3533411717E+031.9001031077E+02+
*       2.0000000000E+01               0
GRID*                306               01.3533407933E+031.5200986343E+02+
*       2.0000000000E+01               0
GRID*                307               01.3533396825E+031.1400843563E+02+
*       2.0000000000E+01               0
GRID*                308               01.3533379469E+037.6006157635E+01+
*       2.0000000000E+01               0
GRID*                309               01.3533357579E+033.8003249482E+01+
*       2.0000000000E+01               0
GRID*                310               01.3135202529E+033.4200212872E+02+
*       2.0000000000E+01               0
GRID*                311               01.3135218185E+033.0400407635E+02+
*       2.0000000000E+01               0
GRID*                312               01.3135230629E+032.6600564954E+02+
*       2.0000000000E+01               0
GRID*                313               01.3135238646E+032.2800668801E+02+
*       2.0000000000E+01               0
GRID*                314               01.3135241441E+031.9000708122E+02+
*       2.0000000000E+01               0
GRID*                315               01.3135238726E+031.5200678046E+02+
*       2.0000000000E+01               0
GRID*                316               01.3135230754E+031.1400580520E+02+
*       2.0000000000E+01               0
GRID*                317               01.3135218301E+037.6004242976E+01+
*       2.0000000000E+01               0
GRID*                318               01.3135202592E+033.8002242509E+01+
*       2.0000000000E+01               0
GRID*                319               01.2737049376E+033.4200142098E+02+
*       2.0000000000E+01               0
GRID*                320               01.2737060529E+033.0400272881E+02+
*       2.0000000000E+01               0
GRID*                321               01.2737069405E+032.6600379102E+02+
*       2.0000000000E+01               0
GRID*                322               01.2737075132E+032.2800449734E+02+
*       2.0000000000E+01               0
GRID*                323               01.2737077138E+031.9000477116E+02+
*       2.0000000000E+01               0
GRID*                324               01.2737075215E+031.5200457749E+02+
*       2.0000000000E+01               0
GRID*                325               01.2737069541E+031.1400392713E+02+
*       2.0000000000E+01               0
GRID*                326               01.2737060667E+037.6002876624E+01+
*       2.0000000000E+01               0
GRID*                327               01.2737049463E+033.8001523972E+01+
*       2.0000000000E+01               0
GRID*                328               01.2338897576E+033.4200092170E+02+
*       2.0000000000E+01               0
GRID*                329               01.2338905443E+033.0400177773E+02+
*       2.0000000000E+01               0
GRID*                330               01.2338911717E+032.6600247916E+02+
*       2.0000000000E+01               0
GRID*                331               01.2338915776E+032.2800295124E+02+
*       2.0000000000E+01               0
GRID*                332               01.2338917211E+031.9000314115E+02+
*       2.0000000000E+01               0
GRID*                333               01.2338915870E+031.5200302329E+02+
*       2.0000000000E+01               0
GRID*                334               01.2338911875E+031.1400260212E+02+
*       2.0000000000E+01               0
GRID*                335               01.2338905610E+037.6001912352E+01+
*       2.0000000000E+01               0
GRID*                336               01.2338897688E+033.8001016559E+01+
*       2.0000000000E+01               0
GRID*                337               01.1940746768E+033.4200057777E+02+
*       2.0000000000E+01               0
GRID*                338               01.1940752243E+033.0400112150E+02+
*       2.0000000000E+01               0
GRID*                339               01.1940756621E+032.6600157284E+02+
*       2.0000000000E+01               0
GRID*                340               01.1940759464E+032.2800188196E+02+
*       2.0000000000E+01               0
GRID*                341               01.1940760482E+031.9000201274E+02+
*       2.0000000000E+01               0
GRID*                342               01.1940759565E+031.5200194625E+02+
*       2.0000000000E+01               0
GRID*                343               01.1940756792E+031.1400168280E+02+
*       2.0000000000E+01               0
GRID*                344               01.1940752428E+037.6001242353E+01+
*       2.0000000000E+01               0
GRID*                345               01.1940746896E+033.8000663393E+01+
*       2.0000000000E+01               0
GRID*                346               01.1542596686E+033.4200034828E+02+
*       2.0000000000E+01               0
GRID*                347               01.1542600415E+033.0400068198E+02+
*       2.0000000000E+01               0
GRID*                348               01.1542603408E+032.6600096383E+02+
*       2.0000000000E+01               0
GRID*                349               01.1542605360E+032.2800116132E+02+
*       2.0000000000E+01               0
GRID*                350               01.1542606071E+031.9000125009E+02+
*       2.0000000000E+01               0
GRID*                351               01.1542605460E+031.5200121624E+02+
*       2.0000000000E+01               0
GRID*                352               01.1542603576E+031.1400105784E+02+
*       2.0000000000E+01               0
GRID*                353               01.1542600598E+037.6000785444E+01+
*       2.0000000000E+01               0
GRID*                354               01.1542596813E+033.8000421745E+01+
*       2.0000000000E+01               0
GRID*                355               01.1144447120E+033.4200020069E+02+
*       2.0000000000E+01               0
GRID*                356               01.1144449566E+033.0400039722E+02+
*       2.0000000000E+01               0
GRID*                357               01.1144451535E+032.6600056668E+02+
*       2.0000000000E+01               0
GRID*                358               01.1144452826E+032.2800068853E+02+
*       2.0000000000E+01               0
GRID*                359               01.1144453304E+031.9000074686E+02+
*       2.0000000000E+01               0
GRID*                360               01.1144452911E+031.5200073183E+02+
*       2.0000000000E+01               0
GRID*                361               01.1144451679E+031.1400064080E+02+
*       2.0000000000E+01               0
GRID*                362               01.1144449723E+037.6000478824E+01+
*       2.0000000000E+01               0
GRID*                363               01.1144447230E+033.8000258654E+01+
*       2.0000000000E+01               0
GRID*                364               01.0746297905E+033.4200010818E+02+
*       2.0000000000E+01               0
GRID*                365               01.0746299380E+033.0400021644E+02+
*       2.0000000000E+01               0
GRID*                366               01.0746300571E+032.6600031163E+02+
*       2.0000000000E+01               0
GRID*                367               01.0746301355E+032.2800038172E+02+
*       2.0000000000E+01               0
GRID*                368               01.0746301649E+031.9000041709E+02+
*       2.0000000000E+01               0
GRID*                369               01.0746301416E+031.5200041142E+02+
*       2.0000000000E+01               0
GRID*                370               01.0746300675E+031.1400036245E+02+
*       2.0000000000E+01               0
GRID*                371               01.0746299494E+037.6000272362E+01+
*       2.0000000000E+01               0
GRID*                372               01.0746297985E+033.8000147897E+01+
*       2.0000000000E+01               0
GRID*                373               01.0348148905E+033.4200004796E+02+
*       2.0000000000E+01               0
GRID*                374               01.0348149600E+033.0400009659E+02+
*       2.0000000000E+01               0
GRID*                375               01.0348150161E+032.6600013984E+02+
*       2.0000000000E+01               0
GRID*                376               01.0348150532E+032.2800017214E+02+
*       2.0000000000E+01               0
GRID*                377               01.0348150671E+031.9000018889E+02+
*       2.0000000000E+01               0
GRID*                378               01.0348150563E+031.5200018704E+02+
*       2.0000000000E+01               0
GRID*                379               01.0348150214E+031.1400016534E+02+
*       2.0000000000E+01               0
GRID*                380               01.0348149657E+037.6000124627E+01+
*       2.0000000000E+01               0
GRID*                381               01.0348148946E+033.8000067860E+01+
*       2.0000000000E+01               0
GRID*                382               01.8312385701E+033.4210492668E+02+
*       2.0000000000E+01               0
GRID*                383               01.8313225040E+033.0421435742E+02+
*       2.0000000000E+01               0
GRID*                384               01.8313638515E+032.6633425528E+02+
*       2.0000000000E+01               0
GRID*                385               01.8313864197E+032.2845525589E+02+
*       2.0000000000E+01               0
GRID*                386               01.8314080774E+031.9055060843E+02+
*       2.0000000000E+01               0
GRID*                387               01.8314296329E+031.5258793535E+02+
*       2.0000000000E+01               0
GRID*                388               01.8314341644E+031.1454385962E+02+
*       2.0000000000E+01               0
GRID*                389               01.8313929062E+037.6415155388E+01+
*       2.0000000000E+01               0
GRID*                390               01.8312819349E+033.8222446418E+01+
*       2.0000000000E+01               0
GRID*                391               01.9932711991E+033.4255498917E+02+
*       2.0000000000E+01               0
GRID*                392               01.9919233936E+033.0373773891E+02+
*       2.0000000000E+01               0
GRID*                393               01.9905437381E+032.6623257704E+02+
*       2.0000000000E+01               0
GRID*                394               01.9901480270E+032.2942768499E+02+
*       2.0000000000E+01               0
GRID*                395               01.9902918392E+031.9263569684E+02+
*       2.0000000000E+01               0
GRID*                396               01.9908320312E+031.5541651775E+02+
*       2.0000000000E+01               0
GRID*                397               01.9917747903E+031.1752819099E+02+
*       2.0000000000E+01               0
GRID*                398               01.9930888506E+037.8627128151E+01+
*       2.0000000000E+01               0
GRID*                399               01.9939445103E+033.8488890590E+01+
*       2.0000000000E+01               0
GRID*                400               02.0346180489E+038.1245374216E+01+
*       2.0000000000E+01               0
GRID*                401               02.0315595528E+031.2028244470E+02+
*       2.0000000000E+01               0
GRID*                402               02.0300825602E+031.5772365246E+02+
*       2.0000000000E+01               0
GRID*                403               02.0292652813E+031.9430759078E+02+
*       2.0000000000E+01               0
GRID*                404               02.0288516565E+032.3001793003E+02+
*       2.0000000000E+01               0
GRID*                405               02.0289649990E+032.6544459373E+02+
*       2.0000000000E+01               0
GRID*                406               02.0324439710E+033.0203216348E+02+
*       2.0000000000E+01               0
GRID*                407               02.0668329947E+032.3113225135E+02+
*       2.0000000000E+01               0
GRID*                408               02.0911902027E+032.6336692440E+02+
*       2.0000000000E+01               0
GRID*                409               02.1319003501E+032.6447254168E+02+
*       2.0000000000E+01               0
GRID*                410               02.1567730460E+032.4397875383E+02+
*       2.0000000000E+01               0
GRID*                411               02.0638419978E+032.6356253750E+02+
*       2.0000000000E+01               0
GRID*                412               02.0685539790E+031.6122389103E+02+
*       2.0000000000E+01               0
GRID*                413               02.1068152158E+031.6556977162E+02+
*       2.0000000000E+01               0
GRID*                414               02.1465829934E+031.7054718483E+02+
*       2.0000000000E+01               0
GRID*                415               02.0676889276E+031.9718996745E+02+
*       2.0000000000E+01               0
GRID*                416               02.1061435834E+031.2867688716E+02+
*       2.0000000000E+01               0
GRID*                417               02.1353443111E+031.0599088285E+02+
*       2.0000000000E+01               0
GRID*                418               02.1438804737E+031.3426919391E+02+
*       2.0000000000E+01               0
GRID*                419               02.0696624604E+031.2487430457E+02+
*       2.0000000000E+01               0
GRID*                420               01.9515582530E+033.4219587843E+02+
*       2.0000000000E+01               0
GRID*                421               01.9514221401E+033.0416481936E+02+
*       2.0000000000E+01               0
GRID*                422               01.9509821276E+032.6648384692E+02+
*       2.0000000000E+01               0
GRID*                423               01.9507722887E+032.2909367465E+02+
*       2.0000000000E+01               0
GRID*                424               01.9508358825E+031.9172098787E+02+
*       2.0000000000E+01               0
GRID*                425               01.9511325314E+031.5411262991E+02+
*       2.0000000000E+01               0
GRID*                426               01.9515911508E+031.1609351998E+02+
*       2.0000000000E+01               0
GRID*                427               01.9520208920E+037.7559417582E+01+
*       2.0000000000E+01               0
GRID*                428               01.9519183019E+033.8636106278E+01+
*       2.0000000000E+01               0
GRID*                429               01.9111610577E+033.4213868540E+02+
*       2.0000000000E+01               0
GRID*                430               01.9112391170E+033.0425714025E+02+
*       2.0000000000E+01               0
GRID*                431               01.9111411560E+032.6649006126E+02+
*       2.0000000000E+01               0
GRID*                432               01.9110752912E+032.2882776633E+02+
*       2.0000000000E+01               0
GRID*                433               01.9111159986E+031.9115608188E+02+
*       2.0000000000E+01               0
GRID*                434               01.9112587842E+031.5334421944E+02+
*       2.0000000000E+01               0
GRID*                435               01.9114438250E+031.1529648454E+02+
*       2.0000000000E+01               0
GRID*                436               01.9115404722E+037.6982321579E+01+
*       2.0000000000E+01               0
GRID*                437               01.9113451173E+033.8485281142E+01+
*       2.0000000000E+01               0
GRID*                438               01.8711385793E+033.4212231018E+02+
*       2.0000000000E+01               0
GRID*                439               01.8712366044E+033.0425194369E+02+
*       2.0000000000E+01               0
GRID*                440               01.8712489535E+032.6642106982E+02+
*       2.0000000000E+01               0
GRID*                441               01.8712493461E+032.2861998731E+02+
*       2.0000000000E+01               0
GRID*                442               01.8712797122E+031.9079562463E+02+
*       2.0000000000E+01               0
GRID*                443               01.8713413636E+031.5288261312E+02+
*       2.0000000000E+01               0
GRID*                444               01.8713992265E+031.1483281825E+02+
*       2.0000000000E+01               0
GRID*                445               01.8713868510E+037.6636381302E+01+
*       2.0000000000E+01               0
GRID*                446               01.8712309222E+033.8334589200E+01+
*       2.0000000000E+01               0
GRID*                447               01.7913799589E+033.4208730394E+02+
*       2.0000000000E+01               0
GRID*                448               01.7914447820E+033.0417502664E+02+
*       2.0000000000E+01               0
GRID*                449               01.7914870302E+032.6626178891E+02+
*       2.0000000000E+01               0
GRID*                450               01.7915131133E+032.2833968852E+02+
*       2.0000000000E+01               0
GRID*                451               01.7915291547E+031.9039392618E+02+
*       2.0000000000E+01               0
GRID*                452               01.7915347530E+031.5240793776E+02+
*       2.0000000000E+01               0
GRID*                453               01.7915220877E+031.1437045522E+02+
*       2.0000000000E+01               0
GRID*                454               01.7914797614E+037.6280980045E+01+
*       2.0000000000E+01               0
GRID*                455               01.7914014169E+033.8151079606E+01+
*       2.0000000000E+01               0
GRID*                456               01.7515397508E+033.4206971621E+02+
*       2.0000000000E+01               0
GRID*                457               01.7515885754E+033.0413758946E+02+
*       2.0000000000E+01               0
GRID*                458               01.7516241451E+032.6620040644E+02+
*       2.0000000000E+01               0
GRID*                459               01.7516470517E+032.2825209796E+02+
*       2.0000000000E+01               0
GRID*                460               01.7516585832E+031.9028401375E+02+
*       2.0000000000E+01               0
GRID*                461               01.7516579134E+031.5228743203E+02+
*       2.0000000000E+01               0
GRID*                462               01.7516416669E+031.1425699282E+02+
*       2.0000000000E+01               0
GRID*                463               01.7516059630E+037.6193348648E+01+
*       2.0000000000E+01               0
GRID*                464               01.7515503410E+033.8103722387E+01+
*       2.0000000000E+01               0
GRID*                465               01.7117084828E+033.4205410403E+02+
*       2.0000000000E+01               0
GRID*                466               01.7117448738E+033.0410558493E+02+
*       2.0000000000E+01               0
GRID*                467               01.7117727349E+032.6615112816E+02+
*       2.0000000000E+01               0
GRID*                468               01.7117909478E+032.2818624503E+02+
*       2.0000000000E+01               0
GRID*                469               01.7117991065E+031.9020565880E+02+
*       2.0000000000E+01               0
GRID*                470               01.7117964012E+031.5220463316E+02+
*       2.0000000000E+01               0
GRID*                471               01.7117814920E+031.1418068494E+02+
*       2.0000000000E+01               0
GRID*                472               01.7117535032E+037.6134877201E+01+
*       2.0000000000E+01               0
GRID*                473               01.7117136869E+033.8072068955E+01+
*       2.0000000000E+01               0
GRID*                474               01.6718822718E+033.4204116149E+02+
*       2.0000000000E+01               0
GRID*                475               01.6719092343E+033.0407970561E+02+
*       2.0000000000E+01               0
GRID*                476               01.6719303464E+032.6611275393E+02+
*       2.0000000000E+01               0
GRID*                477               01.6719441913E+032.2813703461E+02+
*       2.0000000000E+01               0
GRID*                478               01.6719499316E+031.9014921498E+02+
*       2.0000000000E+01               0
GRID*                479               01.6719469206E+031.5214664296E+02+
*       2.0000000000E+01               0
GRID*                480               01.6719347070E+031.1412822834E+02+
*       2.0000000000E+01               0
GRID*                481               01.6719134950E+037.6095080264E+01+
*       2.0000000000E+01               0
GRID*                482               01.6718848084E+033.8050603832E+01+
*       2.0000000000E+01               0
GRID*                483               01.6320592833E+033.4203086831E+02+
*       2.0000000000E+01               0
GRID*                484               01.6320791752E+033.0405945524E+02+
*       2.0000000000E+01               0
GRID*                485               01.6320949047E+032.6608343519E+02+
*       2.0000000000E+01               0
GRID*                486               01.6321052009E+032.2810043636E+02+
*       2.0000000000E+01               0
GRID*                487               01.6321092432E+031.9010829303E+02+
*       2.0000000000E+01               0
GRID*                488               01.6321065581E+031.5210547520E+02+
*       2.0000000000E+01               0
GRID*                489               01.6320970606E+031.1409155587E+02+
*       2.0000000000E+01               0
GRID*                490               01.6320812602E+037.6067527063E+01+
*       2.0000000000E+01               0
GRID*                491               01.6320605039E+033.8035820056E+01+
*       2.0000000000E+01               0
GRID*                492               01.5922385084E+033.4202289418E+02+
*       2.0000000000E+01               0
GRID*                493               01.5922531328E+033.0404393527E+02+
*       2.0000000000E+01               0
GRID*                494               01.5922647433E+032.6606131622E+02+
*       2.0000000000E+01               0
GRID*                495               01.5922723169E+032.2807332191E+02+
*       2.0000000000E+01               0
GRID*                496               01.5922751765E+031.9007851213E+02+
*       2.0000000000E+01               0
GRID*                497               01.5922729882E+031.5207597810E+02+
*       2.0000000000E+01               0
GRID*                498               01.5922658031E+031.1406559680E+02+
*       2.0000000000E+01               0
GRID*                499               01.5922541460E+037.6048187284E+01+
*       2.0000000000E+01               0
GRID*                500               01.5922390894E+033.8025496587E+01+
*       2.0000000000E+01               0
GRID*                501               01.5524193146E+033.4201682116E+02+
*       2.0000000000E+01               0
GRID*                502               01.5524300328E+033.0403220231E+02+
*       2.0000000000E+01               0
GRID*                503               01.5524385560E+032.6604477305E+02+
*       2.0000000000E+01               0
GRID*                504               01.5524440977E+032.2805329537E+02+
*       2.0000000000E+01               0
GRID*                505               01.5524461352E+031.9005679402E+02+
*       2.0000000000E+01               0
GRID*                506               01.5524444356E+031.5205471323E+02+
*       2.0000000000E+01               0
GRID*                507               01.5524390879E+031.1404705842E+02+
*       2.0000000000E+01               0
GRID*                508               01.5524305386E+037.6034472404E+01+
*       2.0000000000E+01               0
GRID*                509               01.5524196016E+033.8018209386E+01+
*       2.0000000000E+01               0
GRID*                510               02.0417867006E+033.6253059966E+01+
*       2.0000000000E+01               0
GRID*                511               02.0407321411E+033.4490626618E+02+
*       2.0000000000E+01               0
GRID*                512               02.1003966938E+032.9191528210E+02+
*       2.0000000000E+01               0
GRID*                513               02.0686107532E+032.9436354033E+02+
*       2.0000000000E+01               0
GRID*                514               02.0777473958E+033.1998377099E+02+
*       2.0000000000E+01               0
GRID*                515               02.1061756768E+032.0253090649E+02+
*       2.0000000000E+01               0
GRID*                516               02.1077120275E+032.3482849122E+02+
*       2.0000000000E+01               0
GRID*                517               02.1424487487E+032.1271040061E+02+
*       2.0000000000E+01               0
GRID*                518               02.0801973594E+036.1575452337E+01+
*       2.0000000000E+01               0
GRID*                519               02.0724487430E+038.9313524630E+01+
*       2.0000000000E+01               0
GRID*                520               02.1053267994E+038.9611349395E+01+
*       2.0000000000E+01               0
$*
$* ELEMENT CARDS
$*
$*  NX mesh: [Solar Panel AFM.afm]:cn_mesh(1)
RBE3           1             202  1234561.000000     123     586
RBE3           2             203  1234561.000000     123     585
RBE3           3             204  1234561.000000     123     584
$*  NX mesh: [Solar Panel Inner FEM]:2d_mesh(1)
CQUAD4         4       2       1      23      24       2
CQUAD4         5       2       2      24      25       3
CQUAD4         6       2       3      25      26       4
CQUAD4         7       2       4      26      27       5
CQUAD4         8       2       5      27      28       6
CQUAD4         9       2       6      28      29       7
CQUAD4        10       2       7      29      30       8
CQUAD4        11       2       8      30      31       9
CQUAD4        12       2       9      31      32      10
CQUAD4        13       2      10      32      33      11
CQUAD4        14       2      11      33      34      12
CQUAD4        15       2      12      34      35      13
CQUAD4        16       2      13      35      36      14
CQUAD4        17       2      14      36      37      15
CQUAD4        18       2      15      37      38      16
CQUAD4        19       2      16      38      39      17
CQUAD4        20       2      17      39      40      18
CQUAD4        21       2      18      40      41      19
CQUAD4        22       2      19      41      42      20
CQUAD4        23       2      20      42      43      21
CQUAD4        24       2      21      43      44      22
CQUAD4        25       2      23      45      46      24
CQUAD4        26       2      24      46      47      25
CQUAD4        27       2      25      47      48      26
CQUAD4        28       2      26      48      49      27
CQUAD4        29       2      27      49      50      28
CQUAD4        30       2      28      50      51      29
CQUAD4        31       2      29      51      52      30
CQUAD4        32       2      30      52      53      31
CQUAD4        33       2      31      53      54      32
CQUAD4        34       2      32      54      55      33
CQUAD4        35       2      33      55      56      34
CQUAD4        36       2      34      56      57      35
CQUAD4        37       2      35      57      58      36
CQUAD4        38       2      36      58      59      37
CQUAD4        39       2      37      59      60      38
CQUAD4        40       2      38      60      61      39
CQUAD4        41       2      39      61      62      40
CQUAD4        42       2      40      62      63      41
CQUAD4        43       2      41      63      64      42
CQUAD4        44       2      42      64      65      43
CQUAD4        45       2      43      65      66      44
CQUAD4        46       2      45      67      68      46
CQUAD4        47       2      46      68      69      47
CQUAD4        48       2      47      69      70      48
CQUAD4        49       2      48      70      71      49
CQUAD4        50       2      49      71      72      50
CQUAD4        51       2      50      72      73      51
CQUAD4        52       2      51      73      74      52
CQUAD4        53       2      52      74      75      53
CQUAD4        54       2      53      75      76      54
CQUAD4        55       2      54      76      77      55
CQUAD4        56       2      55      77      78      56
CQUAD4        57       2      56      78      79      57
CQUAD4        58       2      57      79      80      58
CQUAD4        59       2      58      80      81      59
CQUAD4        60       2      59      81      82      60
CQUAD4        61       2      60      82      83      61
CQUAD4        62       2      61      83      84      62
CQUAD4        63       2      62      84      85      63
CQUAD4        64       2      63      85      86      64
CQUAD4        65       2      64      86      87      65
CQUAD4        66       2      65      87      88      66
CQUAD4        67       2      67      89      90      68
CQUAD4        68       2      68      90      91      69
CQUAD4        69       2      69      91      92      70
CQUAD4        70       2      70      92      93      71
CQUAD4        71       2      71      93      94      72
CQUAD4        72       2      72      94      95      73
CQUAD4        73       2      73      95      96      74
CQUAD4        74       2      74      96      97      75
CQUAD4        75       2      75      97      98      76
CQUAD4        76       2      76      98      99      77
CQUAD4        77       2      77      99     100      78
CQUAD4        78       2      78     100     101      79
CQUAD4        79       2      79     101     102      80
CQUAD4        80       2      80     102     103      81
CQUAD4        81       2      81     103     104      82
CQUAD4        82       2      82     104     105      83
CQUAD4        83       2      83     105     106      84
CQUAD4        84       2      84     106     107      85
CQUAD4        85       2      85     107     108      86
CQUAD4        86       2      86     108     109      87
CQUAD4        87       2      87     109     110      88
CQUAD4        88       2      89     111     112      90
CQUAD4        89       2      90     112     113      91
CQUAD4        90       2      91     113     114      92
CQUAD4        91       2      92     114     115      93
CQUAD4        92       2      93     115     116      94
CQUAD4        93       2      94     116     117      95
CQUAD4        94       2      95     117     118      96
CQUAD4        95       2      96     118     119      97
CQUAD4        96       2      97     119     120      98
CQUAD4        97       2      98     120     121      99
CQUAD4        98       2      99     121     122     100
CQUAD4        99       2     100     122     123     101
CQUAD4       100       2     101     123     124     102
CQUAD4       101       2     102     124     125     103
CQUAD4       102       2     103     125     126     104
CQUAD4       103       2     104     126     127     105
CQUAD4       104       2     105     127     128     106
CQUAD4       105       2     106     128     129     107
CQUAD4       106       2     107     129     130     108
CQUAD4       107       2     108     130     131     109
CQUAD4       108       2     109     131     132     110
CQUAD4       109       2     111     133     134     112
CQUAD4       110       2     112     134     135     113
CQUAD4       111       2     113     135     136     114
CQUAD4       112       2     114     136     137     115
CQUAD4       113       2     115     137     138     116
CQUAD4       114       2     116     138     139     117
CQUAD4       115       2     117     139     140     118
CQUAD4       116       2     118     140     141     119
CQUAD4       117       2     119     141     142     120
CQUAD4       118       2     120     142     143     121
CQUAD4       119       2     121     143     144     122
CQUAD4       120       2     122     144     145     123
CQUAD4       121       2     123     145     146     124
CQUAD4       122       2     124     146     147     125
CQUAD4       123       2     125     147     148     126
CQUAD4       124       2     126     148     149     127
CQUAD4       125       2     127     149     150     128
CQUAD4       126       2     128     150     151     129
CQUAD4       127       2     129     151     152     130
CQUAD4       128       2     130     152     153     131
CQUAD4       129       2     131     153     154     132
CQUAD4       130       2     133     155     156     134
CQUAD4       131       2     134     156     157     135
CQUAD4       132       2     135     157     158     136
CQUAD4       133       2     136     158     159     137
CQUAD4       134       2     137     159     160     138
CQUAD4       135       2     138     160     161     139
CQUAD4       136       2     139     161     162     140
CQUAD4       137       2     140     162     163     141
CQUAD4       138       2     141     163     164     142
CQUAD4       139       2     142     164     165     143
CQUAD4       140       2     143     165     166     144
CQUAD4       141       2     144     166     167     145
CQUAD4       142       2     145     167     168     146
CQUAD4       143       2     146     168     169     147
CQUAD4       144       2     147     169     170     148
CQUAD4       145       2     148     170     171     149
CQUAD4       146       2     149     171     172     150
CQUAD4       147       2     150     172     173     151
CQUAD4       148       2     151     173     174     152
CQUAD4       149       2     152     174     175     153
CQUAD4       150       2     153     175     176     154
CQUAD4       151       2     155     177     178     156
CQUAD4       152       2     156     178     179     157
CQUAD4       153       2     157     179     180     158
CQUAD4       154       2     158     180     181     159
CQUAD4       155       2     159     181     182     160
CQUAD4       156       2     160     182     183     161
CQUAD4       157       2     161     183     184     162
CQUAD4       158       2     162     184     185     163
CQUAD4       159       2     163     185     186     164
CQUAD4       160       2     164     186     187     165
CQUAD4       161       2     165     187     188     166
CQUAD4       162       2     166     188     189     167
CQUAD4       163       2     167     189     190     168
CQUAD4       164       2     168     190     191     169
CQUAD4       165       2     169     191     192     170
CQUAD4       166       2     170     192     193     171
CQUAD4       167       2     171     193     194     172
CQUAD4       168       2     172     194     195     173
CQUAD4       169       2     173     195     196     174
CQUAD4       170       2     174     196     197     175
CQUAD4       171       2     175     197     198     176
CQUAD4       172       2     263     207       1     208
CQUAD4       173       2     207     206      23       1
CQUAD4       174       2     206     205      45      23
CQUAD4       175       2     205     204      67      45
CQUAD4       176       2     204     203      89      67
CQUAD4       177       2     203     202     111      89
CQUAD4       178       2     202     201     133     111
CQUAD4       179       2     201     200     155     133
CQUAD4       180       2     200     199     177     155
CQUAD4       181       2     199     261     251     177
CQUAD4       182       2     251     250     178     177
CQUAD4       183       2     250     249     179     178
CQUAD4       184       2     249     248     180     179
CQUAD4       185       2     248     247     181     180
CQUAD4       186       2     247     246     182     181
CQUAD4       187       2     246     245     183     182
CQUAD4       188       2     245     244     184     183
CQUAD4       189       2     244     243     185     184
CQUAD4       190       2     243     242     186     185
CQUAD4       191       2     242     241     187     186
CQUAD4       192       2     241     240     188     187
CQUAD4       193       2     240     239     189     188
CQUAD4       194       2     239     238     190     189
CQUAD4       195       2     238     237     191     190
CQUAD4       196       2     237     236     192     191
CQUAD4       197       2     236     235     193     192
CQUAD4       198       2     235     234     194     193
CQUAD4       199       2     234     233     195     194
CQUAD4       200       2     233     232     196     195
CQUAD4       201       2     232     231     197     196
CQUAD4       202       2     231     230     198     197
CQUAD4       203       2     230     264     252     198
CQUAD4       204       2     252     253     176     198
CQUAD4       205       2     253     254     154     176
CQUAD4       206       2     254     255     132     154
CQUAD4       207       2     255     256     110     132
CQUAD4       208       2     256     257      88     110
CQUAD4       209       2     257     258      66      88
CQUAD4       210       2     258     259      44      66
CQUAD4       211       2     259     260      22      44
CQUAD4       212       2     260     262     229      22
CQUAD4       213       2     229     228      21      22
CQUAD4       214       2     228     227      20      21
CQUAD4       215       2     227     226      19      20
CQUAD4       216       2     226     225      18      19
CQUAD4       217       2     225     224      17      18
CQUAD4       218       2     224     223      16      17
CQUAD4       219       2     223     222      15      16
CQUAD4       220       2     222     221      14      15
CQUAD4       221       2     221     220      13      14
CQUAD4       222       2     220     219      12      13
CQUAD4       223       2     219     218      11      12
CQUAD4       224       2     218     217      10      11
CQUAD4       225       2     217     216       9      10
CQUAD4       226       2     216     215       8       9
CQUAD4       227       2     215     214       7       8
CQUAD4       228       2     214     213       6       7
CQUAD4       229       2     213     212       5       6
CQUAD4       230       2     212     211       4       5
CQUAD4       231       2     211     210       3       4
CQUAD4       232       2     210     209       2       3
CQUAD4       233       2     209     208       1       2
$*  NX mesh: [Solar Panel Outer FEM]:2d_mesh(1)
CQUAD4       234       1     274     283     284     275
CQUAD4       235       1     275     284     285     276
CQUAD4       236       1     276     285     286     277
CQUAD4       237       1     277     286     287     278
CQUAD4       238       1     278     287     288     279
CQUAD4       239       1     279     288     289     280
CQUAD4       240       1     280     289     290     281
CQUAD4       241       1     281     290     291     282
CQUAD4       242       1     283     292     293     284
CQUAD4       243       1     284     293     294     285
CQUAD4       244       1     285     294     295     286
CQUAD4       245       1     286     295     296     287
CQUAD4       246       1     287     296     297     288
CQUAD4       247       1     288     297     298     289
CQUAD4       248       1     289     298     299     290
CQUAD4       249       1     290     299     300     291
CQUAD4       250       1     292     301     302     293
CQUAD4       251       1     293     302     303     294
CQUAD4       252       1     294     303     304     295
CQUAD4       253       1     295     304     305     296
CQUAD4       254       1     296     305     306     297
CQUAD4       255       1     297     306     307     298
CQUAD4       256       1     298     307     308     299
CQUAD4       257       1     299     308     309     300
CQUAD4       258       1     301     310     311     302
CQUAD4       259       1     302     311     312     303
CQUAD4       260       1     303     312     313     304
CQUAD4       261       1     304     313     314     305
CQUAD4       262       1     305     314     315     306
CQUAD4       263       1     306     315     316     307
CQUAD4       264       1     307     316     317     308
CQUAD4       265       1     308     317     318     309
CQUAD4       266       1     310     319     320     311
CQUAD4       267       1     311     320     321     312
CQUAD4       268       1     312     321     322     313
CQUAD4       269       1     313     322     323     314
CQUAD4       270       1     314     323     324     315
CQUAD4       271       1     315     324     325     316
CQUAD4       272       1     316     325     326     317
CQUAD4       273       1     317     326     327     318
CQUAD4       274       1     319     328     329     320
CQUAD4       275       1     320     329     330     321
CQUAD4       276       1     321     330     331     322
CQUAD4       277       1     322     331     332     323
CQUAD4       278       1     323     332     333     324
CQUAD4       279       1     324     333     334     325
CQUAD4       280       1     325     334     335     326
CQUAD4       281       1     326     335     336     327
CQUAD4       282       1     328     337     338     329
CQUAD4       283       1     329     338     339     330
CQUAD4       284       1     330     339     340     331
CQUAD4       285       1     331     340     341     332
CQUAD4       286       1     332     341     342     333
CQUAD4       287       1     333     342     343     334
CQUAD4       288       1     334     343     344     335
CQUAD4       289       1     335     344     345     336
CQUAD4       290       1     337     346     347     338
CQUAD4       291       1     338     347     348     339
CQUAD4       292       1     339     348     349     340
CQUAD4       293       1     340     349     350     341
CQUAD4       294       1     341     350     351     342
CQUAD4       295       1     342     351     352     343
CQUAD4       296       1     343     352     353     344
CQUAD4       297       1     344     353     354     345
CQUAD4       298       1     346     355     356     347
CQUAD4       299       1     347     356     357     348
CQUAD4       300       1     348     357     358     349
CQUAD4       301       1     349     358     359     350
CQUAD4       302       1     350     359     360     351
CQUAD4       303       1     351     360     361     352
CQUAD4       304       1     352     361     362     353
CQUAD4       305       1     353     362     363     354
CQUAD4       306       1     355     364     365     356
CQUAD4       307       1     356     365     366     357
CQUAD4       308       1     357     366     367     358
CQUAD4       309       1     358     367     368     359
CQUAD4       310       1     359     368     369     360
CQUAD4       311       1     360     369     370     361
CQUAD4       312       1     361     370     371     362
CQUAD4       313       1     362     371     372     363
CQUAD4       314       1     364     373     374     365
CQUAD4       315       1     365     374     375     366
CQUAD4       316       1     366     375     376     367
CQUAD4       317       1     367     376     377     368
CQUAD4       318       1     368     377     378     369
CQUAD4       319       1     369     378     379     370
CQUAD4       320       1     370     379     380     371
CQUAD4       321       1     371     380     381     372
CQUAD4       322       1     539     538     274     273
CQUAD4       323       1     538     537     283     274
CQUAD4       324       1     537     536     292     283
CQUAD4       325       1     536     535     301     292
CQUAD4       326       1     535     534     310     301
CQUAD4       327       1     534     533     319     310
CQUAD4       328       1     533     532     328     319
CQUAD4       329       1     532     531     337     328
CQUAD4       330       1     531     530     346     337
CQUAD4       331       1     530     529     355     346
CQUAD4       332       1     529     528     364     355
CQUAD4       333       1     528     527     373     364
CQUAD4       334       1     527     593     589     373
CQUAD4       335       1     589     588     374     373
CQUAD4       336       1     588     587     375     374
CQUAD4       337       1     587     586     376     375
CQUAD4       338       1     586     585     377     376
CQUAD4       339       1     585     584     378     377
CQUAD4       340       1     584     583     379     378
CQUAD4       341       1     583     582     380     379
CQUAD4       342       1     582     581     381     380
CQUAD4       343       1     581     590     578     381
CQUAD4       344       1     578     577     372     381
CQUAD4       345       1     577     576     363     372
CQUAD4       346       1     576     575     354     363
CQUAD4       347       1     575     574     345     354
CQUAD4       348       1     574     573     336     345
CQUAD4       349       1     573     572     327     336
CQUAD4       350       1     572     571     318     327
CQUAD4       351       1     571     570     309     318
CQUAD4       352       1     570     569     300     309
CQUAD4       353       1     569     568     291     300
CQUAD4       354       1     568     567     282     291
CQUAD4       355       1     567     566     265     282
CQUAD4       356       1     265     266     281     282
CQUAD4       357       1     266     267     280     281
CQUAD4       358       1     267     268     279     280
CQUAD4       359       1     268     269     278     279
CQUAD4       360       1     269     270     277     278
CQUAD4       361       1     270     271     276     277
CQUAD4       362       1     271     272     275     276
CQUAD4       363       1     272     273     274     275
CQUAD4       364       1     551     391     511     552
CQUAD4       365       1     391     392     406     511
CQUAD4       366       1     392     393     405     406
CQUAD4       367       1     393     394     404     405
CQUAD4       368       1     394     395     403     404
CQUAD4       369       1     395     396     402     403
CQUAD4       370       1     396     397     401     402
CQUAD4       371       1     397     398     400     401
CQUAD4       372       1     398     399     510     400
CQUAD4       373       1     399     554     553     510
CQUAD4       374       1     517     579     591     410
CQUAD4       375       1     591     523     409     410
CQUAD4       376       1     517     410     409     516
CQUAD4       377       1     409     523     522     512
CQUAD4       378       1     408     516     409     512
CQUAD4       379       1     407     411     405     404
CQUAD4       380       1     513     406     405     411
CQUAD4       381       1     513     411     408     512
CQUAD4       382       1     514     512     522     521
CQUAD4       383       1     511     406     513     514
CQUAD4       384       1     595     511     514     521
CQUAD4       385       1     414     580     579     517
CQUAD4       386       1     517     515     413     414
CQUAD4       387       1     516     407     415     515
CQUAD4       388       1     407     404     403     415
CQUAD4       389       1     403     402     412     415
CQUAD4       390       1     412     413     515     415
CQUAD4       391       1     594     580     414     418
CQUAD4       392       1     594     418     417     524
CQUAD4       393       1     520     525     524     417
CQUAD4       394       1     419     412     402     401
CQUAD4       395       1     519     520     416     419
CQUAD4       396       1     519     419     401     400
CQUAD4       397       1     520     518     526     525
CQUAD4       398       1     518     519     400     510
CQUAD4       399       1     510     592     526     518
CQUAD4       400       1     420     429     430     421
CQUAD4       401       1     421     430     431     422
CQUAD4       402       1     422     431     432     423
CQUAD4       403       1     423     432     433     424
CQUAD4       404       1     424     433     434     425
CQUAD4       405       1     425     434     435     426
CQUAD4       406       1     426     435     436     427
CQUAD4       407       1     427     436     437     428
CQUAD4       408       1     429     438     439     430
CQUAD4       409       1     430     439     440     431
CQUAD4       410       1     431     440     441     432
CQUAD4       411       1     432     441     442     433
CQUAD4       412       1     433     442     443     434
CQUAD4       413       1     434     443     444     435
CQUAD4       414       1     435     444     445     436
CQUAD4       415       1     436     445     446     437
CQUAD4       416       1     551     550     420     391
CQUAD4       417       1     550     549     429     420
CQUAD4       418       1     549     548     438     429
CQUAD4       419       1     548     547     382     438
CQUAD4       420       1     382     383     439     438
CQUAD4       421       1     383     384     440     439
CQUAD4       422       1     384     385     441     440
CQUAD4       423       1     385     386     442     441
CQUAD4       424       1     386     387     443     442
CQUAD4       425       1     387     388     444     443
CQUAD4       426       1     388     389     445     444
CQUAD4       427       1     389     390     446     445
CQUAD4       428       1     390     558     557     446
CQUAD4       429       1     557     556     437     446
CQUAD4       430       1     556     555     428     437
CQUAD4       431       1     555     554     399     428
CQUAD4       432       1     399     398     427     428
CQUAD4       433       1     398     397     426     427
CQUAD4       434       1     397     396     425     426
CQUAD4       435       1     396     395     424     425
CQUAD4       436       1     395     394     423     424
CQUAD4       437       1     394     393     422     423
CQUAD4       438       1     393     392     421     422
CQUAD4       439       1     392     391     420     421
CQUAD4       440       1     447     456     457     448
CQUAD4       441       1     448     457     458     449
CQUAD4       442       1     449     458     459     450
CQUAD4       443       1     450     459     460     451
CQUAD4       444       1     451     460     461     452
CQUAD4       445       1     452     461     462     453
CQUAD4       446       1     453     462     463     454
CQUAD4       447       1     454     463     464     455
CQUAD4       448       1     456     465     466     457
CQUAD4       449       1     457     466     467     458
CQUAD4       450       1     458     467     468     459
CQUAD4       451       1     459     468     469     460
CQUAD4       452       1     460     469     470     461
CQUAD4       453       1     461     470     471     462
CQUAD4       454       1     462     471     472     463
CQUAD4       455       1     463     472     473     464
CQUAD4       456       1     465     474     475     466
CQUAD4       457       1     466     475     476     467
CQUAD4       458       1     467     476     477     468
CQUAD4       459       1     468     477     478     469
CQUAD4       460       1     469     478     479     470
CQUAD4       461       1     470     479     480     471
CQUAD4       462       1     471     480     481     472
CQUAD4       463       1     472     481     482     473
CQUAD4       464       1     474     483     484     475
CQUAD4       465       1     475     484     485     476
CQUAD4       466       1     476     485     486     477
CQUAD4       467       1     477     486     487     478
CQUAD4       468       1     478     487     488     479
CQUAD4       469       1     479     488     489     480
CQUAD4       470       1     480     489     490     481
CQUAD4       471       1     481     490     491     482
CQUAD4       472       1     483     492     493     484
CQUAD4       473       1     484     493     494     485
CQUAD4       474       1     485     494     495     486
CQUAD4       475       1     486     495     496     487
CQUAD4       476       1     487     496     497     488
CQUAD4       477       1     488     497     498     489
CQUAD4       478       1     489     498     499     490
CQUAD4       479       1     490     499     500     491
CQUAD4       480       1     492     501     502     493
CQUAD4       481       1     493     502     503     494
CQUAD4       482       1     494     503     504     495
CQUAD4       483       1     495     504     505     496
CQUAD4       484       1     496     505     506     497
CQUAD4       485       1     497     506     507     498
CQUAD4       486       1     498     507     508     499
CQUAD4       487       1     499     508     509     500
CQUAD4       488       1     547     546     447     382
CQUAD4       489       1     546     545     456     447
CQUAD4       490       1     545     544     465     456
CQUAD4       491       1     544     543     474     465
CQUAD4       492       1     543     542     483     474
CQUAD4       493       1     542     541     492     483
CQUAD4       494       1     541     540     501     492
CQUAD4       495       1     540     539     273     501
CQUAD4       496       1     273     272     502     501
CQUAD4       497       1     272     271     503     502
CQUAD4       498       1     271     270     504     503
CQUAD4       499       1     270     269     505     504
CQUAD4       500       1     269     268     506     505
CQUAD4       501       1     268     267     507     506
CQUAD4       502       1     267     266     508     507
CQUAD4       503       1     266     265     509     508
CQUAD4       504       1     265     566     565     509
CQUAD4       505       1     565     564     500     509
CQUAD4       506       1     564     563     491     500
CQUAD4       507       1     563     562     482     491
CQUAD4       508       1     562     561     473     482
CQUAD4       509       1     561     560     464     473
CQUAD4       510       1     560     559     455     464
CQUAD4       511       1     559     558     390     455
CQUAD4       512       1     390     389     454     455
CQUAD4       513       1     389     388     453     454
CQUAD4       514       1     388     387     452     453
CQUAD4       515       1     387     386     451     452
CQUAD4       516       1     386     385     450     451
CQUAD4       517       1     385     384     449     450
CQUAD4       518       1     384     383     448     449
CQUAD4       519       1     383     382     447     448
CQUAD4       520       1     408     411     407     516
CQUAD4       521       1     412     419     416     413
CQUAD4       522       1     416     520     417     418
CQUAD4       523       1     418     414     413     416
CTRIA3       524       1     514     513     512
CTRIA3       525       1     595     552     511
CTRIA3       526       1     517     516     515
CTRIA3       527       1     520     519     518
CTRIA3       528       1     510     553     592
$*
$* PROPERTY CARDS
$*
$*  NX Property: PSHELL1
PSHELL         2       1 10.0000       11.000000       10.833333  0.0000
$*  NX Property: PSHELL1
PSHELL         1       2 10.0000       21.000000       20.833333  0.0000
$*
$* MATERIAL CARDS
$*
$*  NX Material: EPOXY
MAT1           13.0000+6        0.3700001.3000-66.0000-5 20.0000
$*  NX Material: EPOXY
MAT1           23.0000+6        0.3700001.3000-66.0000-5 20.0000
ENDDATA b6738e86
